<?xml version="1.0"?>
<VTKFile type="UnstructuredGrid" version="0.1">
<UnstructuredGrid>
<Piece NumberOfPoints="      1156" NumberOfCells="      1024">
<Points>
<DataArray type="Float64"                                    Name="coordinates"                                                      NumberOfComponents=" 3" format="ascii">
              0.133000000               0.000000000               0.000000000               0.155937500               0.000000000               0.000000000               0.178875000               0.000000000               0.000000000               0.201812500               0.000000000               0.000000000               0.224750000               0.000000000               0.000000000               0.247687500               0.000000000               0.000000000               0.270625000               0.000000000               0.000000000               0.293562500               0.000000000               0.000000000               0.316500000               0.000000000               0.000000000               0.339437500               0.000000000               0.000000000               0.362375000               0.000000000               0.000000000               0.385312500               0.000000000               0.000000000               0.408250000               0.000000000               0.000000000               0.431187500               0.000000000               0.000000000               0.454125000               0.000000000               0.000000000               0.477062500               0.000000000               0.000000000               0.500000000               0.000000000               0.000000000               0.132359569               0.013036280               0.000000000               0.155337096               0.016127762               0.000000000               0.178314623               0.019219245               0.000000000               0.201292150               0.022310727               0.000000000               0.224269676               0.025402210               0.000000000               0.247247203               0.028493692               0.000000000               0.270224730               0.031585175               0.000000000               0.293202257               0.034676657               0.000000000               0.316179784               0.037768140               0.000000000               0.339157311               0.040859622               0.000000000               0.362134838               0.043951105               0.000000000               0.385112365               0.047042587               0.000000000               0.408089892               0.050134070               0.000000000               0.431067419               0.053225552               0.000000000               0.454044946               0.056317035               0.000000000               0.477022473               0.059408517               0.000000000               0.500000000               0.062500000               0.000000000               0.130444442               0.025947013               0.000000000               0.153541665               0.032137825               0.000000000               0.176638887               0.038328636               0.000000000               0.199736109               0.044519448               0.000000000               0.222833332               0.050710260               0.000000000               0.245930554               0.056901071               0.000000000               0.269027776               0.063091883               0.000000000               0.292124999               0.069282695               0.000000000               0.315222221               0.075473506               0.000000000               0.338319444               0.081664318               0.000000000               0.361416666               0.087855130               0.000000000               0.384513888               0.094045942               0.000000000               0.407611111               0.100236753               0.000000000               0.430708333               0.106427565               0.000000000               0.453805555               0.112618377               0.000000000               0.476902778               0.118809188               0.000000000               0.500000000               0.125000000               0.000000000               0.127273065               0.038607862               0.000000000               0.150568498               0.047913621               0.000000000               0.173863932               0.057219379               0.000000000               0.197159365               0.066525138               0.000000000               0.220454798               0.075830897               0.000000000               0.243750232               0.085136655               0.000000000               0.267045665               0.094442414               0.000000000               0.290341099               0.103748172               0.000000000               0.313636532               0.113053931               0.000000000               0.336931966               0.122359690               0.000000000               0.360227399               0.131665448               0.000000000               0.383522833               0.140971207               0.000000000               0.406818266               0.150276966               0.000000000               0.430113700               0.159582724               0.000000000               0.453409133               0.168888483               0.000000000               0.476704567               0.178194241               0.000000000               0.500000000               0.187500000               0.000000000               0.122875978               0.050896897               0.000000000               0.146446229               0.063340840               0.000000000               0.170016481               0.075784784               0.000000000               0.193586732               0.088228728               0.000000000               0.217156983               0.100672672               0.000000000               0.240727235               0.113116616               0.000000000               0.264297486               0.125560560               0.000000000               0.287867738               0.138004504               0.000000000               0.311437989               0.150448448               0.000000000               0.335008240               0.162892392               0.000000000               0.358578492               0.175336336               0.000000000               0.382148743               0.187780280               0.000000000               0.405718994               0.200224224               0.000000000               0.429289246               0.212668168               0.000000000               0.452859497               0.225112112               0.000000000               0.476429749               0.237556056               0.000000000               0.500000000               0.250000000               0.000000000               0.117295528               0.062695766               0.000000000               0.141214558               0.078308531               0.000000000               0.165133587               0.093921295               0.000000000               0.189052617               0.109534060               0.000000000               0.212971646               0.125146824               0.000000000               0.236890676               0.140759589               0.000000000               0.260809705               0.156372354               0.000000000               0.284728735               0.171985118               0.000000000               0.308647764               0.187597883               0.000000000               0.332566794               0.203210648               0.000000000               0.356485823               0.218823412               0.000000000               0.380404853               0.234436177               0.000000000               0.404323882               0.250048941               0.000000000               0.428242912               0.265661706               0.000000000               0.452161941               0.281274471               0.000000000               0.476080971               0.296887235               0.000000000               0.500000000               0.312500000               0.000000000               0.110585458               0.073890841               0.000000000               0.134923867               0.092710163               0.000000000               0.159262276               0.111529486               0.000000000               0.183600685               0.130348808               0.000000000               0.207939094               0.149168131               0.000000000               0.232277503               0.167987453               0.000000000               0.256615912               0.186806776               0.000000000               0.280954320               0.205626098               0.000000000               0.305292729               0.224445420               0.000000000               0.329631138               0.243264743               0.000000000               0.353969547               0.262084065               0.000000000               0.378307956               0.280903388               0.000000000               0.402646365               0.299722710               0.000000000               0.426984773               0.318542033               0.000000000               0.451323182               0.337361355               0.000000000               0.475661591               0.356180678               0.000000000               0.500000000               0.375000000               0.000000000               0.102810390               0.084374307               0.000000000               0.127634741               0.106444663               0.000000000               0.152459092               0.128515018               0.000000000               0.177283442               0.150585374               0.000000000               0.202107793               0.172655730               0.000000000               0.226932143               0.194726086               0.000000000               0.251756494               0.216796442               0.000000000               0.276580845               0.238866798               0.000000000               0.301405195               0.260937153               0.000000000               0.326229546               0.283007509               0.000000000               0.351053896               0.305077865               0.000000000               0.375878247               0.327148221               0.000000000               0.400702598               0.349218577               0.000000000               0.425526948               0.371288933               0.000000000               0.450351299               0.393359288               0.000000000               0.475175649               0.415429644               0.000000000               0.500000000               0.437500000               0.000000000               0.094045202               0.094045202               0.000000000               0.119417377               0.119417377               0.000000000               0.144789552               0.144789552               0.000000000               0.170161727               0.170161727               0.000000000               0.195533901               0.195533901               0.000000000               0.220906076               0.220906076               0.000000000               0.246278251               0.246278251               0.000000000               0.271650426               0.271650426               0.000000000               0.297022601               0.297022601               0.000000000               0.322394776               0.322394776               0.000000000               0.347766951               0.347766951               0.000000000               0.373139126               0.373139126               0.000000000               0.398511300               0.398511300               0.000000000               0.423883475               0.423883475               0.000000000               0.449255650               0.449255650               0.000000000               0.474627825               0.474627825               0.000000000               0.500000000               0.500000000               0.000000000               0.084374307               0.102810390               0.000000000               0.106444663               0.127634741               0.000000000               0.128515018               0.152459092               0.000000000               0.150585374               0.177283442               0.000000000               0.172655730               0.202107793               0.000000000               0.194726086               0.226932143               0.000000000               0.216796442               0.251756494               0.000000000               0.238866798               0.276580845               0.000000000               0.260937153               0.301405195               0.000000000               0.283007509               0.326229546               0.000000000               0.305077865               0.351053896               0.000000000               0.327148221               0.375878247               0.000000000               0.349218577               0.400702598               0.000000000               0.371288933               0.425526948               0.000000000               0.393359288               0.450351299               0.000000000               0.415429644               0.475175649               0.000000000               0.437500000               0.500000000               0.000000000               0.073890841               0.110585458               0.000000000               0.092710163               0.134923867               0.000000000               0.111529486               0.159262276               0.000000000               0.130348808               0.183600685               0.000000000               0.149168131               0.207939094               0.000000000               0.167987453               0.232277503               0.000000000               0.186806776               0.256615912               0.000000000               0.205626098               0.280954320               0.000000000               0.224445420               0.305292729               0.000000000               0.243264743               0.329631138               0.000000000               0.262084065               0.353969547               0.000000000               0.280903388               0.378307956               0.000000000               0.299722710               0.402646365               0.000000000               0.318542033               0.426984773               0.000000000               0.337361355               0.451323182               0.000000000               0.356180678               0.475661591               0.000000000               0.375000000               0.500000000               0.000000000               0.062695766               0.117295528               0.000000000               0.078308531               0.141214558               0.000000000               0.093921295               0.165133587               0.000000000               0.109534060               0.189052617               0.000000000               0.125146824               0.212971646               0.000000000               0.140759589               0.236890676               0.000000000               0.156372354               0.260809705               0.000000000               0.171985118               0.284728735               0.000000000               0.187597883               0.308647764               0.000000000               0.203210648               0.332566794               0.000000000               0.218823412               0.356485823               0.000000000               0.234436177               0.380404853               0.000000000               0.250048941               0.404323882               0.000000000               0.265661706               0.428242912               0.000000000               0.281274471               0.452161941               0.000000000               0.296887235               0.476080971               0.000000000               0.312500000               0.500000000               0.000000000               0.050896897               0.122875978               0.000000000               0.063340840               0.146446229               0.000000000               0.075784784               0.170016481               0.000000000               0.088228728               0.193586732               0.000000000               0.100672672               0.217156983               0.000000000               0.113116616               0.240727235               0.000000000               0.125560560               0.264297486               0.000000000               0.138004504               0.287867738               0.000000000               0.150448448               0.311437989               0.000000000               0.162892392               0.335008240               0.000000000               0.175336336               0.358578492               0.000000000               0.187780280               0.382148743               0.000000000               0.200224224               0.405718994               0.000000000               0.212668168               0.429289246               0.000000000               0.225112112               0.452859497               0.000000000               0.237556056               0.476429749               0.000000000               0.250000000               0.500000000               0.000000000               0.038607862               0.127273065               0.000000000               0.047913621               0.150568498               0.000000000               0.057219379               0.173863932               0.000000000               0.066525138               0.197159365               0.000000000               0.075830897               0.220454798               0.000000000               0.085136655               0.243750232               0.000000000               0.094442414               0.267045665               0.000000000               0.103748172               0.290341099               0.000000000               0.113053931               0.313636532               0.000000000               0.122359690               0.336931966               0.000000000               0.131665448               0.360227399               0.000000000               0.140971207               0.383522833               0.000000000               0.150276966               0.406818266               0.000000000               0.159582724               0.430113700               0.000000000               0.168888483               0.453409133               0.000000000               0.178194241               0.476704567               0.000000000               0.187500000               0.500000000               0.000000000               0.025947013               0.130444442               0.000000000               0.032137825               0.153541665               0.000000000               0.038328636               0.176638887               0.000000000               0.044519448               0.199736109               0.000000000               0.050710260               0.222833332               0.000000000               0.056901071               0.245930554               0.000000000               0.063091883               0.269027776               0.000000000               0.069282695               0.292124999               0.000000000               0.075473506               0.315222221               0.000000000               0.081664318               0.338319444               0.000000000               0.087855130               0.361416666               0.000000000               0.094045942               0.384513888               0.000000000               0.100236753               0.407611111               0.000000000               0.106427565               0.430708333               0.000000000               0.112618377               0.453805555               0.000000000               0.118809188               0.476902778               0.000000000               0.125000000               0.500000000               0.000000000               0.013036280               0.132359569               0.000000000               0.016127762               0.155337096               0.000000000               0.019219245               0.178314623               0.000000000               0.022310727               0.201292150               0.000000000               0.025402210               0.224269676               0.000000000               0.028493692               0.247247203               0.000000000               0.031585175               0.270224730               0.000000000               0.034676657               0.293202257               0.000000000               0.037768140               0.316179784               0.000000000               0.040859622               0.339157311               0.000000000               0.043951105               0.362134838               0.000000000               0.047042587               0.385112365               0.000000000               0.050134070               0.408089892               0.000000000               0.053225552               0.431067419               0.000000000               0.056317035               0.454044946               0.000000000               0.059408517               0.477022473               0.000000000               0.062500000               0.500000000               0.000000000               0.000000000               0.133000000               0.000000000               0.000000000               0.155937500               0.000000000               0.000000000               0.178875000               0.000000000               0.000000000               0.201812500               0.000000000               0.000000000               0.224750000               0.000000000               0.000000000               0.247687500               0.000000000               0.000000000               0.270625000               0.000000000               0.000000000               0.293562500               0.000000000               0.000000000               0.316500000               0.000000000               0.000000000               0.339437500               0.000000000               0.000000000               0.362375000               0.000000000               0.000000000               0.385312500               0.000000000               0.000000000               0.408250000               0.000000000               0.000000000               0.431187500               0.000000000               0.000000000               0.454125000               0.000000000               0.000000000               0.477062500               0.000000000               0.000000000               0.500000000               0.000000000               0.133000000               0.000000000               0.000000000               0.155937500               0.000000000               0.000000000               0.178875000               0.000000000               0.000000000               0.201812500               0.000000000               0.000000000               0.224750000               0.000000000               0.000000000               0.247687500               0.000000000               0.000000000               0.270625000               0.000000000               0.000000000               0.293562500               0.000000000               0.000000000               0.316500000               0.000000000               0.000000000               0.339437500               0.000000000               0.000000000               0.362375000               0.000000000               0.000000000               0.385312500               0.000000000               0.000000000               0.408250000               0.000000000               0.000000000               0.431187500               0.000000000               0.000000000               0.454125000               0.000000000               0.000000000               0.477062500               0.000000000               0.000000000               0.500000000               0.000000000               0.000000000               0.132359569              -0.013036280               0.000000000               0.155337096              -0.016127762               0.000000000               0.178314623              -0.019219245               0.000000000               0.201292150              -0.022310727               0.000000000               0.224269676              -0.025402210               0.000000000               0.247247203              -0.028493692               0.000000000               0.270224730              -0.031585175               0.000000000               0.293202257              -0.034676657               0.000000000               0.316179784              -0.037768140               0.000000000               0.339157311              -0.040859622               0.000000000               0.362134838              -0.043951105               0.000000000               0.385112365              -0.047042587               0.000000000               0.408089892              -0.050134070               0.000000000               0.431067419              -0.053225552               0.000000000               0.454044946              -0.056317035               0.000000000               0.477022473              -0.059408517               0.000000000               0.500000000              -0.062500000               0.000000000               0.130444442              -0.025947013               0.000000000               0.153541665              -0.032137825               0.000000000               0.176638887              -0.038328636               0.000000000               0.199736109              -0.044519448               0.000000000               0.222833332              -0.050710260               0.000000000               0.245930554              -0.056901071               0.000000000               0.269027776              -0.063091883               0.000000000               0.292124999              -0.069282695               0.000000000               0.315222221              -0.075473506               0.000000000               0.338319444              -0.081664318               0.000000000               0.361416666              -0.087855130               0.000000000               0.384513888              -0.094045942               0.000000000               0.407611111              -0.100236753               0.000000000               0.430708333              -0.106427565               0.000000000               0.453805555              -0.112618377               0.000000000               0.476902778              -0.118809188               0.000000000               0.500000000              -0.125000000               0.000000000               0.127273065              -0.038607862               0.000000000               0.150568498              -0.047913621               0.000000000               0.173863932              -0.057219379               0.000000000               0.197159365              -0.066525138               0.000000000               0.220454798              -0.075830897               0.000000000               0.243750232              -0.085136655               0.000000000               0.267045665              -0.094442414               0.000000000               0.290341099              -0.103748172               0.000000000               0.313636532              -0.113053931               0.000000000               0.336931966              -0.122359690               0.000000000               0.360227399              -0.131665448               0.000000000               0.383522833              -0.140971207               0.000000000               0.406818266              -0.150276966               0.000000000               0.430113700              -0.159582724               0.000000000               0.453409133              -0.168888483               0.000000000               0.476704567              -0.178194241               0.000000000               0.500000000              -0.187500000               0.000000000               0.122875978              -0.050896897               0.000000000               0.146446229              -0.063340840               0.000000000               0.170016481              -0.075784784               0.000000000               0.193586732              -0.088228728               0.000000000               0.217156983              -0.100672672               0.000000000               0.240727235              -0.113116616               0.000000000               0.264297486              -0.125560560               0.000000000               0.287867738              -0.138004504               0.000000000               0.311437989              -0.150448448               0.000000000               0.335008240              -0.162892392               0.000000000               0.358578492              -0.175336336               0.000000000               0.382148743              -0.187780280               0.000000000               0.405718994              -0.200224224               0.000000000               0.429289246              -0.212668168               0.000000000               0.452859497              -0.225112112               0.000000000               0.476429749              -0.237556056               0.000000000               0.500000000              -0.250000000               0.000000000               0.117295528              -0.062695766               0.000000000               0.141214558              -0.078308531               0.000000000               0.165133587              -0.093921295               0.000000000               0.189052617              -0.109534060               0.000000000               0.212971646              -0.125146824               0.000000000               0.236890676              -0.140759589               0.000000000               0.260809705              -0.156372354               0.000000000               0.284728735              -0.171985118               0.000000000               0.308647764              -0.187597883               0.000000000               0.332566794              -0.203210648               0.000000000               0.356485823              -0.218823412               0.000000000               0.380404853              -0.234436177               0.000000000               0.404323882              -0.250048941               0.000000000               0.428242912              -0.265661706               0.000000000               0.452161941              -0.281274471               0.000000000               0.476080971              -0.296887235               0.000000000               0.500000000              -0.312500000               0.000000000               0.110585458              -0.073890841               0.000000000               0.134923867              -0.092710163               0.000000000               0.159262276              -0.111529486               0.000000000               0.183600685              -0.130348808               0.000000000               0.207939094              -0.149168131               0.000000000               0.232277503              -0.167987453               0.000000000               0.256615912              -0.186806776               0.000000000               0.280954320              -0.205626098               0.000000000               0.305292729              -0.224445420               0.000000000               0.329631138              -0.243264743               0.000000000               0.353969547              -0.262084065               0.000000000               0.378307956              -0.280903388               0.000000000               0.402646365              -0.299722710               0.000000000               0.426984773              -0.318542033               0.000000000               0.451323182              -0.337361355               0.000000000               0.475661591              -0.356180678               0.000000000               0.500000000              -0.375000000               0.000000000               0.102810390              -0.084374307               0.000000000               0.127634741              -0.106444663               0.000000000               0.152459092              -0.128515018               0.000000000               0.177283442              -0.150585374               0.000000000               0.202107793              -0.172655730               0.000000000               0.226932143              -0.194726086               0.000000000               0.251756494              -0.216796442               0.000000000               0.276580845              -0.238866798               0.000000000               0.301405195              -0.260937153               0.000000000               0.326229546              -0.283007509               0.000000000               0.351053896              -0.305077865               0.000000000               0.375878247              -0.327148221               0.000000000               0.400702598              -0.349218577               0.000000000               0.425526948              -0.371288933               0.000000000               0.450351299              -0.393359288               0.000000000               0.475175649              -0.415429644               0.000000000               0.500000000              -0.437500000               0.000000000               0.094045202              -0.094045202               0.000000000               0.119417377              -0.119417377               0.000000000               0.144789552              -0.144789552               0.000000000               0.170161727              -0.170161727               0.000000000               0.195533901              -0.195533901               0.000000000               0.220906076              -0.220906076               0.000000000               0.246278251              -0.246278251               0.000000000               0.271650426              -0.271650426               0.000000000               0.297022601              -0.297022601               0.000000000               0.322394776              -0.322394776               0.000000000               0.347766951              -0.347766951               0.000000000               0.373139126              -0.373139126               0.000000000               0.398511300              -0.398511300               0.000000000               0.423883475              -0.423883475               0.000000000               0.449255650              -0.449255650               0.000000000               0.474627825              -0.474627825               0.000000000               0.500000000              -0.500000000               0.000000000               0.084374307              -0.102810390               0.000000000               0.106444663              -0.127634741               0.000000000               0.128515018              -0.152459092               0.000000000               0.150585374              -0.177283442               0.000000000               0.172655730              -0.202107793               0.000000000               0.194726086              -0.226932143               0.000000000               0.216796442              -0.251756494               0.000000000               0.238866798              -0.276580845               0.000000000               0.260937153              -0.301405195               0.000000000               0.283007509              -0.326229546               0.000000000               0.305077865              -0.351053896               0.000000000               0.327148221              -0.375878247               0.000000000               0.349218577              -0.400702598               0.000000000               0.371288933              -0.425526948               0.000000000               0.393359288              -0.450351299               0.000000000               0.415429644              -0.475175649               0.000000000               0.437500000              -0.500000000               0.000000000               0.073890841              -0.110585458               0.000000000               0.092710163              -0.134923867               0.000000000               0.111529486              -0.159262276               0.000000000               0.130348808              -0.183600685               0.000000000               0.149168131              -0.207939094               0.000000000               0.167987453              -0.232277503               0.000000000               0.186806776              -0.256615912               0.000000000               0.205626098              -0.280954320               0.000000000               0.224445420              -0.305292729               0.000000000               0.243264743              -0.329631138               0.000000000               0.262084065              -0.353969547               0.000000000               0.280903388              -0.378307956               0.000000000               0.299722710              -0.402646365               0.000000000               0.318542033              -0.426984773               0.000000000               0.337361355              -0.451323182               0.000000000               0.356180678              -0.475661591               0.000000000               0.375000000              -0.500000000               0.000000000               0.062695766              -0.117295528               0.000000000               0.078308531              -0.141214558               0.000000000               0.093921295              -0.165133587               0.000000000               0.109534060              -0.189052617               0.000000000               0.125146824              -0.212971646               0.000000000               0.140759589              -0.236890676               0.000000000               0.156372354              -0.260809705               0.000000000               0.171985118              -0.284728735               0.000000000               0.187597883              -0.308647764               0.000000000               0.203210648              -0.332566794               0.000000000               0.218823412              -0.356485823               0.000000000               0.234436177              -0.380404853               0.000000000               0.250048941              -0.404323882               0.000000000               0.265661706              -0.428242912               0.000000000               0.281274471              -0.452161941               0.000000000               0.296887235              -0.476080971               0.000000000               0.312500000              -0.500000000               0.000000000               0.050896897              -0.122875978               0.000000000               0.063340840              -0.146446229               0.000000000               0.075784784              -0.170016481               0.000000000               0.088228728              -0.193586732               0.000000000               0.100672672              -0.217156983               0.000000000               0.113116616              -0.240727235               0.000000000               0.125560560              -0.264297486               0.000000000               0.138004504              -0.287867738               0.000000000               0.150448448              -0.311437989               0.000000000               0.162892392              -0.335008240               0.000000000               0.175336336              -0.358578492               0.000000000               0.187780280              -0.382148743               0.000000000               0.200224224              -0.405718994               0.000000000               0.212668168              -0.429289246               0.000000000               0.225112112              -0.452859497               0.000000000               0.237556056              -0.476429749               0.000000000               0.250000000              -0.500000000               0.000000000               0.038607862              -0.127273065               0.000000000               0.047913621              -0.150568498               0.000000000               0.057219379              -0.173863932               0.000000000               0.066525138              -0.197159365               0.000000000               0.075830897              -0.220454798               0.000000000               0.085136655              -0.243750232               0.000000000               0.094442414              -0.267045665               0.000000000               0.103748172              -0.290341099               0.000000000               0.113053931              -0.313636532               0.000000000               0.122359690              -0.336931966               0.000000000               0.131665448              -0.360227399               0.000000000               0.140971207              -0.383522833               0.000000000               0.150276966              -0.406818266               0.000000000               0.159582724              -0.430113700               0.000000000               0.168888483              -0.453409133               0.000000000               0.178194241              -0.476704567               0.000000000               0.187500000              -0.500000000               0.000000000               0.025947013              -0.130444442               0.000000000               0.032137825              -0.153541665               0.000000000               0.038328636              -0.176638887               0.000000000               0.044519448              -0.199736109               0.000000000               0.050710260              -0.222833332               0.000000000               0.056901071              -0.245930554               0.000000000               0.063091883              -0.269027776               0.000000000               0.069282695              -0.292124999               0.000000000               0.075473506              -0.315222221               0.000000000               0.081664318              -0.338319444               0.000000000               0.087855130              -0.361416666               0.000000000               0.094045942              -0.384513888               0.000000000               0.100236753              -0.407611111               0.000000000               0.106427565              -0.430708333               0.000000000               0.112618377              -0.453805555               0.000000000               0.118809188              -0.476902778               0.000000000               0.125000000              -0.500000000               0.000000000               0.013036280              -0.132359569               0.000000000               0.016127762              -0.155337096               0.000000000               0.019219245              -0.178314623               0.000000000               0.022310727              -0.201292150               0.000000000               0.025402210              -0.224269676               0.000000000               0.028493692              -0.247247203               0.000000000               0.031585175              -0.270224730               0.000000000               0.034676657              -0.293202257               0.000000000               0.037768140              -0.316179784               0.000000000               0.040859622              -0.339157311               0.000000000               0.043951105              -0.362134838               0.000000000               0.047042587              -0.385112365               0.000000000               0.050134070              -0.408089892               0.000000000               0.053225552              -0.431067419               0.000000000               0.056317035              -0.454044946               0.000000000               0.059408517              -0.477022473               0.000000000               0.062500000              -0.500000000               0.000000000               0.000000000              -0.133000000               0.000000000               0.000000000              -0.155937500               0.000000000               0.000000000              -0.178875000               0.000000000               0.000000000              -0.201812500               0.000000000               0.000000000              -0.224750000               0.000000000               0.000000000              -0.247687500               0.000000000               0.000000000              -0.270625000               0.000000000               0.000000000              -0.293562500               0.000000000               0.000000000              -0.316500000               0.000000000               0.000000000              -0.339437500               0.000000000               0.000000000              -0.362375000               0.000000000               0.000000000              -0.385312500               0.000000000               0.000000000              -0.408250000               0.000000000               0.000000000              -0.431187500               0.000000000               0.000000000              -0.454125000               0.000000000               0.000000000              -0.477062500               0.000000000               0.000000000              -0.500000000               0.000000000              -0.133000000               0.000000000               0.000000000              -0.155937500               0.000000000               0.000000000              -0.178875000               0.000000000               0.000000000              -0.201812500               0.000000000               0.000000000              -0.224750000               0.000000000               0.000000000              -0.247687500               0.000000000               0.000000000              -0.270625000               0.000000000               0.000000000              -0.293562500               0.000000000               0.000000000              -0.316500000               0.000000000               0.000000000              -0.339437500               0.000000000               0.000000000              -0.362375000               0.000000000               0.000000000              -0.385312500               0.000000000               0.000000000              -0.408250000               0.000000000               0.000000000              -0.431187500               0.000000000               0.000000000              -0.454125000               0.000000000               0.000000000              -0.477062500               0.000000000               0.000000000              -0.500000000               0.000000000               0.000000000              -0.132359569              -0.013036280               0.000000000              -0.155337096              -0.016127762               0.000000000              -0.178314623              -0.019219245               0.000000000              -0.201292150              -0.022310727               0.000000000              -0.224269676              -0.025402210               0.000000000              -0.247247203              -0.028493692               0.000000000              -0.270224730              -0.031585175               0.000000000              -0.293202257              -0.034676657               0.000000000              -0.316179784              -0.037768140               0.000000000              -0.339157311              -0.040859622               0.000000000              -0.362134838              -0.043951105               0.000000000              -0.385112365              -0.047042587               0.000000000              -0.408089892              -0.050134070               0.000000000              -0.431067419              -0.053225552               0.000000000              -0.454044946              -0.056317035               0.000000000              -0.477022473              -0.059408517               0.000000000              -0.500000000              -0.062500000               0.000000000              -0.130444442              -0.025947013               0.000000000              -0.153541665              -0.032137825               0.000000000              -0.176638887              -0.038328636               0.000000000              -0.199736109              -0.044519448               0.000000000              -0.222833332              -0.050710260               0.000000000              -0.245930554              -0.056901071               0.000000000              -0.269027776              -0.063091883               0.000000000              -0.292124999              -0.069282695               0.000000000              -0.315222221              -0.075473506               0.000000000              -0.338319444              -0.081664318               0.000000000              -0.361416666              -0.087855130               0.000000000              -0.384513888              -0.094045942               0.000000000              -0.407611111              -0.100236753               0.000000000              -0.430708333              -0.106427565               0.000000000              -0.453805555              -0.112618377               0.000000000              -0.476902778              -0.118809188               0.000000000              -0.500000000              -0.125000000               0.000000000              -0.127273065              -0.038607862               0.000000000              -0.150568498              -0.047913621               0.000000000              -0.173863932              -0.057219379               0.000000000              -0.197159365              -0.066525138               0.000000000              -0.220454798              -0.075830897               0.000000000              -0.243750232              -0.085136655               0.000000000              -0.267045665              -0.094442414               0.000000000              -0.290341099              -0.103748172               0.000000000              -0.313636532              -0.113053931               0.000000000              -0.336931966              -0.122359690               0.000000000              -0.360227399              -0.131665448               0.000000000              -0.383522833              -0.140971207               0.000000000              -0.406818266              -0.150276966               0.000000000              -0.430113700              -0.159582724               0.000000000              -0.453409133              -0.168888483               0.000000000              -0.476704567              -0.178194241               0.000000000              -0.500000000              -0.187500000               0.000000000              -0.122875978              -0.050896897               0.000000000              -0.146446229              -0.063340840               0.000000000              -0.170016481              -0.075784784               0.000000000              -0.193586732              -0.088228728               0.000000000              -0.217156983              -0.100672672               0.000000000              -0.240727235              -0.113116616               0.000000000              -0.264297486              -0.125560560               0.000000000              -0.287867738              -0.138004504               0.000000000              -0.311437989              -0.150448448               0.000000000              -0.335008240              -0.162892392               0.000000000              -0.358578492              -0.175336336               0.000000000              -0.382148743              -0.187780280               0.000000000              -0.405718994              -0.200224224               0.000000000              -0.429289246              -0.212668168               0.000000000              -0.452859497              -0.225112112               0.000000000              -0.476429749              -0.237556056               0.000000000              -0.500000000              -0.250000000               0.000000000              -0.117295528              -0.062695766               0.000000000              -0.141214558              -0.078308531               0.000000000              -0.165133587              -0.093921295               0.000000000              -0.189052617              -0.109534060               0.000000000              -0.212971646              -0.125146824               0.000000000              -0.236890676              -0.140759589               0.000000000              -0.260809705              -0.156372354               0.000000000              -0.284728735              -0.171985118               0.000000000              -0.308647764              -0.187597883               0.000000000              -0.332566794              -0.203210648               0.000000000              -0.356485823              -0.218823412               0.000000000              -0.380404853              -0.234436177               0.000000000              -0.404323882              -0.250048941               0.000000000              -0.428242912              -0.265661706               0.000000000              -0.452161941              -0.281274471               0.000000000              -0.476080971              -0.296887235               0.000000000              -0.500000000              -0.312500000               0.000000000              -0.110585458              -0.073890841               0.000000000              -0.134923867              -0.092710163               0.000000000              -0.159262276              -0.111529486               0.000000000              -0.183600685              -0.130348808               0.000000000              -0.207939094              -0.149168131               0.000000000              -0.232277503              -0.167987453               0.000000000              -0.256615912              -0.186806776               0.000000000              -0.280954320              -0.205626098               0.000000000              -0.305292729              -0.224445420               0.000000000              -0.329631138              -0.243264743               0.000000000              -0.353969547              -0.262084065               0.000000000              -0.378307956              -0.280903388               0.000000000              -0.402646365              -0.299722710               0.000000000              -0.426984773              -0.318542033               0.000000000              -0.451323182              -0.337361355               0.000000000              -0.475661591              -0.356180678               0.000000000              -0.500000000              -0.375000000               0.000000000              -0.102810390              -0.084374307               0.000000000              -0.127634741              -0.106444663               0.000000000              -0.152459092              -0.128515018               0.000000000              -0.177283442              -0.150585374               0.000000000              -0.202107793              -0.172655730               0.000000000              -0.226932143              -0.194726086               0.000000000              -0.251756494              -0.216796442               0.000000000              -0.276580845              -0.238866798               0.000000000              -0.301405195              -0.260937153               0.000000000              -0.326229546              -0.283007509               0.000000000              -0.351053896              -0.305077865               0.000000000              -0.375878247              -0.327148221               0.000000000              -0.400702598              -0.349218577               0.000000000              -0.425526948              -0.371288933               0.000000000              -0.450351299              -0.393359288               0.000000000              -0.475175649              -0.415429644               0.000000000              -0.500000000              -0.437500000               0.000000000              -0.094045202              -0.094045202               0.000000000              -0.119417377              -0.119417377               0.000000000              -0.144789552              -0.144789552               0.000000000              -0.170161727              -0.170161727               0.000000000              -0.195533901              -0.195533901               0.000000000              -0.220906076              -0.220906076               0.000000000              -0.246278251              -0.246278251               0.000000000              -0.271650426              -0.271650426               0.000000000              -0.297022601              -0.297022601               0.000000000              -0.322394776              -0.322394776               0.000000000              -0.347766951              -0.347766951               0.000000000              -0.373139126              -0.373139126               0.000000000              -0.398511300              -0.398511300               0.000000000              -0.423883475              -0.423883475               0.000000000              -0.449255650              -0.449255650               0.000000000              -0.474627825              -0.474627825               0.000000000              -0.500000000              -0.500000000               0.000000000              -0.084374307              -0.102810390               0.000000000              -0.106444663              -0.127634741               0.000000000              -0.128515018              -0.152459092               0.000000000              -0.150585374              -0.177283442               0.000000000              -0.172655730              -0.202107793               0.000000000              -0.194726086              -0.226932143               0.000000000              -0.216796442              -0.251756494               0.000000000              -0.238866798              -0.276580845               0.000000000              -0.260937153              -0.301405195               0.000000000              -0.283007509              -0.326229546               0.000000000              -0.305077865              -0.351053896               0.000000000              -0.327148221              -0.375878247               0.000000000              -0.349218577              -0.400702598               0.000000000              -0.371288933              -0.425526948               0.000000000              -0.393359288              -0.450351299               0.000000000              -0.415429644              -0.475175649               0.000000000              -0.437500000              -0.500000000               0.000000000              -0.073890841              -0.110585458               0.000000000              -0.092710163              -0.134923867               0.000000000              -0.111529486              -0.159262276               0.000000000              -0.130348808              -0.183600685               0.000000000              -0.149168131              -0.207939094               0.000000000              -0.167987453              -0.232277503               0.000000000              -0.186806776              -0.256615912               0.000000000              -0.205626098              -0.280954320               0.000000000              -0.224445420              -0.305292729               0.000000000              -0.243264743              -0.329631138               0.000000000              -0.262084065              -0.353969547               0.000000000              -0.280903388              -0.378307956               0.000000000              -0.299722710              -0.402646365               0.000000000              -0.318542033              -0.426984773               0.000000000              -0.337361355              -0.451323182               0.000000000              -0.356180678              -0.475661591               0.000000000              -0.375000000              -0.500000000               0.000000000              -0.062695766              -0.117295528               0.000000000              -0.078308531              -0.141214558               0.000000000              -0.093921295              -0.165133587               0.000000000              -0.109534060              -0.189052617               0.000000000              -0.125146824              -0.212971646               0.000000000              -0.140759589              -0.236890676               0.000000000              -0.156372354              -0.260809705               0.000000000              -0.171985118              -0.284728735               0.000000000              -0.187597883              -0.308647764               0.000000000              -0.203210648              -0.332566794               0.000000000              -0.218823412              -0.356485823               0.000000000              -0.234436177              -0.380404853               0.000000000              -0.250048941              -0.404323882               0.000000000              -0.265661706              -0.428242912               0.000000000              -0.281274471              -0.452161941               0.000000000              -0.296887235              -0.476080971               0.000000000              -0.312500000              -0.500000000               0.000000000              -0.050896897              -0.122875978               0.000000000              -0.063340840              -0.146446229               0.000000000              -0.075784784              -0.170016481               0.000000000              -0.088228728              -0.193586732               0.000000000              -0.100672672              -0.217156983               0.000000000              -0.113116616              -0.240727235               0.000000000              -0.125560560              -0.264297486               0.000000000              -0.138004504              -0.287867738               0.000000000              -0.150448448              -0.311437989               0.000000000              -0.162892392              -0.335008240               0.000000000              -0.175336336              -0.358578492               0.000000000              -0.187780280              -0.382148743               0.000000000              -0.200224224              -0.405718994               0.000000000              -0.212668168              -0.429289246               0.000000000              -0.225112112              -0.452859497               0.000000000              -0.237556056              -0.476429749               0.000000000              -0.250000000              -0.500000000               0.000000000              -0.038607862              -0.127273065               0.000000000              -0.047913621              -0.150568498               0.000000000              -0.057219379              -0.173863932               0.000000000              -0.066525138              -0.197159365               0.000000000              -0.075830897              -0.220454798               0.000000000              -0.085136655              -0.243750232               0.000000000              -0.094442414              -0.267045665               0.000000000              -0.103748172              -0.290341099               0.000000000              -0.113053931              -0.313636532               0.000000000              -0.122359690              -0.336931966               0.000000000              -0.131665448              -0.360227399               0.000000000              -0.140971207              -0.383522833               0.000000000              -0.150276966              -0.406818266               0.000000000              -0.159582724              -0.430113700               0.000000000              -0.168888483              -0.453409133               0.000000000              -0.178194241              -0.476704567               0.000000000              -0.187500000              -0.500000000               0.000000000              -0.025947013              -0.130444442               0.000000000              -0.032137825              -0.153541665               0.000000000              -0.038328636              -0.176638887               0.000000000              -0.044519448              -0.199736109               0.000000000              -0.050710260              -0.222833332               0.000000000              -0.056901071              -0.245930554               0.000000000              -0.063091883              -0.269027776               0.000000000              -0.069282695              -0.292124999               0.000000000              -0.075473506              -0.315222221               0.000000000              -0.081664318              -0.338319444               0.000000000              -0.087855130              -0.361416666               0.000000000              -0.094045942              -0.384513888               0.000000000              -0.100236753              -0.407611111               0.000000000              -0.106427565              -0.430708333               0.000000000              -0.112618377              -0.453805555               0.000000000              -0.118809188              -0.476902778               0.000000000              -0.125000000              -0.500000000               0.000000000              -0.013036280              -0.132359569               0.000000000              -0.016127762              -0.155337096               0.000000000              -0.019219245              -0.178314623               0.000000000              -0.022310727              -0.201292150               0.000000000              -0.025402210              -0.224269676               0.000000000              -0.028493692              -0.247247203               0.000000000              -0.031585175              -0.270224730               0.000000000              -0.034676657              -0.293202257               0.000000000              -0.037768140              -0.316179784               0.000000000              -0.040859622              -0.339157311               0.000000000              -0.043951105              -0.362134838               0.000000000              -0.047042587              -0.385112365               0.000000000              -0.050134070              -0.408089892               0.000000000              -0.053225552              -0.431067419               0.000000000              -0.056317035              -0.454044946               0.000000000              -0.059408517              -0.477022473               0.000000000              -0.062500000              -0.500000000               0.000000000               0.000000000              -0.133000000               0.000000000               0.000000000              -0.155937500               0.000000000               0.000000000              -0.178875000               0.000000000               0.000000000              -0.201812500               0.000000000               0.000000000              -0.224750000               0.000000000               0.000000000              -0.247687500               0.000000000               0.000000000              -0.270625000               0.000000000               0.000000000              -0.293562500               0.000000000               0.000000000              -0.316500000               0.000000000               0.000000000              -0.339437500               0.000000000               0.000000000              -0.362375000               0.000000000               0.000000000              -0.385312500               0.000000000               0.000000000              -0.408250000               0.000000000               0.000000000              -0.431187500               0.000000000               0.000000000              -0.454125000               0.000000000               0.000000000              -0.477062500               0.000000000               0.000000000              -0.500000000               0.000000000              -0.133000000               0.000000000               0.000000000              -0.155937500               0.000000000               0.000000000              -0.178875000               0.000000000               0.000000000              -0.201812500               0.000000000               0.000000000              -0.224750000               0.000000000               0.000000000              -0.247687500               0.000000000               0.000000000              -0.270625000               0.000000000               0.000000000              -0.293562500               0.000000000               0.000000000              -0.316500000               0.000000000               0.000000000              -0.339437500               0.000000000               0.000000000              -0.362375000               0.000000000               0.000000000              -0.385312500               0.000000000               0.000000000              -0.408250000               0.000000000               0.000000000              -0.431187500               0.000000000               0.000000000              -0.454125000               0.000000000               0.000000000              -0.477062500               0.000000000               0.000000000              -0.500000000               0.000000000               0.000000000              -0.132359569               0.013036280               0.000000000              -0.155337096               0.016127762               0.000000000              -0.178314623               0.019219245               0.000000000              -0.201292150               0.022310727               0.000000000              -0.224269676               0.025402210               0.000000000              -0.247247203               0.028493692               0.000000000              -0.270224730               0.031585175               0.000000000              -0.293202257               0.034676657               0.000000000              -0.316179784               0.037768140               0.000000000              -0.339157311               0.040859622               0.000000000              -0.362134838               0.043951105               0.000000000              -0.385112365               0.047042587               0.000000000              -0.408089892               0.050134070               0.000000000              -0.431067419               0.053225552               0.000000000              -0.454044946               0.056317035               0.000000000              -0.477022473               0.059408517               0.000000000              -0.500000000               0.062500000               0.000000000              -0.130444442               0.025947013               0.000000000              -0.153541665               0.032137825               0.000000000              -0.176638887               0.038328636               0.000000000              -0.199736109               0.044519448               0.000000000              -0.222833332               0.050710260               0.000000000              -0.245930554               0.056901071               0.000000000              -0.269027776               0.063091883               0.000000000              -0.292124999               0.069282695               0.000000000              -0.315222221               0.075473506               0.000000000              -0.338319444               0.081664318               0.000000000              -0.361416666               0.087855130               0.000000000              -0.384513888               0.094045942               0.000000000              -0.407611111               0.100236753               0.000000000              -0.430708333               0.106427565               0.000000000              -0.453805555               0.112618377               0.000000000              -0.476902778               0.118809188               0.000000000              -0.500000000               0.125000000               0.000000000              -0.127273065               0.038607862               0.000000000              -0.150568498               0.047913621               0.000000000              -0.173863932               0.057219379               0.000000000              -0.197159365               0.066525138               0.000000000              -0.220454798               0.075830897               0.000000000              -0.243750232               0.085136655               0.000000000              -0.267045665               0.094442414               0.000000000              -0.290341099               0.103748172               0.000000000              -0.313636532               0.113053931               0.000000000              -0.336931966               0.122359690               0.000000000              -0.360227399               0.131665448               0.000000000              -0.383522833               0.140971207               0.000000000              -0.406818266               0.150276966               0.000000000              -0.430113700               0.159582724               0.000000000              -0.453409133               0.168888483               0.000000000              -0.476704567               0.178194241               0.000000000              -0.500000000               0.187500000               0.000000000              -0.122875978               0.050896897               0.000000000              -0.146446229               0.063340840               0.000000000              -0.170016481               0.075784784               0.000000000              -0.193586732               0.088228728               0.000000000              -0.217156983               0.100672672               0.000000000              -0.240727235               0.113116616               0.000000000              -0.264297486               0.125560560               0.000000000              -0.287867738               0.138004504               0.000000000              -0.311437989               0.150448448               0.000000000              -0.335008240               0.162892392               0.000000000              -0.358578492               0.175336336               0.000000000              -0.382148743               0.187780280               0.000000000              -0.405718994               0.200224224               0.000000000              -0.429289246               0.212668168               0.000000000              -0.452859497               0.225112112               0.000000000              -0.476429749               0.237556056               0.000000000              -0.500000000               0.250000000               0.000000000              -0.117295528               0.062695766               0.000000000              -0.141214558               0.078308531               0.000000000              -0.165133587               0.093921295               0.000000000              -0.189052617               0.109534060               0.000000000              -0.212971646               0.125146824               0.000000000              -0.236890676               0.140759589               0.000000000              -0.260809705               0.156372354               0.000000000              -0.284728735               0.171985118               0.000000000              -0.308647764               0.187597883               0.000000000              -0.332566794               0.203210648               0.000000000              -0.356485823               0.218823412               0.000000000              -0.380404853               0.234436177               0.000000000              -0.404323882               0.250048941               0.000000000              -0.428242912               0.265661706               0.000000000              -0.452161941               0.281274471               0.000000000              -0.476080971               0.296887235               0.000000000              -0.500000000               0.312500000               0.000000000              -0.110585458               0.073890841               0.000000000              -0.134923867               0.092710163               0.000000000              -0.159262276               0.111529486               0.000000000              -0.183600685               0.130348808               0.000000000              -0.207939094               0.149168131               0.000000000              -0.232277503               0.167987453               0.000000000              -0.256615912               0.186806776               0.000000000              -0.280954320               0.205626098               0.000000000              -0.305292729               0.224445420               0.000000000              -0.329631138               0.243264743               0.000000000              -0.353969547               0.262084065               0.000000000              -0.378307956               0.280903388               0.000000000              -0.402646365               0.299722710               0.000000000              -0.426984773               0.318542033               0.000000000              -0.451323182               0.337361355               0.000000000              -0.475661591               0.356180678               0.000000000              -0.500000000               0.375000000               0.000000000              -0.102810390               0.084374307               0.000000000              -0.127634741               0.106444663               0.000000000              -0.152459092               0.128515018               0.000000000              -0.177283442               0.150585374               0.000000000              -0.202107793               0.172655730               0.000000000              -0.226932143               0.194726086               0.000000000              -0.251756494               0.216796442               0.000000000              -0.276580845               0.238866798               0.000000000              -0.301405195               0.260937153               0.000000000              -0.326229546               0.283007509               0.000000000              -0.351053896               0.305077865               0.000000000              -0.375878247               0.327148221               0.000000000              -0.400702598               0.349218577               0.000000000              -0.425526948               0.371288933               0.000000000              -0.450351299               0.393359288               0.000000000              -0.475175649               0.415429644               0.000000000              -0.500000000               0.437500000               0.000000000              -0.094045202               0.094045202               0.000000000              -0.119417377               0.119417377               0.000000000              -0.144789552               0.144789552               0.000000000              -0.170161727               0.170161727               0.000000000              -0.195533901               0.195533901               0.000000000              -0.220906076               0.220906076               0.000000000              -0.246278251               0.246278251               0.000000000              -0.271650426               0.271650426               0.000000000              -0.297022601               0.297022601               0.000000000              -0.322394776               0.322394776               0.000000000              -0.347766951               0.347766951               0.000000000              -0.373139126               0.373139126               0.000000000              -0.398511300               0.398511300               0.000000000              -0.423883475               0.423883475               0.000000000              -0.449255650               0.449255650               0.000000000              -0.474627825               0.474627825               0.000000000              -0.500000000               0.500000000               0.000000000              -0.084374307               0.102810390               0.000000000              -0.106444663               0.127634741               0.000000000              -0.128515018               0.152459092               0.000000000              -0.150585374               0.177283442               0.000000000              -0.172655730               0.202107793               0.000000000              -0.194726086               0.226932143               0.000000000              -0.216796442               0.251756494               0.000000000              -0.238866798               0.276580845               0.000000000              -0.260937153               0.301405195               0.000000000              -0.283007509               0.326229546               0.000000000              -0.305077865               0.351053896               0.000000000              -0.327148221               0.375878247               0.000000000              -0.349218577               0.400702598               0.000000000              -0.371288933               0.425526948               0.000000000              -0.393359288               0.450351299               0.000000000              -0.415429644               0.475175649               0.000000000              -0.437500000               0.500000000               0.000000000              -0.073890841               0.110585458               0.000000000              -0.092710163               0.134923867               0.000000000              -0.111529486               0.159262276               0.000000000              -0.130348808               0.183600685               0.000000000              -0.149168131               0.207939094               0.000000000              -0.167987453               0.232277503               0.000000000              -0.186806776               0.256615912               0.000000000              -0.205626098               0.280954320               0.000000000              -0.224445420               0.305292729               0.000000000              -0.243264743               0.329631138               0.000000000              -0.262084065               0.353969547               0.000000000              -0.280903388               0.378307956               0.000000000              -0.299722710               0.402646365               0.000000000              -0.318542033               0.426984773               0.000000000              -0.337361355               0.451323182               0.000000000              -0.356180678               0.475661591               0.000000000              -0.375000000               0.500000000               0.000000000              -0.062695766               0.117295528               0.000000000              -0.078308531               0.141214558               0.000000000              -0.093921295               0.165133587               0.000000000              -0.109534060               0.189052617               0.000000000              -0.125146824               0.212971646               0.000000000              -0.140759589               0.236890676               0.000000000              -0.156372354               0.260809705               0.000000000              -0.171985118               0.284728735               0.000000000              -0.187597883               0.308647764               0.000000000              -0.203210648               0.332566794               0.000000000              -0.218823412               0.356485823               0.000000000              -0.234436177               0.380404853               0.000000000              -0.250048941               0.404323882               0.000000000              -0.265661706               0.428242912               0.000000000              -0.281274471               0.452161941               0.000000000              -0.296887235               0.476080971               0.000000000              -0.312500000               0.500000000               0.000000000              -0.050896897               0.122875978               0.000000000              -0.063340840               0.146446229               0.000000000              -0.075784784               0.170016481               0.000000000              -0.088228728               0.193586732               0.000000000              -0.100672672               0.217156983               0.000000000              -0.113116616               0.240727235               0.000000000              -0.125560560               0.264297486               0.000000000              -0.138004504               0.287867738               0.000000000              -0.150448448               0.311437989               0.000000000              -0.162892392               0.335008240               0.000000000              -0.175336336               0.358578492               0.000000000              -0.187780280               0.382148743               0.000000000              -0.200224224               0.405718994               0.000000000              -0.212668168               0.429289246               0.000000000              -0.225112112               0.452859497               0.000000000              -0.237556056               0.476429749               0.000000000              -0.250000000               0.500000000               0.000000000              -0.038607862               0.127273065               0.000000000              -0.047913621               0.150568498               0.000000000              -0.057219379               0.173863932               0.000000000              -0.066525138               0.197159365               0.000000000              -0.075830897               0.220454798               0.000000000              -0.085136655               0.243750232               0.000000000              -0.094442414               0.267045665               0.000000000              -0.103748172               0.290341099               0.000000000              -0.113053931               0.313636532               0.000000000              -0.122359690               0.336931966               0.000000000              -0.131665448               0.360227399               0.000000000              -0.140971207               0.383522833               0.000000000              -0.150276966               0.406818266               0.000000000              -0.159582724               0.430113700               0.000000000              -0.168888483               0.453409133               0.000000000              -0.178194241               0.476704567               0.000000000              -0.187500000               0.500000000               0.000000000              -0.025947013               0.130444442               0.000000000              -0.032137825               0.153541665               0.000000000              -0.038328636               0.176638887               0.000000000              -0.044519448               0.199736109               0.000000000              -0.050710260               0.222833332               0.000000000              -0.056901071               0.245930554               0.000000000              -0.063091883               0.269027776               0.000000000              -0.069282695               0.292124999               0.000000000              -0.075473506               0.315222221               0.000000000              -0.081664318               0.338319444               0.000000000              -0.087855130               0.361416666               0.000000000              -0.094045942               0.384513888               0.000000000              -0.100236753               0.407611111               0.000000000              -0.106427565               0.430708333               0.000000000              -0.112618377               0.453805555               0.000000000              -0.118809188               0.476902778               0.000000000              -0.125000000               0.500000000               0.000000000              -0.013036280               0.132359569               0.000000000              -0.016127762               0.155337096               0.000000000              -0.019219245               0.178314623               0.000000000              -0.022310727               0.201292150               0.000000000              -0.025402210               0.224269676               0.000000000              -0.028493692               0.247247203               0.000000000              -0.031585175               0.270224730               0.000000000              -0.034676657               0.293202257               0.000000000              -0.037768140               0.316179784               0.000000000              -0.040859622               0.339157311               0.000000000              -0.043951105               0.362134838               0.000000000              -0.047042587               0.385112365               0.000000000              -0.050134070               0.408089892               0.000000000              -0.053225552               0.431067419               0.000000000              -0.056317035               0.454044946               0.000000000              -0.059408517               0.477022473               0.000000000              -0.062500000               0.500000000               0.000000000               0.000000000               0.133000000               0.000000000               0.000000000               0.155937500               0.000000000               0.000000000               0.178875000               0.000000000               0.000000000               0.201812500               0.000000000               0.000000000               0.224750000               0.000000000               0.000000000               0.247687500               0.000000000               0.000000000               0.270625000               0.000000000               0.000000000               0.293562500               0.000000000               0.000000000               0.316500000               0.000000000               0.000000000               0.339437500               0.000000000               0.000000000               0.362375000               0.000000000               0.000000000               0.385312500               0.000000000               0.000000000               0.408250000               0.000000000               0.000000000               0.431187500               0.000000000               0.000000000               0.454125000               0.000000000               0.000000000               0.477062500               0.000000000               0.000000000               0.500000000               0.000000000 </DataArray>
</Points>
<Cells>
<DataArray type="Int32"                                    Name="connectivity"                                                      NumberOfComponents=" 1" format="ascii">
         0          1         18         17          1          2         19         18          2          3         20         19          3          4         21         20          4          5         22         21          5          6         23         22          6          7         24         23          7          8         25         24          8          9         26         25          9         10         27         26         10         11         28         27         11         12         29         28         12         13         30         29         13         14         31         30         14         15         32         31         15         16         33         32         17         18         35         34         18         19         36         35         19         20         37         36         20         21         38         37         21         22         39         38         22         23         40         39         23         24         41         40         24         25         42         41         25         26         43         42         26         27         44         43         27         28         45         44         28         29         46         45         29         30         47         46         30         31         48         47         31         32         49         48         32         33         50         49         34         35         52         51         35         36         53         52         36         37         54         53         37         38         55         54         38         39         56         55         39         40         57         56         40         41         58         57         41         42         59         58         42         43         60         59         43         44         61         60         44         45         62         61         45         46         63         62         46         47         64         63         47         48         65         64         48         49         66         65         49         50         67         66         51         52         69         68         52         53         70         69         53         54         71         70         54         55         72         71         55         56         73         72         56         57         74         73         57         58         75         74         58         59         76         75         59         60         77         76         60         61         78         77         61         62         79         78         62         63         80         79         63         64         81         80         64         65         82         81         65         66         83         82         66         67         84         83         68         69         86         85         69         70         87         86         70         71         88         87         71         72         89         88         72         73         90         89         73         74         91         90         74         75         92         91         75         76         93         92         76         77         94         93         77         78         95         94         78         79         96         95         79         80         97         96         80         81         98         97         81         82         99         98         82         83        100         99         83         84        101        100         85         86        103        102         86         87        104        103         87         88        105        104         88         89        106        105         89         90        107        106         90         91        108        107         91         92        109        108         92         93        110        109         93         94        111        110         94         95        112        111         95         96        113        112         96         97        114        113         97         98        115        114         98         99        116        115         99        100        117        116        100        101        118        117        102        103        120        119        103        104        121        120        104        105        122        121        105        106        123        122        106        107        124        123        107        108        125        124        108        109        126        125        109        110        127        126        110        111        128        127        111        112        129        128        112        113        130        129        113        114        131        130        114        115        132        131        115        116        133        132        116        117        134        133        117        118        135        134        119        120        137        136        120        121        138        137        121        122        139        138        122        123        140        139        123        124        141        140        124        125        142        141        125        126        143        142        126        127        144        143        127        128        145        144        128        129        146        145        129        130        147        146        130        131        148        147        131        132        149        148        132        133        150        149        133        134        151        150        134        135        152        151        136        137        154        153        137        138        155        154        138        139        156        155        139        140        157        156        140        141        158        157        141        142        159        158        142        143        160        159        143        144        161        160        144        145        162        161        145        146        163        162        146        147        164        163        147        148        165        164        148        149        166        165        149        150        167        166        150        151        168        167        151        152        169        168        153        154        171        170        154        155        172        171        155        156        173        172        156        157        174        173        157        158        175        174        158        159        176        175        159        160        177        176        160        161        178        177        161        162        179        178        162        163        180        179        163        164        181        180        164        165        182        181        165        166        183        182        166        167        184        183        167        168        185        184        168        169        186        185        170        171        188        187        171        172        189        188        172        173        190        189        173        174        191        190        174        175        192        191        175        176        193        192        176        177        194        193        177        178        195        194        178        179        196        195        179        180        197        196        180        181        198        197        181        182        199        198        182        183        200        199        183        184        201        200        184        185        202        201        185        186        203        202        187        188        205        204        188        189        206        205        189        190        207        206        190        191        208        207        191        192        209        208        192        193        210        209        193        194        211        210        194        195        212        211        195        196        213        212        196        197        214        213        197        198        215        214        198        199        216        215        199        200        217        216        200        201        218        217        201        202        219        218        202        203        220        219        204        205        222        221        205        206        223        222        206        207        224        223        207        208        225        224        208        209        226        225        209        210        227        226        210        211        228        227        211        212        229        228        212        213        230        229        213        214        231        230        214        215        232        231        215        216        233        232        216        217        234        233        217        218        235        234        218        219        236        235        219        220        237        236        221        222        239        238        222        223        240        239        223        224        241        240        224        225        242        241        225        226        243        242        226        227        244        243        227        228        245        244        228        229        246        245        229        230        247        246        230        231        248        247        231        232        249        248        232        233        250        249        233        234        251        250        234        235        252        251        235        236        253        252        236        237        254        253        238        239        256        255        239        240        257        256        240        241        258        257        241        242        259        258        242        243        260        259        243        244        261        260        244        245        262        261        245        246        263        262        246        247        264        263        247        248        265        264        248        249        266        265        249        250        267        266        250        251        268        267        251        252        269        268        252        253        270        269        253        254        271        270        255        256        273        272        256        257        274        273        257        258        275        274        258        259        276        275        259        260        277        276        260        261        278        277        261        262        279        278        262        263        280        279        263        264        281        280        264        265        282        281        265        266        283        282        266        267        284        283        267        268        285        284        268        269        286        285        269        270        287        286        270        271        288        287        306        307          1          0        307        308          2          1        308        309          3          2        309        310          4          3        310        311          5          4        311        312          6          5        312        313          7          6        313        314          8          7        314        315          9          8        315        316         10          9        316        317         11         10        317        318         12         11        318        319         13         12        319        320         14         13        320        321         15         14        321        322         16         15        323        324        307        306        324        325        308        307        325        326        309        308        326        327        310        309        327        328        311        310        328        329        312        311        329        330        313        312        330        331        314        313        331        332        315        314        332        333        316        315        333        334        317        316        334        335        318        317        335        336        319        318        336        337        320        319        337        338        321        320        338        339        322        321        340        341        324        323        341        342        325        324        342        343        326        325        343        344        327        326        344        345        328        327        345        346        329        328        346        347        330        329        347        348        331        330        348        349        332        331        349        350        333        332        350        351        334        333        351        352        335        334        352        353        336        335        353        354        337        336        354        355        338        337        355        356        339        338        357        358        341        340        358        359        342        341        359        360        343        342        360        361        344        343        361        362        345        344        362        363        346        345        363        364        347        346        364        365        348        347        365        366        349        348        366        367        350        349        367        368        351        350        368        369        352        351        369        370        353        352        370        371        354        353        371        372        355        354        372        373        356        355        374        375        358        357        375        376        359        358        376        377        360        359        377        378        361        360        378        379        362        361        379        380        363        362        380        381        364        363        381        382        365        364        382        383        366        365        383        384        367        366        384        385        368        367        385        386        369        368        386        387        370        369        387        388        371        370        388        389        372        371        389        390        373        372        391        392        375        374        392        393        376        375        393        394        377        376        394        395        378        377        395        396        379        378        396        397        380        379        397        398        381        380        398        399        382        381        399        400        383        382        400        401        384        383        401        402        385        384        402        403        386        385        403        404        387        386        404        405        388        387        405        406        389        388        406        407        390        389        408        409        392        391        409        410        393        392        410        411        394        393        411        412        395        394        412        413        396        395        413        414        397        396        414        415        398        397        415        416        399        398        416        417        400        399        417        418        401        400        418        419        402        401        419        420        403        402        420        421        404        403        421        422        405        404        422        423        406        405        423        424        407        406        425        426        409        408        426        427        410        409        427        428        411        410        428        429        412        411        429        430        413        412        430        431        414        413        431        432        415        414        432        433        416        415        433        434        417        416        434        435        418        417        435        436        419        418        436        437        420        419        437        438        421        420        438        439        422        421        439        440        423        422        440        441        424        423        442        443        426        425        443        444        427        426        444        445        428        427        445        446        429        428        446        447        430        429        447        448        431        430        448        449        432        431        449        450        433        432        450        451        434        433        451        452        435        434        452        453        436        435        453        454        437        436        454        455        438        437        455        456        439        438        456        457        440        439        457        458        441        440        459        460        443        442        460        461        444        443        461        462        445        444        462        463        446        445        463        464        447        446        464        465        448        447        465        466        449        448        466        467        450        449        467        468        451        450        468        469        452        451        469        470        453        452        470        471        454        453        471        472        455        454        472        473        456        455        473        474        457        456        474        475        458        457        476        477        460        459        477        478        461        460        478        479        462        461        479        480        463        462        480        481        464        463        481        482        465        464        482        483        466        465        483        484        467        466        484        485        468        467        485        486        469        468        486        487        470        469        487        488        471        470        488        489        472        471        489        490        473        472        490        491        474        473        491        492        475        474        493        494        477        476        494        495        478        477        495        496        479        478        496        497        480        479        497        498        481        480        498        499        482        481        499        500        483        482        500        501        484        483        501        502        485        484        502        503        486        485        503        504        487        486        504        505        488        487        505        506        489        488        506        507        490        489        507        508        491        490        508        509        492        491        510        511        494        493        511        512        495        494        512        513        496        495        513        514        497        496        514        515        498        497        515        516        499        498        516        517        500        499        517        518        501        500        518        519        502        501        519        520        503        502        520        521        504        503        521        522        505        504        522        523        506        505        523        524        507        506        524        525        508        507        525        526        509        508        527        528        511        510        528        529        512        511        529        530        513        512        530        531        514        513        531        532        515        514        532        533        516        515        533        534        517        516        534        535        518        517        535        536        519        518        536        537        520        519        537        538        521        520        538        539        522        521        539        540        523        522        540        541        524        523        541        542        525        524        542        543        526        525        544        545        528        527        545        546        529        528        546        547        530        529        547        548        531        530        548        549        532        531        549        550        533        532        550        551        534        533        551        552        535        534        552        553        536        535        553        554        537        536        554        555        538        537        555        556        539        538        556        557        540        539        557        558        541        540        558        559        542        541        559        560        543        542        561        562        545        544        562        563        546        545        563        564        547        546        564        565        548        547        565        566        549        548        566        567        550        549        567        568        551        550        568        569        552        551        569        570        553        552        570        571        554        553        571        572        555        554        572        573        556        555        573        574        557        556        574        575        558        557        575        576        559        558        576        577        560        559        578        579        596        595        579        580        597        596        580        581        598        597        581        582        599        598        582        583        600        599        583        584        601        600        584        585        602        601        585        586        603        602        586        587        604        603        587        588        605        604        588        589        606        605        589        590        607        606        590        591        608        607        591        592        609        608        592        593        610        609        593        594        611        610        595        596        613        612        596        597        614        613        597        598        615        614        598        599        616        615        599        600        617        616        600        601        618        617        601        602        619        618        602        603        620        619        603        604        621        620        604        605        622        621        605        606        623        622        606        607        624        623        607        608        625        624        608        609        626        625        609        610        627        626        610        611        628        627        612        613        630        629        613        614        631        630        614        615        632        631        615        616        633        632        616        617        634        633        617        618        635        634        618        619        636        635        619        620        637        636        620        621        638        637        621        622        639        638        622        623        640        639        623        624        641        640        624        625        642        641        625        626        643        642        626        627        644        643        627        628        645        644        629        630        647        646        630        631        648        647        631        632        649        648        632        633        650        649        633        634        651        650        634        635        652        651        635        636        653        652        636        637        654        653        637        638        655        654        638        639        656        655        639        640        657        656        640        641        658        657        641        642        659        658        642        643        660        659        643        644        661        660        644        645        662        661        646        647        664        663        647        648        665        664        648        649        666        665        649        650        667        666        650        651        668        667        651        652        669        668        652        653        670        669        653        654        671        670        654        655        672        671        655        656        673        672        656        657        674        673        657        658        675        674        658        659        676        675        659        660        677        676        660        661        678        677        661        662        679        678        663        664        681        680        664        665        682        681        665        666        683        682        666        667        684        683        667        668        685        684        668        669        686        685        669        670        687        686        670        671        688        687        671        672        689        688        672        673        690        689        673        674        691        690        674        675        692        691        675        676        693        692        676        677        694        693        677        678        695        694        678        679        696        695        680        681        698        697        681        682        699        698        682        683        700        699        683        684        701        700        684        685        702        701        685        686        703        702        686        687        704        703        687        688        705        704        688        689        706        705        689        690        707        706        690        691        708        707        691        692        709        708        692        693        710        709        693        694        711        710        694        695        712        711        695        696        713        712        697        698        715        714        698        699        716        715        699        700        717        716        700        701        718        717        701        702        719        718        702        703        720        719        703        704        721        720        704        705        722        721        705        706        723        722        706        707        724        723        707        708        725        724        708        709        726        725        709        710        727        726        710        711        728        727        711        712        729        728        712        713        730        729        714        715        732        731        715        716        733        732        716        717        734        733        717        718        735        734        718        719        736        735        719        720        737        736        720        721        738        737        721        722        739        738        722        723        740        739        723        724        741        740        724        725        742        741        725        726        743        742        726        727        744        743        727        728        745        744        728        729        746        745        729        730        747        746        731        732        749        748        732        733        750        749        733        734        751        750        734        735        752        751        735        736        753        752        736        737        754        753        737        738        755        754        738        739        756        755        739        740        757        756        740        741        758        757        741        742        759        758        742        743        760        759        743        744        761        760        744        745        762        761        745        746        763        762        746        747        764        763        748        749        766        765        749        750        767        766        750        751        768        767        751        752        769        768        752        753        770        769        753        754        771        770        754        755        772        771        755        756        773        772        756        757        774        773        757        758        775        774        758        759        776        775        759        760        777        776        760        761        778        777        761        762        779        778        762        763        780        779        763        764        781        780        765        766        783        782        766        767        784        783        767        768        785        784        768        769        786        785        769        770        787        786        770        771        788        787        771        772        789        788        772        773        790        789        773        774        791        790        774        775        792        791        775        776        793        792        776        777        794        793        777        778        795        794        778        779        796        795        779        780        797        796        780        781        798        797        782        783        800        799        783        784        801        800        784        785        802        801        785        786        803        802        786        787        804        803        787        788        805        804        788        789        806        805        789        790        807        806        790        791        808        807        791        792        809        808        792        793        810        809        793        794        811        810        794        795        812        811        795        796        813        812        796        797        814        813        797        798        815        814        799        800        817        816        800        801        818        817        801        802        819        818        802        803        820        819        803        804        821        820        804        805        822        821        805        806        823        822        806        807        824        823        807        808        825        824        808        809        826        825        809        810        827        826        810        811        828        827        811        812        829        828        812        813        830        829        813        814        831        830        814        815        832        831        816        817        834        833        817        818        835        834        818        819        836        835        819        820        837        836        820        821        838        837        821        822        839        838        822        823        840        839        823        824        841        840        824        825        842        841        825        826        843        842        826        827        844        843        827        828        845        844        828        829        846        845        829        830        847        846        830        831        848        847        831        832        849        848        833        834        562        561        834        835        563        562        835        836        564        563        836        837        565        564        837        838        566        565        838        839        567        566        839        840        568        567        840        841        569        568        841        842        570        569        842        843        571        570        843        844        572        571        844        845        573        572        845        846        574        573        846        847        575        574        847        848        576        575        848        849        577        576        884        885        579        578        885        886        580        579        886        887        581        580        887        888        582        581        888        889        583        582        889        890        584        583        890        891        585        584        891        892        586        585        892        893        587        586        893        894        588        587        894        895        589        588        895        896        590        589        896        897        591        590        897        898        592        591        898        899        593        592        899        900        594        593        901        902        885        884        902        903        886        885        903        904        887        886        904        905        888        887        905        906        889        888        906        907        890        889        907        908        891        890        908        909        892        891        909        910        893        892        910        911        894        893        911        912        895        894        912        913        896        895        913        914        897        896        914        915        898        897        915        916        899        898        916        917        900        899        918        919        902        901        919        920        903        902        920        921        904        903        921        922        905        904        922        923        906        905        923        924        907        906        924        925        908        907        925        926        909        908        926        927        910        909        927        928        911        910        928        929        912        911        929        930        913        912        930        931        914        913        931        932        915        914        932        933        916        915        933        934        917        916        935        936        919        918        936        937        920        919        937        938        921        920        938        939        922        921        939        940        923        922        940        941        924        923        941        942        925        924        942        943        926        925        943        944        927        926        944        945        928        927        945        946        929        928        946        947        930        929        947        948        931        930        948        949        932        931        949        950        933        932        950        951        934        933        952        953        936        935        953        954        937        936        954        955        938        937        955        956        939        938        956        957        940        939        957        958        941        940        958        959        942        941        959        960        943        942        960        961        944        943        961        962        945        944        962        963        946        945        963        964        947        946        964        965        948        947        965        966        949        948        966        967        950        949        967        968        951        950        969        970        953        952        970        971        954        953        971        972        955        954        972        973        956        955        973        974        957        956        974        975        958        957        975        976        959        958        976        977        960        959        977        978        961        960        978        979        962        961        979        980        963        962        980        981        964        963        981        982        965        964        982        983        966        965        983        984        967        966        984        985        968        967        986        987        970        969        987        988        971        970        988        989        972        971        989        990        973        972        990        991        974        973        991        992        975        974        992        993        976        975        993        994        977        976        994        995        978        977        995        996        979        978        996        997        980        979        997        998        981        980        998        999        982        981        999       1000        983        982       1000       1001        984        983       1001       1002        985        984       1003       1004        987        986       1004       1005        988        987       1005       1006        989        988       1006       1007        990        989       1007       1008        991        990       1008       1009        992        991       1009       1010        993        992       1010       1011        994        993       1011       1012        995        994       1012       1013        996        995       1013       1014        997        996       1014       1015        998        997       1015       1016        999        998       1016       1017       1000        999       1017       1018       1001       1000       1018       1019       1002       1001       1020       1021       1004       1003       1021       1022       1005       1004       1022       1023       1006       1005       1023       1024       1007       1006       1024       1025       1008       1007       1025       1026       1009       1008       1026       1027       1010       1009       1027       1028       1011       1010       1028       1029       1012       1011       1029       1030       1013       1012       1030       1031       1014       1013       1031       1032       1015       1014       1032       1033       1016       1015       1033       1034       1017       1016       1034       1035       1018       1017       1035       1036       1019       1018       1037       1038       1021       1020       1038       1039       1022       1021       1039       1040       1023       1022       1040       1041       1024       1023       1041       1042       1025       1024       1042       1043       1026       1025       1043       1044       1027       1026       1044       1045       1028       1027       1045       1046       1029       1028       1046       1047       1030       1029       1047       1048       1031       1030       1048       1049       1032       1031       1049       1050       1033       1032       1050       1051       1034       1033       1051       1052       1035       1034       1052       1053       1036       1035       1054       1055       1038       1037       1055       1056       1039       1038       1056       1057       1040       1039       1057       1058       1041       1040       1058       1059       1042       1041       1059       1060       1043       1042       1060       1061       1044       1043       1061       1062       1045       1044       1062       1063       1046       1045       1063       1064       1047       1046       1064       1065       1048       1047       1065       1066       1049       1048       1066       1067       1050       1049       1067       1068       1051       1050       1068       1069       1052       1051       1069       1070       1053       1052       1071       1072       1055       1054       1072       1073       1056       1055       1073       1074       1057       1056       1074       1075       1058       1057       1075       1076       1059       1058       1076       1077       1060       1059       1077       1078       1061       1060       1078       1079       1062       1061       1079       1080       1063       1062       1080       1081       1064       1063       1081       1082       1065       1064       1082       1083       1066       1065       1083       1084       1067       1066       1084       1085       1068       1067       1085       1086       1069       1068       1086       1087       1070       1069       1088       1089       1072       1071       1089       1090       1073       1072       1090       1091       1074       1073       1091       1092       1075       1074       1092       1093       1076       1075       1093       1094       1077       1076       1094       1095       1078       1077       1095       1096       1079       1078       1096       1097       1080       1079       1097       1098       1081       1080       1098       1099       1082       1081       1099       1100       1083       1082       1100       1101       1084       1083       1101       1102       1085       1084       1102       1103       1086       1085       1103       1104       1087       1086       1105       1106       1089       1088       1106       1107       1090       1089       1107       1108       1091       1090       1108       1109       1092       1091       1109       1110       1093       1092       1110       1111       1094       1093       1111       1112       1095       1094       1112       1113       1096       1095       1113       1114       1097       1096       1114       1115       1098       1097       1115       1116       1099       1098       1116       1117       1100       1099       1117       1118       1101       1100       1118       1119       1102       1101       1119       1120       1103       1102       1120       1121       1104       1103       1122       1123       1106       1105       1123       1124       1107       1106       1124       1125       1108       1107       1125       1126       1109       1108       1126       1127       1110       1109       1127       1128       1111       1110       1128       1129       1112       1111       1129       1130       1113       1112       1130       1131       1114       1113       1131       1132       1115       1114       1132       1133       1116       1115       1133       1134       1117       1116       1134       1135       1118       1117       1135       1136       1119       1118       1136       1137       1120       1119       1137       1138       1121       1120        272        273       1123       1122        273        274       1124       1123        274        275       1125       1124        275        276       1126       1125        276        277       1127       1126        277        278       1128       1127        278        279       1129       1128        279        280       1130       1129        280        281       1131       1130        281        282       1132       1131        282        283       1133       1132        283        284       1134       1133        284        285       1135       1134        285        286       1136       1135        286        287       1137       1136        287        288       1138       1137 </DataArray>
<DataArray type="Int32"                                    Name="offsets"                                                      NumberOfComponents=" 1" format="ascii">
         4          8         12         16         20         24         28         32         36         40         44         48         52         56         60         64         68         72         76         80         84         88         92         96        100        104        108        112        116        120        124        128        132        136        140        144        148        152        156        160        164        168        172        176        180        184        188        192        196        200        204        208        212        216        220        224        228        232        236        240        244        248        252        256        260        264        268        272        276        280        284        288        292        296        300        304        308        312        316        320        324        328        332        336        340        344        348        352        356        360        364        368        372        376        380        384        388        392        396        400        404        408        412        416        420        424        428        432        436        440        444        448        452        456        460        464        468        472        476        480        484        488        492        496        500        504        508        512        516        520        524        528        532        536        540        544        548        552        556        560        564        568        572        576        580        584        588        592        596        600        604        608        612        616        620        624        628        632        636        640        644        648        652        656        660        664        668        672        676        680        684        688        692        696        700        704        708        712        716        720        724        728        732        736        740        744        748        752        756        760        764        768        772        776        780        784        788        792        796        800        804        808        812        816        820        824        828        832        836        840        844        848        852        856        860        864        868        872        876        880        884        888        892        896        900        904        908        912        916        920        924        928        932        936        940        944        948        952        956        960        964        968        972        976        980        984        988        992        996       1000       1004       1008       1012       1016       1020       1024       1028       1032       1036       1040       1044       1048       1052       1056       1060       1064       1068       1072       1076       1080       1084       1088       1092       1096       1100       1104       1108       1112       1116       1120       1124       1128       1132       1136       1140       1144       1148       1152       1156       1160       1164       1168       1172       1176       1180       1184       1188       1192       1196       1200       1204       1208       1212       1216       1220       1224       1228       1232       1236       1240       1244       1248       1252       1256       1260       1264       1268       1272       1276       1280       1284       1288       1292       1296       1300       1304       1308       1312       1316       1320       1324       1328       1332       1336       1340       1344       1348       1352       1356       1360       1364       1368       1372       1376       1380       1384       1388       1392       1396       1400       1404       1408       1412       1416       1420       1424       1428       1432       1436       1440       1444       1448       1452       1456       1460       1464       1468       1472       1476       1480       1484       1488       1492       1496       1500       1504       1508       1512       1516       1520       1524       1528       1532       1536       1540       1544       1548       1552       1556       1560       1564       1568       1572       1576       1580       1584       1588       1592       1596       1600       1604       1608       1612       1616       1620       1624       1628       1632       1636       1640       1644       1648       1652       1656       1660       1664       1668       1672       1676       1680       1684       1688       1692       1696       1700       1704       1708       1712       1716       1720       1724       1728       1732       1736       1740       1744       1748       1752       1756       1760       1764       1768       1772       1776       1780       1784       1788       1792       1796       1800       1804       1808       1812       1816       1820       1824       1828       1832       1836       1840       1844       1848       1852       1856       1860       1864       1868       1872       1876       1880       1884       1888       1892       1896       1900       1904       1908       1912       1916       1920       1924       1928       1932       1936       1940       1944       1948       1952       1956       1960       1964       1968       1972       1976       1980       1984       1988       1992       1996       2000       2004       2008       2012       2016       2020       2024       2028       2032       2036       2040       2044       2048       2052       2056       2060       2064       2068       2072       2076       2080       2084       2088       2092       2096       2100       2104       2108       2112       2116       2120       2124       2128       2132       2136       2140       2144       2148       2152       2156       2160       2164       2168       2172       2176       2180       2184       2188       2192       2196       2200       2204       2208       2212       2216       2220       2224       2228       2232       2236       2240       2244       2248       2252       2256       2260       2264       2268       2272       2276       2280       2284       2288       2292       2296       2300       2304       2308       2312       2316       2320       2324       2328       2332       2336       2340       2344       2348       2352       2356       2360       2364       2368       2372       2376       2380       2384       2388       2392       2396       2400       2404       2408       2412       2416       2420       2424       2428       2432       2436       2440       2444       2448       2452       2456       2460       2464       2468       2472       2476       2480       2484       2488       2492       2496       2500       2504       2508       2512       2516       2520       2524       2528       2532       2536       2540       2544       2548       2552       2556       2560       2564       2568       2572       2576       2580       2584       2588       2592       2596       2600       2604       2608       2612       2616       2620       2624       2628       2632       2636       2640       2644       2648       2652       2656       2660       2664       2668       2672       2676       2680       2684       2688       2692       2696       2700       2704       2708       2712       2716       2720       2724       2728       2732       2736       2740       2744       2748       2752       2756       2760       2764       2768       2772       2776       2780       2784       2788       2792       2796       2800       2804       2808       2812       2816       2820       2824       2828       2832       2836       2840       2844       2848       2852       2856       2860       2864       2868       2872       2876       2880       2884       2888       2892       2896       2900       2904       2908       2912       2916       2920       2924       2928       2932       2936       2940       2944       2948       2952       2956       2960       2964       2968       2972       2976       2980       2984       2988       2992       2996       3000       3004       3008       3012       3016       3020       3024       3028       3032       3036       3040       3044       3048       3052       3056       3060       3064       3068       3072       3076       3080       3084       3088       3092       3096       3100       3104       3108       3112       3116       3120       3124       3128       3132       3136       3140       3144       3148       3152       3156       3160       3164       3168       3172       3176       3180       3184       3188       3192       3196       3200       3204       3208       3212       3216       3220       3224       3228       3232       3236       3240       3244       3248       3252       3256       3260       3264       3268       3272       3276       3280       3284       3288       3292       3296       3300       3304       3308       3312       3316       3320       3324       3328       3332       3336       3340       3344       3348       3352       3356       3360       3364       3368       3372       3376       3380       3384       3388       3392       3396       3400       3404       3408       3412       3416       3420       3424       3428       3432       3436       3440       3444       3448       3452       3456       3460       3464       3468       3472       3476       3480       3484       3488       3492       3496       3500       3504       3508       3512       3516       3520       3524       3528       3532       3536       3540       3544       3548       3552       3556       3560       3564       3568       3572       3576       3580       3584       3588       3592       3596       3600       3604       3608       3612       3616       3620       3624       3628       3632       3636       3640       3644       3648       3652       3656       3660       3664       3668       3672       3676       3680       3684       3688       3692       3696       3700       3704       3708       3712       3716       3720       3724       3728       3732       3736       3740       3744       3748       3752       3756       3760       3764       3768       3772       3776       3780       3784       3788       3792       3796       3800       3804       3808       3812       3816       3820       3824       3828       3832       3836       3840       3844       3848       3852       3856       3860       3864       3868       3872       3876       3880       3884       3888       3892       3896       3900       3904       3908       3912       3916       3920       3924       3928       3932       3936       3940       3944       3948       3952       3956       3960       3964       3968       3972       3976       3980       3984       3988       3992       3996       4000       4004       4008       4012       4016       4020       4024       4028       4032       4036       4040       4044       4048       4052       4056       4060       4064       4068       4072       4076       4080       4084       4088       4092       4096 </DataArray>
<DataArray type="UInt8"                                    Name="types"                                                      NumberOfComponents=" 1" format="ascii">
         9          9          9          9          9          9          9          9          9          9          9          9          9          9          9          9          9          9          9          9          9          9          9          9          9          9          9          9          9          9          9          9          9          9          9          9          9          9          9          9          9          9          9          9          9          9          9          9          9          9          9          9          9          9          9          9          9          9          9          9          9          9          9          9          9          9          9          9          9          9          9          9          9          9          9          9          9          9          9          9          9          9          9          9          9          9          9          9          9          9          9          9          9          9          9          9          9          9          9          9          9          9          9          9          9          9          9          9          9          9          9          9          9          9          9          9          9          9          9          9          9          9          9          9          9          9          9          9          9          9          9          9          9          9          9          9          9          9          9          9          9          9          9          9          9          9          9          9          9          9          9          9          9          9          9          9          9          9          9          9          9          9          9          9          9          9          9          9          9          9          9          9          9          9          9          9          9          9          9          9          9          9          9          9          9          9          9          9          9          9          9          9          9          9          9          9          9          9          9          9          9          9          9          9          9          9          9          9          9          9          9          9          9          9          9          9          9          9          9          9          9          9          9          9          9          9          9          9          9          9          9          9          9          9          9          9          9          9          9          9          9          9          9          9          9          9          9          9          9          9          9          9          9          9          9          9          9          9          9          9          9          9          9          9          9          9          9          9          9          9          9          9          9          9          9          9          9          9          9          9          9          9          9          9          9          9          9          9          9          9          9          9          9          9          9          9          9          9          9          9          9          9          9          9          9          9          9          9          9          9          9          9          9          9          9          9          9          9          9          9          9          9          9          9          9          9          9          9          9          9          9          9          9          9          9          9          9          9          9          9          9          9          9          9          9          9          9          9          9          9          9          9          9          9          9          9          9          9          9          9          9          9          9          9          9          9          9          9          9          9          9          9          9          9          9          9          9          9          9          9          9          9          9          9          9          9          9          9          9          9          9          9          9          9          9          9          9          9          9          9          9          9          9          9          9          9          9          9          9          9          9          9          9          9          9          9          9          9          9          9          9          9          9          9          9          9          9          9          9          9          9          9          9          9          9          9          9          9          9          9          9          9          9          9          9          9          9          9          9          9          9          9          9          9          9          9          9          9          9          9          9          9          9          9          9          9          9          9          9          9          9          9          9          9          9          9          9          9          9          9          9          9          9          9          9          9          9          9          9          9          9          9          9          9          9          9          9          9          9          9          9          9          9          9          9          9          9          9          9          9          9          9          9          9          9          9          9          9          9          9          9          9          9          9          9          9          9          9          9          9          9          9          9          9          9          9          9          9          9          9          9          9          9          9          9          9          9          9          9          9          9          9          9          9          9          9          9          9          9          9          9          9          9          9          9          9          9          9          9          9          9          9          9          9          9          9          9          9          9          9          9          9          9          9          9          9          9          9          9          9          9          9          9          9          9          9          9          9          9          9          9          9          9          9          9          9          9          9          9          9          9          9          9          9          9          9          9          9          9          9          9          9          9          9          9          9          9          9          9          9          9          9          9          9          9          9          9          9          9          9          9          9          9          9          9          9          9          9          9          9          9          9          9          9          9          9          9          9          9          9          9          9          9          9          9          9          9          9          9          9          9          9          9          9          9          9          9          9          9          9          9          9          9          9          9          9          9          9          9          9          9          9          9          9          9          9          9          9          9          9          9          9          9          9          9          9          9          9          9          9          9          9          9          9          9          9          9          9          9          9          9          9          9          9          9          9          9          9          9          9          9          9          9          9          9          9          9          9          9          9          9          9          9          9          9          9          9          9          9          9          9          9          9          9          9          9          9          9          9          9          9          9          9          9          9          9          9          9          9          9          9          9          9          9          9          9          9          9          9          9          9          9          9          9          9          9          9          9          9          9          9          9          9          9          9          9          9          9          9          9          9          9          9          9          9          9          9          9          9          9          9          9          9          9          9          9          9          9          9          9          9          9          9          9          9          9          9          9          9          9          9          9          9          9          9          9          9          9          9          9          9          9          9          9          9          9          9          9          9          9          9          9          9          9          9          9          9          9          9          9          9          9          9          9          9          9          9          9          9          9          9          9          9          9          9          9          9          9          9          9          9          9          9          9          9          9          9          9          9          9          9          9          9          9          9          9          9          9          9          9          9          9          9          9          9          9          9          9          9          9          9          9          9          9          9          9          9          9          9          9          9          9          9          9          9          9          9          9          9          9          9          9          9          9          9          9          9          9          9          9          9          9          9          9          9          9          9          9          9          9          9          9          9          9          9          9          9          9          9          9          9          9          9          9          9          9          9          9          9          9          9          9          9          9          9          9          9          9          9          9          9          9          9          9          9          9          9          9          9          9          9          9          9          9          9          9          9          9          9          9          9          9          9          9          9          9          9          9          9          9          9          9          9          9          9          9          9          9          9          9          9          9          9          9 </DataArray>
</Cells>
<CellData>
<DataArray type="Int32"                                    Name="material"                                                      NumberOfComponents=" 1" format="ascii">
         1          1          1          1          1          1          1          1          1          1          1          1          1          1          1          1          1          1          1          1          1          1          1          1          1          1          1          1          1          1          1          1          1          1          1          1          1          1          1          1          1          1          1          1          1          1          1          1          1          1          1          1          1          1          1          1          1          1          1          1          1          1          1          1          1          1          1          1          1          1          1          1          1          1          1          1          1          1          1          1          1          1          1          1          1          1          1          1          1          1          1          1          1          1          1          1          1          1          1          1          1          1          1          1          1          1          1          1          1          1          1          1          1          1          1          1          1          1          1          1          1          1          1          1          1          1          1          1          1          1          1          1          1          1          1          1          1          1          1          1          1          1          1          1          1          1          1          1          1          1          1          1          1          1          1          1          1          1          1          1          1          1          1          1          1          1          1          1          1          1          1          1          1          1          1          1          1          1          1          1          1          1          1          1          1          1          1          1          1          1          1          1          1          1          1          1          1          1          1          1          1          1          1          1          1          1          1          1          1          1          1          1          1          1          1          1          1          1          1          1          1          1          1          1          1          1          1          1          1          1          1          1          1          1          1          1          1          1          1          1          1          1          1          1          1          1          1          1          1          1          1          1          1          1          1          1          1          1          1          1          1          1          1          1          1          1          1          1          1          1          1          1          1          1          1          1          1          1          1          1          1          1          1          1          1          1          1          1          1          1          1          1          1          1          1          1          1          1          1          1          1          1          1          1          1          1          1          1          1          1          1          1          1          1          1          1          1          1          1          1          1          1          1          1          1          1          1          1          1          1          1          1          1          1          1          1          1          1          1          1          1          1          1          1          1          1          1          1          1          1          1          1          1          1          1          1          1          1          1          1          1          1          1          1          1          1          1          1          1          1          1          1          1          1          1          1          1          1          1          1          1          1          1          1          1          1          1          1          1          1          1          1          1          1          1          1          1          1          1          1          1          1          1          1          1          1          1          1          1          1          1          1          1          1          1          1          1          1          1          1          1          1          1          1          1          1          1          1          1          1          1          1          1          1          1          1          1          1          1          1          1          1          1          1          1          1          1          1          1          1          1          1          1          1          1          1          1          1          1          1          1          1          1          1          1          1          1          1          1          1          1          1          1          1          1          1          1          1          1          1          1          1          1          1          1          1          1          1          1          1          1          1          1          1          1          1          1          1          1          1          1          1          1          1          1          1          1          1          1          1          1          1          1          1          1          1          1          1          1          1          1          1          1          1          1          1          1          1          1          1          1          1          1          1          1          1          1          1          1          1          1          1          1          1          1          1          1          1          1          1          1          1          1          1          1          1          1          1          1          1          1          1          1          1          1          1          1          1          1          1          1          1          1          1          1          1          1          1          1          1          1          1          1          1          1          1          1          1          1          1          1          1          1          1          1          1          1          1          1          1          1          1          1          1          1          1          1          1          1          1          1          1          1          1          1          1          1          1          1          1          1          1          1          1          1          1          1          1          1          1          1          1          1          1          1          1          1          1          1          1          1          1          1          1          1          1          1          1          1          1          1          1          1          1          1          1          1          1          1          1          1          1          1          1          1          1          1          1          1          1          1          1          1          1          1          1          1          1          1          1          1          1          1          1          1          1          1          1          1          1          1          1          1          1          1          1          1          1          1          1          1          1          1          1          1          1          1          1          1          1          1          1          1          1          1          1          1          1          1          1          1          1          1          1          1          1          1          1          1          1          1          1          1          1          1          1          1          1          1          1          1          1          1          1          1          1          1          1          1          1          1          1          1          1          1          1          1          1          1          1          1          1          1          1          1          1          1          1          1          1          1          1          1          1          1          1          1          1          1          1          1          1          1          1          1          1          1          1          1          1          1          1          1          1          1          1          1          1          1          1          1          1          1          1          1          1          1          1          1          1          1          1          1          1          1          1          1          1          1          1          1          1          1          1          1          1          1          1          1          1          1          1          1          1          1          1          1          1          1          1          1          1          1          1          1          1          1          1          1          1          1          1          1          1          1          1          1          1          1          1          1          1          1          1          1          1          1          1          1          1          1          1          1          1          1          1          1          1          1          1          1          1          1          1          1          1          1          1          1          1          1          1          1          1          1          1          1          1          1          1          1          1          1          1          1          1          1          1          1          1          1          1          1          1          1          1          1          1          1          1          1          1          1          1          1          1          1          1          1          1          1          1          1          1          1          1          1          1          1          1          1          1          1          1          1          1          1          1          1          1          1          1          1          1          1          1          1          1          1          1          1          1          1          1          1          1          1          1          1          1          1          1          1          1          1          1          1          1          1          1          1          1          1          1          1          1          1          1          1          1          1          1          1          1          1          1          1          1          1          1          1          1          1          1          1          1          1          1          1          1          1          1          1          1          1          1          1          1          1          1          1          1          1          1 </DataArray>
</CellData>
<PointData>
<DataArray type="Float64"                                    Name="u"                                                      NumberOfComponents=" 3" format="ascii">
             -0.000662783              -0.000000000               0.999999984              -0.000711366               0.000000000               0.999999984              -0.000732489              -0.000000000               0.999999984              -0.000744184               0.000000000               0.999999984              -0.000753241               0.000000000               0.999999984              -0.000762311               0.000000000               0.999999984              -0.000772428               0.000000000               0.999999984              -0.000783726               0.000000000               0.999999984              -0.000796081              -0.000000000               0.999999984              -0.000809197               0.000000000               0.999999984              -0.000822902              -0.000000000               0.999999984              -0.000837115              -0.000000000               0.999999984              -0.000851713              -0.000000000               0.999999984              -0.000866314               0.000000000               0.999999984              -0.000880559              -0.000000000               0.999999984              -0.000893872               0.000000000               0.999999984              -0.000905512              -0.000000000               0.999999984              -0.000659233               0.000125463               0.999999984              -0.000704223               0.000102598               0.999999984              -0.000723029               0.000092745               0.999999984              -0.000733235               0.000089690               0.999999984              -0.000741335               0.000090121               0.999999984              -0.000749712               0.000092466               0.999999984              -0.000759122               0.000095701               0.999999984              -0.000769759               0.000099181               0.999999984              -0.000781485               0.000102464               0.999999984              -0.000793934               0.000105185               0.999999984              -0.000806958               0.000107253               0.999999984              -0.000820290               0.000108527               0.999999984              -0.000833635               0.000108625               0.999999984              -0.000846769               0.000107191               0.999999984              -0.000859308               0.000103519               0.999999984              -0.000870852               0.000097050               0.999999984              -0.000880888               0.000086618               0.999999984              -0.000648264               0.000249819               0.999999984              -0.000682794               0.000204630               0.999999984              -0.000695262               0.000186162               0.999999984              -0.000701697               0.000181004               0.999999984              -0.000707406               0.000182635               0.999999984              -0.000714095               0.000187760               0.999999984              -0.000722158               0.000194504               0.999999984              -0.000731401               0.000201631               0.999999984              -0.000741565               0.000208209               0.999999984              -0.000752259               0.000213693               0.999999984              -0.000763058               0.000217837               0.999999984              -0.000773755               0.000220274               0.999999984              -0.000784076               0.000220565               0.999999984              -0.000793673               0.000218102               0.999999984              -0.000802281               0.000211780               0.999999984              -0.000809530               0.000200641               0.999999984              -0.000815101               0.000183455               0.999999984              -0.000630141               0.000371916               0.999999984              -0.000648392               0.000305718               0.999999984              -0.000651783               0.000280609               0.999999984              -0.000653160               0.000274965               0.999999984              -0.000656057               0.000278895               0.999999984              -0.000660891               0.000287438               0.999999984              -0.000667356               0.000297954               0.999999984              -0.000674880               0.000308792               0.999999984              -0.000682857               0.000318578               0.999999984              -0.000690820               0.000326783               0.999999984              -0.000698457               0.000332874               0.999999984              -0.000705340               0.000336503               0.999999984              -0.000711114               0.000337243               0.999999984              -0.000715501               0.000334303               0.999999984              -0.000718247               0.000326483               0.999999984              -0.000719190               0.000312987               0.999999984              -0.000718394               0.000293276               0.999999984              -0.000605496               0.000490621               0.999999984              -0.000602784               0.000405568               0.999999984              -0.000596029               0.000376246               0.999999984              -0.000592695               0.000371793               0.999999984              -0.000593244               0.000378996               0.999999984              -0.000596618               0.000391375               0.999999984              -0.000601684               0.000405721               0.999999984              -0.000607404               0.000419919               0.999999984              -0.000613001               0.000432671               0.999999984              -0.000617965               0.000443134               0.999999984              -0.000621652               0.000450855               0.999999984              -0.000623740               0.000455476               0.999999984              -0.000623871               0.000456644               0.999999984              -0.000621833               0.000453477               0.999999984              -0.000617546               0.000445197               0.999999984              -0.000611229               0.000431686               0.999999984              -0.000603373               0.000413062               0.999999984              -0.000574598               0.000604847               0.999999984              -0.000548167               0.000504097               0.999999984              -0.000532262               0.000473041               0.999999984              -0.000525628               0.000471096               0.999999984              -0.000525012               0.000482045               0.999999984              -0.000527812               0.000498292               0.999999984              -0.000531924               0.000516035               0.999999984              -0.000535942               0.000533051               0.999999984              -0.000538875               0.000548033               0.999999984              -0.000540033               0.000560352               0.999999984              -0.000538987               0.000569387               0.999999984              -0.000535471               0.000574807               0.999999984              -0.000529235               0.000576139               0.999999984              -0.000520160               0.000572945               0.999999984              -0.000508460               0.000565041               0.999999984              -0.000494792               0.000552890               0.999999984              -0.000479812               0.000537451               0.999999984              -0.000538031               0.000713380               0.999999984              -0.000487472               0.000601256               0.999999984              -0.000464655               0.000570532               0.999999984              -0.000456791               0.000571732               0.999999984              -0.000456645               0.000586314               0.999999984              -0.000459629               0.000605998               0.999999984              -0.000463090               0.000626522               0.999999984              -0.000465209               0.000645703               0.999999984              -0.000464913               0.000662378               0.999999984              -0.000461711               0.000676016               0.999999984              -0.000455206               0.000686116               0.999999984              -0.000445256               0.000692050               0.999999984              -0.000431821               0.000693411               0.999999984              -0.000415171               0.000690376               0.999999984              -0.000396016               0.000683482               0.999999984              -0.000375133               0.000673671               0.999999984              -0.000353207               0.000661955               0.999999984              -0.000496617               0.000815019               0.999999984              -0.000423568               0.000696881               0.999999984              -0.000397050               0.000667718               0.999999984              -0.000390516               0.000671914               0.999999984              -0.000391947               0.000689682               0.999999984              -0.000395539               0.000712109               0.999999984              -0.000398098               0.000734973               0.999999984              -0.000397736               0.000755859               0.999999984              -0.000393586               0.000773739               0.999999984              -0.000385204               0.000788252               0.999999984              -0.000372410               0.000798859               0.999999984              -0.000355182               0.000804862               0.999999984              -0.000333943               0.000806253               0.999999984              -0.000309547               0.000803926               0.999999984              -0.000282855               0.000798754               0.999999984              -0.000254733               0.000791677               0.999999984              -0.000225849               0.000783691               0.999999984              -0.000451721               0.000907976               0.999999984              -0.000358671               0.000790782               0.999999984              -0.000333023               0.000763266               0.999999984              -0.000329506               0.000769900               0.999999984              -0.000333223               0.000790096               0.999999984              -0.000337325               0.000814766               0.999999984              -0.000338316               0.000839518               0.999999984              -0.000334775               0.000861833               0.999999984              -0.000325891               0.000880593               0.999999984              -0.000311437               0.000895426               0.999999984              -0.000291356               0.000905923               0.999999984              -0.000266006               0.000911827               0.999999984              -0.000236459               0.000913782               0.999999984              -0.000203858               0.000912843               0.999999984              -0.000169383               0.000910089               0.999999984              -0.000134043               0.000906299               0.999999984              -0.000098328               0.000902152               0.999999984              -0.000405423               0.000995729               0.999999984              -0.000304892               0.000894463               0.999999984              -0.000276040               0.000861894               0.999999984              -0.000271398               0.000862203               0.999999984              -0.000274760               0.000877480               0.999999984              -0.000279323               0.000899297               0.999999984              -0.000281549               0.000923034               0.999999984              -0.000279954               0.000946185               0.999999984              -0.000273565               0.000966996               0.999999984              -0.000261898               0.000985031               0.999999984              -0.000244948               0.000999837               0.999999984              -0.000222645               0.001011286               0.999999984              -0.000195630               0.001019295               0.999999984              -0.000164498               0.001024560               0.999999984              -0.000130432               0.001027663               0.999999984              -0.000094544               0.001029589               0.999999984              -0.000057777               0.001030812               0.999999984              -0.000354699               0.001075401               0.999999984              -0.000254088               0.000994518               0.999999984              -0.000222114               0.000962873               0.999999984              -0.000215434               0.000959109               0.999999984              -0.000217581               0.000970561               0.999999984              -0.000221852               0.000989860               0.999999984              -0.000224777               0.001012619               0.999999984              -0.000224710               0.001036272               0.999999984              -0.000220494               0.001058992               0.999999984              -0.000211413               0.001079845               0.999999984              -0.000197323               0.001098426               0.999999984              -0.000178089               0.001114406               0.999999984              -0.000153732               0.001127707               0.999999984              -0.000124665               0.001138488               0.999999984              -0.000091440               0.001147175               0.999999984              -0.000055046               0.001154494               0.999999984              -0.000016735               0.001161012               0.999999984              -0.000300715               0.001145078               0.999999984              -0.000206197               0.001087967               0.999999984              -0.000172840               0.001061608               0.999999984              -0.000163802               0.001057011               0.999999984              -0.000164155               0.001066331               0.999999984              -0.000167373               0.001083906               0.999999984              -0.000170288               0.001106060               0.999999984              -0.000170992               0.001130277               0.999999984              -0.000168425               0.001154893               0.999999984              -0.000161629               0.001178592               0.999999984              -0.000150234               0.001200884               0.999999984              -0.000134020               0.001221233               0.999999984              -0.000112634               0.001239441               0.999999984              -0.000086042               0.001255444               0.999999984              -0.000054235               0.001269490               0.999999984              -0.000017606               0.001281960               0.999999984               0.000022782               0.001293498               0.999999984              -0.000243954               0.001203621               0.999999984              -0.000161230               0.001170932               0.999999984              -0.000128966               0.001153161               0.999999984              -0.000118384               0.001150539               0.999999984              -0.000116904               0.001159548               0.999999984              -0.000118678               0.001176606               0.999999984              -0.000120943               0.001198800               0.999999984              -0.000121910               0.001223866               0.999999984              -0.000120391               0.001250320               0.999999984              -0.000115435               0.001276962               0.999999984              -0.000106558               0.001302989               0.999999984              -0.000093284               0.001327860               0.999999984              -0.000075274               0.001351206               0.999999984              -0.000051899               0.001372627               0.999999984              -0.000022561               0.001392177               0.999999984               0.000012999               0.001410032               0.999999984               0.000054797               0.001426740               0.999999984              -0.000184897               0.001250069               0.999999984              -0.000118831               0.001239684               0.999999984              -0.000090739               0.001231861               0.999999984              -0.000080170               0.001233335               0.999999984              -0.000077468               0.001243711               0.999999984              -0.000077909               0.001261307               0.999999984              -0.000079197               0.001284153               0.999999984              -0.000079980               0.001310432               0.999999984              -0.000079093               0.001338821               0.999999984              -0.000075676               0.001368280               0.999999984              -0.000069101               0.001398000               0.999999984              -0.000058967               0.001427328               0.999999984              -0.000044698               0.001455857               0.999999984              -0.000025599               0.001483076               0.999999984              -0.000000579               0.001508734               0.999999984               0.000031506               0.001532641               0.999999984               0.000071719               0.001554999               0.999999984              -0.000124175               0.001283541               0.999999984              -0.000078305               0.001291035               0.999999984              -0.000057447               0.001292610               0.999999984              -0.000048820               0.001298763               0.999999984              -0.000046031               0.001311456               0.999999984              -0.000045699               0.001330260               0.999999984              -0.000046184               0.001354089               0.999999984              -0.000046574               0.001381605               0.999999984              -0.000046083               0.001411780               0.999999984              -0.000043971               0.001443789               0.999999984              -0.000039695               0.001476787               0.999999984              -0.000032755               0.001510197               0.999999984              -0.000022755               0.001543454               0.999999984              -0.000008998               0.001576117               0.999999984               0.000009684               0.001607787               0.999999984               0.000034700               0.001637961               0.999999984               0.000067725               0.001666219               0.999999984              -0.000062357               0.001303800               0.999999984              -0.000038865               0.001322733               0.999999984              -0.000027764               0.001331002               0.999999984              -0.000022918               0.001340802               0.999999984              -0.000021165               0.001355544               0.999999984              -0.000020841               0.001375615               0.999999984              -0.000020852               0.001400391               0.999999984              -0.000020905               0.001428957               0.999999984              -0.000020739               0.001460422               0.999999984              -0.000019806               0.001494199               0.999999984              -0.000017624               0.001529555               0.999999984              -0.000014080               0.001565854               0.999999984              -0.000008914               0.001602638               0.999999984              -0.000001618               0.001639404               0.999999984               0.000008489               0.001675558               0.999999984               0.000022400               0.001710484               0.999999984               0.000041306               0.001743308               0.999999984              -0.000000000               0.001310661               0.999999984               0.000000000               0.001333436               0.999999984               0.000000000               0.001343991               0.999999984              -0.000000000               0.001355207               0.999999984              -0.000000000               0.001370807               0.999999984              -0.000000000               0.001391431               0.999999984               0.000000000               0.001416637               0.999999984               0.000000000               0.001445579               0.999999984              -0.000000000               0.001477516               0.999999984               0.000000000               0.001512014               0.999999984               0.000000000               0.001548222               0.999999984              -0.000000000               0.001585561               0.999999984               0.000000000               0.001623583               0.999999984               0.000000000               0.001661772               0.999999984               0.000000000               0.001699569               0.999999984              -0.000000000               0.001736215               0.999999984               0.000000000               0.001770751               0.999999984              -0.000662783              -0.000000000               0.999999984              -0.000711366               0.000000000               0.999999984              -0.000732489              -0.000000000               0.999999984              -0.000744184               0.000000000               0.999999984              -0.000753241               0.000000000               0.999999984              -0.000762311               0.000000000               0.999999984              -0.000772428               0.000000000               0.999999984              -0.000783726               0.000000000               0.999999984              -0.000796081              -0.000000000               0.999999984              -0.000809197               0.000000000               0.999999984              -0.000822902              -0.000000000               0.999999984              -0.000837115              -0.000000000               0.999999984              -0.000851713              -0.000000000               0.999999984              -0.000866314               0.000000000               0.999999984              -0.000880559              -0.000000000               0.999999984              -0.000893872               0.000000000               0.999999984              -0.000905512              -0.000000000               0.999999984              -0.000659233              -0.000125463               0.999999984              -0.000704223              -0.000102598               0.999999984              -0.000723029              -0.000092745               0.999999984              -0.000733235              -0.000089690               0.999999984              -0.000741335              -0.000090121               0.999999984              -0.000749712              -0.000092466               0.999999984              -0.000759122              -0.000095701               0.999999984              -0.000769759              -0.000099181               0.999999984              -0.000781485              -0.000102464               0.999999984              -0.000793934              -0.000105185               0.999999984              -0.000806958              -0.000107253               0.999999984              -0.000820290              -0.000108527               0.999999984              -0.000833635              -0.000108625               0.999999984              -0.000846769              -0.000107191               0.999999984              -0.000859308              -0.000103519               0.999999984              -0.000870852              -0.000097050               0.999999984              -0.000880888              -0.000086618               0.999999984              -0.000648264              -0.000249819               0.999999984              -0.000682794              -0.000204630               0.999999984              -0.000695262              -0.000186162               0.999999984              -0.000701697              -0.000181004               0.999999984              -0.000707406              -0.000182635               0.999999984              -0.000714095              -0.000187760               0.999999984              -0.000722158              -0.000194504               0.999999984              -0.000731401              -0.000201631               0.999999984              -0.000741565              -0.000208209               0.999999984              -0.000752259              -0.000213693               0.999999984              -0.000763058              -0.000217837               0.999999984              -0.000773755              -0.000220274               0.999999984              -0.000784076              -0.000220565               0.999999984              -0.000793673              -0.000218102               0.999999984              -0.000802281              -0.000211780               0.999999984              -0.000809530              -0.000200641               0.999999984              -0.000815101              -0.000183455               0.999999984              -0.000630141              -0.000371916               0.999999984              -0.000648392              -0.000305718               0.999999984              -0.000651783              -0.000280609               0.999999984              -0.000653160              -0.000274965               0.999999984              -0.000656057              -0.000278895               0.999999984              -0.000660891              -0.000287438               0.999999984              -0.000667356              -0.000297954               0.999999984              -0.000674880              -0.000308792               0.999999984              -0.000682857              -0.000318578               0.999999984              -0.000690820              -0.000326783               0.999999984              -0.000698457              -0.000332874               0.999999984              -0.000705340              -0.000336503               0.999999984              -0.000711114              -0.000337243               0.999999984              -0.000715501              -0.000334303               0.999999984              -0.000718247              -0.000326483               0.999999984              -0.000719190              -0.000312987               0.999999984              -0.000718394              -0.000293276               0.999999984              -0.000605496              -0.000490621               0.999999984              -0.000602784              -0.000405568               0.999999984              -0.000596029              -0.000376246               0.999999984              -0.000592695              -0.000371793               0.999999984              -0.000593244              -0.000378996               0.999999984              -0.000596618              -0.000391375               0.999999984              -0.000601684              -0.000405721               0.999999984              -0.000607404              -0.000419919               0.999999984              -0.000613001              -0.000432671               0.999999984              -0.000617965              -0.000443134               0.999999984              -0.000621652              -0.000450855               0.999999984              -0.000623740              -0.000455476               0.999999984              -0.000623871              -0.000456644               0.999999984              -0.000621833              -0.000453477               0.999999984              -0.000617546              -0.000445197               0.999999984              -0.000611229              -0.000431686               0.999999984              -0.000603373              -0.000413062               0.999999984              -0.000574598              -0.000604847               0.999999984              -0.000548167              -0.000504097               0.999999984              -0.000532262              -0.000473041               0.999999984              -0.000525628              -0.000471096               0.999999984              -0.000525012              -0.000482045               0.999999984              -0.000527812              -0.000498292               0.999999984              -0.000531924              -0.000516035               0.999999984              -0.000535942              -0.000533051               0.999999984              -0.000538875              -0.000548033               0.999999984              -0.000540033              -0.000560352               0.999999984              -0.000538987              -0.000569387               0.999999984              -0.000535471              -0.000574807               0.999999984              -0.000529235              -0.000576139               0.999999984              -0.000520160              -0.000572945               0.999999984              -0.000508460              -0.000565041               0.999999984              -0.000494792              -0.000552890               0.999999984              -0.000479812              -0.000537451               0.999999984              -0.000538031              -0.000713380               0.999999984              -0.000487472              -0.000601256               0.999999984              -0.000464655              -0.000570532               0.999999984              -0.000456791              -0.000571732               0.999999984              -0.000456645              -0.000586314               0.999999984              -0.000459629              -0.000605998               0.999999984              -0.000463090              -0.000626522               0.999999984              -0.000465209              -0.000645703               0.999999984              -0.000464913              -0.000662378               0.999999984              -0.000461711              -0.000676016               0.999999984              -0.000455206              -0.000686116               0.999999984              -0.000445256              -0.000692050               0.999999984              -0.000431821              -0.000693411               0.999999984              -0.000415171              -0.000690376               0.999999984              -0.000396016              -0.000683482               0.999999984              -0.000375133              -0.000673671               0.999999984              -0.000353207              -0.000661955               0.999999984              -0.000496617              -0.000815019               0.999999984              -0.000423568              -0.000696881               0.999999984              -0.000397050              -0.000667718               0.999999984              -0.000390516              -0.000671914               0.999999984              -0.000391947              -0.000689682               0.999999984              -0.000395539              -0.000712109               0.999999984              -0.000398098              -0.000734973               0.999999984              -0.000397736              -0.000755859               0.999999984              -0.000393586              -0.000773739               0.999999984              -0.000385204              -0.000788252               0.999999984              -0.000372410              -0.000798859               0.999999984              -0.000355182              -0.000804862               0.999999984              -0.000333943              -0.000806253               0.999999984              -0.000309547              -0.000803926               0.999999984              -0.000282855              -0.000798754               0.999999984              -0.000254733              -0.000791677               0.999999984              -0.000225849              -0.000783691               0.999999984              -0.000451721              -0.000907976               0.999999984              -0.000358671              -0.000790782               0.999999984              -0.000333023              -0.000763266               0.999999984              -0.000329506              -0.000769900               0.999999984              -0.000333223              -0.000790096               0.999999984              -0.000337325              -0.000814766               0.999999984              -0.000338316              -0.000839518               0.999999984              -0.000334775              -0.000861833               0.999999984              -0.000325891              -0.000880593               0.999999984              -0.000311437              -0.000895426               0.999999984              -0.000291356              -0.000905923               0.999999984              -0.000266006              -0.000911827               0.999999984              -0.000236459              -0.000913782               0.999999984              -0.000203858              -0.000912843               0.999999984              -0.000169383              -0.000910089               0.999999984              -0.000134043              -0.000906299               0.999999984              -0.000098328              -0.000902152               0.999999984              -0.000405423              -0.000995729               0.999999984              -0.000304892              -0.000894463               0.999999984              -0.000276040              -0.000861894               0.999999984              -0.000271398              -0.000862203               0.999999984              -0.000274760              -0.000877480               0.999999984              -0.000279323              -0.000899297               0.999999984              -0.000281549              -0.000923034               0.999999984              -0.000279954              -0.000946185               0.999999984              -0.000273565              -0.000966996               0.999999984              -0.000261898              -0.000985031               0.999999984              -0.000244948              -0.000999837               0.999999984              -0.000222645              -0.001011286               0.999999984              -0.000195630              -0.001019295               0.999999984              -0.000164498              -0.001024560               0.999999984              -0.000130432              -0.001027663               0.999999984              -0.000094544              -0.001029589               0.999999984              -0.000057777              -0.001030812               0.999999984              -0.000354699              -0.001075401               0.999999984              -0.000254088              -0.000994518               0.999999984              -0.000222114              -0.000962873               0.999999984              -0.000215434              -0.000959109               0.999999984              -0.000217581              -0.000970561               0.999999984              -0.000221852              -0.000989860               0.999999984              -0.000224777              -0.001012619               0.999999984              -0.000224710              -0.001036272               0.999999984              -0.000220494              -0.001058992               0.999999984              -0.000211413              -0.001079845               0.999999984              -0.000197323              -0.001098426               0.999999984              -0.000178089              -0.001114406               0.999999984              -0.000153732              -0.001127707               0.999999984              -0.000124665              -0.001138488               0.999999984              -0.000091440              -0.001147175               0.999999984              -0.000055046              -0.001154494               0.999999984              -0.000016735              -0.001161012               0.999999984              -0.000300715              -0.001145078               0.999999984              -0.000206197              -0.001087967               0.999999984              -0.000172840              -0.001061608               0.999999984              -0.000163802              -0.001057011               0.999999984              -0.000164155              -0.001066331               0.999999984              -0.000167373              -0.001083906               0.999999984              -0.000170288              -0.001106060               0.999999984              -0.000170992              -0.001130277               0.999999984              -0.000168425              -0.001154893               0.999999984              -0.000161629              -0.001178592               0.999999984              -0.000150234              -0.001200884               0.999999984              -0.000134020              -0.001221233               0.999999984              -0.000112634              -0.001239441               0.999999984              -0.000086042              -0.001255444               0.999999984              -0.000054235              -0.001269490               0.999999984              -0.000017606              -0.001281960               0.999999984               0.000022782              -0.001293498               0.999999984              -0.000243954              -0.001203621               0.999999984              -0.000161230              -0.001170932               0.999999984              -0.000128966              -0.001153161               0.999999984              -0.000118384              -0.001150539               0.999999984              -0.000116904              -0.001159548               0.999999984              -0.000118678              -0.001176606               0.999999984              -0.000120943              -0.001198800               0.999999984              -0.000121910              -0.001223866               0.999999984              -0.000120391              -0.001250320               0.999999984              -0.000115435              -0.001276962               0.999999984              -0.000106558              -0.001302989               0.999999984              -0.000093284              -0.001327860               0.999999984              -0.000075274              -0.001351206               0.999999984              -0.000051899              -0.001372627               0.999999984              -0.000022561              -0.001392177               0.999999984               0.000012999              -0.001410032               0.999999984               0.000054797              -0.001426740               0.999999984              -0.000184897              -0.001250069               0.999999984              -0.000118831              -0.001239684               0.999999984              -0.000090739              -0.001231861               0.999999984              -0.000080170              -0.001233335               0.999999984              -0.000077468              -0.001243711               0.999999984              -0.000077909              -0.001261307               0.999999984              -0.000079197              -0.001284153               0.999999984              -0.000079980              -0.001310432               0.999999984              -0.000079093              -0.001338821               0.999999984              -0.000075676              -0.001368280               0.999999984              -0.000069101              -0.001398000               0.999999984              -0.000058967              -0.001427328               0.999999984              -0.000044698              -0.001455857               0.999999984              -0.000025599              -0.001483076               0.999999984              -0.000000579              -0.001508734               0.999999984               0.000031506              -0.001532641               0.999999984               0.000071719              -0.001554999               0.999999984              -0.000124175              -0.001283541               0.999999984              -0.000078305              -0.001291035               0.999999984              -0.000057447              -0.001292610               0.999999984              -0.000048820              -0.001298763               0.999999984              -0.000046031              -0.001311456               0.999999984              -0.000045699              -0.001330260               0.999999984              -0.000046184              -0.001354089               0.999999984              -0.000046574              -0.001381605               0.999999984              -0.000046083              -0.001411780               0.999999984              -0.000043971              -0.001443789               0.999999984              -0.000039695              -0.001476787               0.999999984              -0.000032755              -0.001510197               0.999999984              -0.000022755              -0.001543454               0.999999984              -0.000008998              -0.001576117               0.999999984               0.000009684              -0.001607787               0.999999984               0.000034700              -0.001637961               0.999999984               0.000067725              -0.001666219               0.999999984              -0.000062357              -0.001303800               0.999999984              -0.000038865              -0.001322733               0.999999984              -0.000027764              -0.001331002               0.999999984              -0.000022918              -0.001340802               0.999999984              -0.000021165              -0.001355544               0.999999984              -0.000020841              -0.001375615               0.999999984              -0.000020852              -0.001400391               0.999999984              -0.000020905              -0.001428957               0.999999984              -0.000020739              -0.001460422               0.999999984              -0.000019806              -0.001494199               0.999999984              -0.000017624              -0.001529555               0.999999984              -0.000014080              -0.001565854               0.999999984              -0.000008914              -0.001602638               0.999999984              -0.000001618              -0.001639404               0.999999984               0.000008489              -0.001675558               0.999999984               0.000022400              -0.001710484               0.999999984               0.000041306              -0.001743308               0.999999984              -0.000000000              -0.001310661               0.999999984              -0.000000000              -0.001333436               0.999999984               0.000000000              -0.001343991               0.999999984               0.000000000              -0.001355207               0.999999984              -0.000000000              -0.001370807               0.999999984               0.000000000              -0.001391431               0.999999984              -0.000000000              -0.001416637               0.999999984              -0.000000000              -0.001445579               0.999999984               0.000000000              -0.001477516               0.999999984              -0.000000000              -0.001512014               0.999999984              -0.000000000              -0.001548222               0.999999984              -0.000000000              -0.001585561               0.999999984              -0.000000000              -0.001623583               0.999999984              -0.000000000              -0.001661772               0.999999984               0.000000000              -0.001699569               0.999999984              -0.000000000              -0.001736215               0.999999984               0.000000000              -0.001770751               0.999999984               0.000662783               0.000000000               0.999999984               0.000711366              -0.000000000               0.999999984               0.000732489               0.000000000               0.999999984               0.000744184               0.000000000               0.999999984               0.000753241               0.000000000               0.999999984               0.000762311              -0.000000000               0.999999984               0.000772428              -0.000000000               0.999999984               0.000783726               0.000000000               0.999999984               0.000796081               0.000000000               0.999999984               0.000809197               0.000000000               0.999999984               0.000822902              -0.000000000               0.999999984               0.000837115              -0.000000000               0.999999984               0.000851713               0.000000000               0.999999984               0.000866314              -0.000000000               0.999999984               0.000880559               0.000000000               0.999999984               0.000893872               0.000000000               0.999999984               0.000905512               0.000000000               0.999999984               0.000659233              -0.000125463               0.999999984               0.000704223              -0.000102598               0.999999984               0.000723029              -0.000092745               0.999999984               0.000733235              -0.000089690               0.999999984               0.000741335              -0.000090121               0.999999984               0.000749712              -0.000092466               0.999999984               0.000759122              -0.000095701               0.999999984               0.000769759              -0.000099181               0.999999984               0.000781485              -0.000102464               0.999999984               0.000793934              -0.000105185               0.999999984               0.000806958              -0.000107253               0.999999984               0.000820290              -0.000108527               0.999999984               0.000833635              -0.000108625               0.999999984               0.000846769              -0.000107191               0.999999984               0.000859308              -0.000103519               0.999999984               0.000870852              -0.000097050               0.999999984               0.000880888              -0.000086618               0.999999984               0.000648264              -0.000249819               0.999999984               0.000682794              -0.000204630               0.999999984               0.000695262              -0.000186162               0.999999984               0.000701697              -0.000181004               0.999999984               0.000707406              -0.000182635               0.999999984               0.000714095              -0.000187760               0.999999984               0.000722158              -0.000194504               0.999999984               0.000731401              -0.000201631               0.999999984               0.000741565              -0.000208209               0.999999984               0.000752259              -0.000213693               0.999999984               0.000763058              -0.000217837               0.999999984               0.000773755              -0.000220274               0.999999984               0.000784076              -0.000220565               0.999999984               0.000793673              -0.000218102               0.999999984               0.000802281              -0.000211780               0.999999984               0.000809530              -0.000200641               0.999999984               0.000815101              -0.000183455               0.999999984               0.000630141              -0.000371916               0.999999984               0.000648392              -0.000305718               0.999999984               0.000651783              -0.000280609               0.999999984               0.000653160              -0.000274965               0.999999984               0.000656057              -0.000278895               0.999999984               0.000660891              -0.000287438               0.999999984               0.000667356              -0.000297954               0.999999984               0.000674880              -0.000308792               0.999999984               0.000682857              -0.000318578               0.999999984               0.000690820              -0.000326783               0.999999984               0.000698457              -0.000332874               0.999999984               0.000705340              -0.000336503               0.999999984               0.000711114              -0.000337243               0.999999984               0.000715501              -0.000334303               0.999999984               0.000718247              -0.000326483               0.999999984               0.000719190              -0.000312987               0.999999984               0.000718394              -0.000293276               0.999999984               0.000605496              -0.000490621               0.999999984               0.000602784              -0.000405568               0.999999984               0.000596029              -0.000376246               0.999999984               0.000592695              -0.000371793               0.999999984               0.000593244              -0.000378996               0.999999984               0.000596618              -0.000391375               0.999999984               0.000601684              -0.000405721               0.999999984               0.000607404              -0.000419919               0.999999984               0.000613001              -0.000432671               0.999999984               0.000617965              -0.000443134               0.999999984               0.000621652              -0.000450855               0.999999984               0.000623740              -0.000455476               0.999999984               0.000623871              -0.000456644               0.999999984               0.000621833              -0.000453477               0.999999984               0.000617546              -0.000445197               0.999999984               0.000611229              -0.000431686               0.999999984               0.000603373              -0.000413062               0.999999984               0.000574598              -0.000604847               0.999999984               0.000548167              -0.000504097               0.999999984               0.000532262              -0.000473041               0.999999984               0.000525628              -0.000471096               0.999999984               0.000525012              -0.000482045               0.999999984               0.000527812              -0.000498292               0.999999984               0.000531924              -0.000516035               0.999999984               0.000535942              -0.000533051               0.999999984               0.000538875              -0.000548033               0.999999984               0.000540033              -0.000560352               0.999999984               0.000538987              -0.000569387               0.999999984               0.000535471              -0.000574807               0.999999984               0.000529235              -0.000576139               0.999999984               0.000520160              -0.000572945               0.999999984               0.000508460              -0.000565041               0.999999984               0.000494792              -0.000552890               0.999999984               0.000479812              -0.000537451               0.999999984               0.000538031              -0.000713380               0.999999984               0.000487472              -0.000601256               0.999999984               0.000464655              -0.000570532               0.999999984               0.000456791              -0.000571732               0.999999984               0.000456645              -0.000586314               0.999999984               0.000459629              -0.000605998               0.999999984               0.000463090              -0.000626522               0.999999984               0.000465209              -0.000645703               0.999999984               0.000464913              -0.000662378               0.999999984               0.000461711              -0.000676016               0.999999984               0.000455206              -0.000686116               0.999999984               0.000445256              -0.000692050               0.999999984               0.000431821              -0.000693411               0.999999984               0.000415171              -0.000690376               0.999999984               0.000396016              -0.000683482               0.999999984               0.000375133              -0.000673671               0.999999984               0.000353207              -0.000661955               0.999999984               0.000496617              -0.000815019               0.999999984               0.000423568              -0.000696881               0.999999984               0.000397050              -0.000667718               0.999999984               0.000390516              -0.000671914               0.999999984               0.000391947              -0.000689682               0.999999984               0.000395539              -0.000712109               0.999999984               0.000398098              -0.000734973               0.999999984               0.000397736              -0.000755859               0.999999984               0.000393586              -0.000773739               0.999999984               0.000385204              -0.000788252               0.999999984               0.000372410              -0.000798859               0.999999984               0.000355182              -0.000804862               0.999999984               0.000333943              -0.000806253               0.999999984               0.000309547              -0.000803926               0.999999984               0.000282855              -0.000798754               0.999999984               0.000254733              -0.000791677               0.999999984               0.000225849              -0.000783691               0.999999984               0.000451721              -0.000907976               0.999999984               0.000358671              -0.000790782               0.999999984               0.000333023              -0.000763266               0.999999984               0.000329506              -0.000769900               0.999999984               0.000333223              -0.000790096               0.999999984               0.000337325              -0.000814766               0.999999984               0.000338316              -0.000839518               0.999999984               0.000334775              -0.000861833               0.999999984               0.000325891              -0.000880593               0.999999984               0.000311437              -0.000895426               0.999999984               0.000291356              -0.000905923               0.999999984               0.000266006              -0.000911827               0.999999984               0.000236459              -0.000913782               0.999999984               0.000203858              -0.000912843               0.999999984               0.000169383              -0.000910089               0.999999984               0.000134043              -0.000906299               0.999999984               0.000098328              -0.000902152               0.999999984               0.000405423              -0.000995729               0.999999984               0.000304892              -0.000894463               0.999999984               0.000276040              -0.000861894               0.999999984               0.000271398              -0.000862203               0.999999984               0.000274760              -0.000877480               0.999999984               0.000279323              -0.000899297               0.999999984               0.000281549              -0.000923034               0.999999984               0.000279954              -0.000946185               0.999999984               0.000273565              -0.000966996               0.999999984               0.000261898              -0.000985031               0.999999984               0.000244948              -0.000999837               0.999999984               0.000222645              -0.001011286               0.999999984               0.000195630              -0.001019295               0.999999984               0.000164498              -0.001024560               0.999999984               0.000130432              -0.001027663               0.999999984               0.000094544              -0.001029589               0.999999984               0.000057777              -0.001030812               0.999999984               0.000354699              -0.001075401               0.999999984               0.000254088              -0.000994518               0.999999984               0.000222114              -0.000962873               0.999999984               0.000215434              -0.000959109               0.999999984               0.000217581              -0.000970561               0.999999984               0.000221852              -0.000989860               0.999999984               0.000224777              -0.001012619               0.999999984               0.000224710              -0.001036272               0.999999984               0.000220494              -0.001058992               0.999999984               0.000211413              -0.001079845               0.999999984               0.000197323              -0.001098426               0.999999984               0.000178089              -0.001114406               0.999999984               0.000153732              -0.001127707               0.999999984               0.000124665              -0.001138488               0.999999984               0.000091440              -0.001147175               0.999999984               0.000055046              -0.001154494               0.999999984               0.000016735              -0.001161012               0.999999984               0.000300715              -0.001145078               0.999999984               0.000206197              -0.001087967               0.999999984               0.000172840              -0.001061608               0.999999984               0.000163802              -0.001057011               0.999999984               0.000164155              -0.001066331               0.999999984               0.000167373              -0.001083906               0.999999984               0.000170288              -0.001106060               0.999999984               0.000170992              -0.001130277               0.999999984               0.000168425              -0.001154893               0.999999984               0.000161629              -0.001178592               0.999999984               0.000150234              -0.001200884               0.999999984               0.000134020              -0.001221233               0.999999984               0.000112634              -0.001239441               0.999999984               0.000086042              -0.001255444               0.999999984               0.000054235              -0.001269490               0.999999984               0.000017606              -0.001281960               0.999999984              -0.000022782              -0.001293498               0.999999984               0.000243954              -0.001203621               0.999999984               0.000161230              -0.001170932               0.999999984               0.000128966              -0.001153161               0.999999984               0.000118384              -0.001150539               0.999999984               0.000116904              -0.001159548               0.999999984               0.000118678              -0.001176606               0.999999984               0.000120943              -0.001198800               0.999999984               0.000121910              -0.001223866               0.999999984               0.000120391              -0.001250320               0.999999984               0.000115435              -0.001276962               0.999999984               0.000106558              -0.001302989               0.999999984               0.000093284              -0.001327860               0.999999984               0.000075274              -0.001351206               0.999999984               0.000051899              -0.001372627               0.999999984               0.000022561              -0.001392177               0.999999984              -0.000012999              -0.001410032               0.999999984              -0.000054797              -0.001426740               0.999999984               0.000184897              -0.001250069               0.999999984               0.000118831              -0.001239684               0.999999984               0.000090739              -0.001231861               0.999999984               0.000080170              -0.001233335               0.999999984               0.000077468              -0.001243711               0.999999984               0.000077909              -0.001261307               0.999999984               0.000079197              -0.001284153               0.999999984               0.000079980              -0.001310432               0.999999984               0.000079093              -0.001338821               0.999999984               0.000075676              -0.001368280               0.999999984               0.000069101              -0.001398000               0.999999984               0.000058967              -0.001427328               0.999999984               0.000044698              -0.001455857               0.999999984               0.000025599              -0.001483076               0.999999984               0.000000579              -0.001508734               0.999999984              -0.000031506              -0.001532641               0.999999984              -0.000071719              -0.001554999               0.999999984               0.000124175              -0.001283541               0.999999984               0.000078305              -0.001291035               0.999999984               0.000057447              -0.001292610               0.999999984               0.000048820              -0.001298763               0.999999984               0.000046031              -0.001311456               0.999999984               0.000045699              -0.001330260               0.999999984               0.000046184              -0.001354089               0.999999984               0.000046574              -0.001381605               0.999999984               0.000046083              -0.001411780               0.999999984               0.000043971              -0.001443789               0.999999984               0.000039695              -0.001476787               0.999999984               0.000032755              -0.001510197               0.999999984               0.000022755              -0.001543454               0.999999984               0.000008998              -0.001576117               0.999999984              -0.000009684              -0.001607787               0.999999984              -0.000034700              -0.001637961               0.999999984              -0.000067725              -0.001666219               0.999999984               0.000062357              -0.001303800               0.999999984               0.000038865              -0.001322733               0.999999984               0.000027764              -0.001331002               0.999999984               0.000022918              -0.001340802               0.999999984               0.000021165              -0.001355544               0.999999984               0.000020841              -0.001375615               0.999999984               0.000020852              -0.001400391               0.999999984               0.000020905              -0.001428957               0.999999984               0.000020739              -0.001460422               0.999999984               0.000019806              -0.001494199               0.999999984               0.000017624              -0.001529555               0.999999984               0.000014080              -0.001565854               0.999999984               0.000008914              -0.001602638               0.999999984               0.000001618              -0.001639404               0.999999984              -0.000008489              -0.001675558               0.999999984              -0.000022400              -0.001710484               0.999999984              -0.000041306              -0.001743308               0.999999984              -0.000000000              -0.001310661               0.999999984              -0.000000000              -0.001333436               0.999999984               0.000000000              -0.001343991               0.999999984               0.000000000              -0.001355207               0.999999984              -0.000000000              -0.001370807               0.999999984               0.000000000              -0.001391431               0.999999984              -0.000000000              -0.001416637               0.999999984              -0.000000000              -0.001445579               0.999999984               0.000000000              -0.001477516               0.999999984              -0.000000000              -0.001512014               0.999999984              -0.000000000              -0.001548222               0.999999984              -0.000000000              -0.001585561               0.999999984              -0.000000000              -0.001623583               0.999999984              -0.000000000              -0.001661772               0.999999984               0.000000000              -0.001699569               0.999999984              -0.000000000              -0.001736215               0.999999984               0.000000000              -0.001770751               0.999999984               0.000662783               0.000000000               0.999999984               0.000711366              -0.000000000               0.999999984               0.000732489               0.000000000               0.999999984               0.000744184               0.000000000               0.999999984               0.000753241               0.000000000               0.999999984               0.000762311              -0.000000000               0.999999984               0.000772428              -0.000000000               0.999999984               0.000783726               0.000000000               0.999999984               0.000796081               0.000000000               0.999999984               0.000809197               0.000000000               0.999999984               0.000822902              -0.000000000               0.999999984               0.000837115              -0.000000000               0.999999984               0.000851713               0.000000000               0.999999984               0.000866314              -0.000000000               0.999999984               0.000880559               0.000000000               0.999999984               0.000893872               0.000000000               0.999999984               0.000905512               0.000000000               0.999999984               0.000659233               0.000125463               0.999999984               0.000704223               0.000102598               0.999999984               0.000723029               0.000092745               0.999999984               0.000733235               0.000089690               0.999999984               0.000741335               0.000090121               0.999999984               0.000749712               0.000092466               0.999999984               0.000759122               0.000095701               0.999999984               0.000769759               0.000099181               0.999999984               0.000781485               0.000102464               0.999999984               0.000793934               0.000105185               0.999999984               0.000806958               0.000107253               0.999999984               0.000820290               0.000108527               0.999999984               0.000833635               0.000108625               0.999999984               0.000846769               0.000107191               0.999999984               0.000859308               0.000103519               0.999999984               0.000870852               0.000097050               0.999999984               0.000880888               0.000086618               0.999999984               0.000648264               0.000249819               0.999999984               0.000682794               0.000204630               0.999999984               0.000695262               0.000186162               0.999999984               0.000701697               0.000181004               0.999999984               0.000707406               0.000182635               0.999999984               0.000714095               0.000187760               0.999999984               0.000722158               0.000194504               0.999999984               0.000731401               0.000201631               0.999999984               0.000741565               0.000208209               0.999999984               0.000752259               0.000213693               0.999999984               0.000763058               0.000217837               0.999999984               0.000773755               0.000220274               0.999999984               0.000784076               0.000220565               0.999999984               0.000793673               0.000218102               0.999999984               0.000802281               0.000211780               0.999999984               0.000809530               0.000200641               0.999999984               0.000815101               0.000183455               0.999999984               0.000630141               0.000371916               0.999999984               0.000648392               0.000305718               0.999999984               0.000651783               0.000280609               0.999999984               0.000653160               0.000274965               0.999999984               0.000656057               0.000278895               0.999999984               0.000660891               0.000287438               0.999999984               0.000667356               0.000297954               0.999999984               0.000674880               0.000308792               0.999999984               0.000682857               0.000318578               0.999999984               0.000690820               0.000326783               0.999999984               0.000698457               0.000332874               0.999999984               0.000705340               0.000336503               0.999999984               0.000711114               0.000337243               0.999999984               0.000715501               0.000334303               0.999999984               0.000718247               0.000326483               0.999999984               0.000719190               0.000312987               0.999999984               0.000718394               0.000293276               0.999999984               0.000605496               0.000490621               0.999999984               0.000602784               0.000405568               0.999999984               0.000596029               0.000376246               0.999999984               0.000592695               0.000371793               0.999999984               0.000593244               0.000378996               0.999999984               0.000596618               0.000391375               0.999999984               0.000601684               0.000405721               0.999999984               0.000607404               0.000419919               0.999999984               0.000613001               0.000432671               0.999999984               0.000617965               0.000443134               0.999999984               0.000621652               0.000450855               0.999999984               0.000623740               0.000455476               0.999999984               0.000623871               0.000456644               0.999999984               0.000621833               0.000453477               0.999999984               0.000617546               0.000445197               0.999999984               0.000611229               0.000431686               0.999999984               0.000603373               0.000413062               0.999999984               0.000574598               0.000604847               0.999999984               0.000548167               0.000504097               0.999999984               0.000532262               0.000473041               0.999999984               0.000525628               0.000471096               0.999999984               0.000525012               0.000482045               0.999999984               0.000527812               0.000498292               0.999999984               0.000531924               0.000516035               0.999999984               0.000535942               0.000533051               0.999999984               0.000538875               0.000548033               0.999999984               0.000540033               0.000560352               0.999999984               0.000538987               0.000569387               0.999999984               0.000535471               0.000574807               0.999999984               0.000529235               0.000576139               0.999999984               0.000520160               0.000572945               0.999999984               0.000508460               0.000565041               0.999999984               0.000494792               0.000552890               0.999999984               0.000479812               0.000537451               0.999999984               0.000538031               0.000713380               0.999999984               0.000487472               0.000601256               0.999999984               0.000464655               0.000570532               0.999999984               0.000456791               0.000571732               0.999999984               0.000456645               0.000586314               0.999999984               0.000459629               0.000605998               0.999999984               0.000463090               0.000626522               0.999999984               0.000465209               0.000645703               0.999999984               0.000464913               0.000662378               0.999999984               0.000461711               0.000676016               0.999999984               0.000455206               0.000686116               0.999999984               0.000445256               0.000692050               0.999999984               0.000431821               0.000693411               0.999999984               0.000415171               0.000690376               0.999999984               0.000396016               0.000683482               0.999999984               0.000375133               0.000673671               0.999999984               0.000353207               0.000661955               0.999999984               0.000496617               0.000815019               0.999999984               0.000423568               0.000696881               0.999999984               0.000397050               0.000667718               0.999999984               0.000390516               0.000671914               0.999999984               0.000391947               0.000689682               0.999999984               0.000395539               0.000712109               0.999999984               0.000398098               0.000734973               0.999999984               0.000397736               0.000755859               0.999999984               0.000393586               0.000773739               0.999999984               0.000385204               0.000788252               0.999999984               0.000372410               0.000798859               0.999999984               0.000355182               0.000804862               0.999999984               0.000333943               0.000806253               0.999999984               0.000309547               0.000803926               0.999999984               0.000282855               0.000798754               0.999999984               0.000254733               0.000791677               0.999999984               0.000225849               0.000783691               0.999999984               0.000451721               0.000907976               0.999999984               0.000358671               0.000790782               0.999999984               0.000333023               0.000763266               0.999999984               0.000329506               0.000769900               0.999999984               0.000333223               0.000790096               0.999999984               0.000337325               0.000814766               0.999999984               0.000338316               0.000839518               0.999999984               0.000334775               0.000861833               0.999999984               0.000325891               0.000880593               0.999999984               0.000311437               0.000895426               0.999999984               0.000291356               0.000905923               0.999999984               0.000266006               0.000911827               0.999999984               0.000236459               0.000913782               0.999999984               0.000203858               0.000912843               0.999999984               0.000169383               0.000910089               0.999999984               0.000134043               0.000906299               0.999999984               0.000098328               0.000902152               0.999999984               0.000405423               0.000995729               0.999999984               0.000304892               0.000894463               0.999999984               0.000276040               0.000861894               0.999999984               0.000271398               0.000862203               0.999999984               0.000274760               0.000877480               0.999999984               0.000279323               0.000899297               0.999999984               0.000281549               0.000923034               0.999999984               0.000279954               0.000946185               0.999999984               0.000273565               0.000966996               0.999999984               0.000261898               0.000985031               0.999999984               0.000244948               0.000999837               0.999999984               0.000222645               0.001011286               0.999999984               0.000195630               0.001019295               0.999999984               0.000164498               0.001024560               0.999999984               0.000130432               0.001027663               0.999999984               0.000094544               0.001029589               0.999999984               0.000057777               0.001030812               0.999999984               0.000354699               0.001075401               0.999999984               0.000254088               0.000994518               0.999999984               0.000222114               0.000962873               0.999999984               0.000215434               0.000959109               0.999999984               0.000217581               0.000970561               0.999999984               0.000221852               0.000989860               0.999999984               0.000224777               0.001012619               0.999999984               0.000224710               0.001036272               0.999999984               0.000220494               0.001058992               0.999999984               0.000211413               0.001079845               0.999999984               0.000197323               0.001098426               0.999999984               0.000178089               0.001114406               0.999999984               0.000153732               0.001127707               0.999999984               0.000124665               0.001138488               0.999999984               0.000091440               0.001147175               0.999999984               0.000055046               0.001154494               0.999999984               0.000016735               0.001161012               0.999999984               0.000300715               0.001145078               0.999999984               0.000206197               0.001087967               0.999999984               0.000172840               0.001061608               0.999999984               0.000163802               0.001057011               0.999999984               0.000164155               0.001066331               0.999999984               0.000167373               0.001083906               0.999999984               0.000170288               0.001106060               0.999999984               0.000170992               0.001130277               0.999999984               0.000168425               0.001154893               0.999999984               0.000161629               0.001178592               0.999999984               0.000150234               0.001200884               0.999999984               0.000134020               0.001221233               0.999999984               0.000112634               0.001239441               0.999999984               0.000086042               0.001255444               0.999999984               0.000054235               0.001269490               0.999999984               0.000017606               0.001281960               0.999999984              -0.000022782               0.001293498               0.999999984               0.000243954               0.001203621               0.999999984               0.000161230               0.001170932               0.999999984               0.000128966               0.001153161               0.999999984               0.000118384               0.001150539               0.999999984               0.000116904               0.001159548               0.999999984               0.000118678               0.001176606               0.999999984               0.000120943               0.001198800               0.999999984               0.000121910               0.001223866               0.999999984               0.000120391               0.001250320               0.999999984               0.000115435               0.001276962               0.999999984               0.000106558               0.001302989               0.999999984               0.000093284               0.001327860               0.999999984               0.000075274               0.001351206               0.999999984               0.000051899               0.001372627               0.999999984               0.000022561               0.001392177               0.999999984              -0.000012999               0.001410032               0.999999984              -0.000054797               0.001426740               0.999999984               0.000184897               0.001250069               0.999999984               0.000118831               0.001239684               0.999999984               0.000090739               0.001231861               0.999999984               0.000080170               0.001233335               0.999999984               0.000077468               0.001243711               0.999999984               0.000077909               0.001261307               0.999999984               0.000079197               0.001284153               0.999999984               0.000079980               0.001310432               0.999999984               0.000079093               0.001338821               0.999999984               0.000075676               0.001368280               0.999999984               0.000069101               0.001398000               0.999999984               0.000058967               0.001427328               0.999999984               0.000044698               0.001455857               0.999999984               0.000025599               0.001483076               0.999999984               0.000000579               0.001508734               0.999999984              -0.000031506               0.001532641               0.999999984              -0.000071719               0.001554999               0.999999984               0.000124175               0.001283541               0.999999984               0.000078305               0.001291035               0.999999984               0.000057447               0.001292610               0.999999984               0.000048820               0.001298763               0.999999984               0.000046031               0.001311456               0.999999984               0.000045699               0.001330260               0.999999984               0.000046184               0.001354089               0.999999984               0.000046574               0.001381605               0.999999984               0.000046083               0.001411780               0.999999984               0.000043971               0.001443789               0.999999984               0.000039695               0.001476787               0.999999984               0.000032755               0.001510197               0.999999984               0.000022755               0.001543454               0.999999984               0.000008998               0.001576117               0.999999984              -0.000009684               0.001607787               0.999999984              -0.000034700               0.001637961               0.999999984              -0.000067725               0.001666219               0.999999984               0.000062357               0.001303800               0.999999984               0.000038865               0.001322733               0.999999984               0.000027764               0.001331002               0.999999984               0.000022918               0.001340802               0.999999984               0.000021165               0.001355544               0.999999984               0.000020841               0.001375615               0.999999984               0.000020852               0.001400391               0.999999984               0.000020905               0.001428957               0.999999984               0.000020739               0.001460422               0.999999984               0.000019806               0.001494199               0.999999984               0.000017624               0.001529555               0.999999984               0.000014080               0.001565854               0.999999984               0.000008914               0.001602638               0.999999984               0.000001618               0.001639404               0.999999984              -0.000008489               0.001675558               0.999999984              -0.000022400               0.001710484               0.999999984              -0.000041306               0.001743308               0.999999984              -0.000000000               0.001310661               0.999999984               0.000000000               0.001333436               0.999999984               0.000000000               0.001343991               0.999999984              -0.000000000               0.001355207               0.999999984              -0.000000000               0.001370807               0.999999984              -0.000000000               0.001391431               0.999999984               0.000000000               0.001416637               0.999999984               0.000000000               0.001445579               0.999999984              -0.000000000               0.001477516               0.999999984               0.000000000               0.001512014               0.999999984               0.000000000               0.001548222               0.999999984              -0.000000000               0.001585561               0.999999984               0.000000000               0.001623583               0.999999984               0.000000000               0.001661772               0.999999984               0.000000000               0.001699569               0.999999984              -0.000000000               0.001736215               0.999999984               0.000000000               0.001770751               0.999999984 </DataArray>
<DataArray type="Float64"                                    Name="defo"                                                      NumberOfComponents=" 3" format="ascii">
             -0.000662783              -0.000000000               0.999999984              -0.000711366               0.000000000               0.999999984              -0.000732489              -0.000000000               0.999999984              -0.000744184               0.000000000               0.999999984              -0.000753241               0.000000000               0.999999984              -0.000762311               0.000000000               0.999999984              -0.000772428               0.000000000               0.999999984              -0.000783726               0.000000000               0.999999984              -0.000796081              -0.000000000               0.999999984              -0.000809197               0.000000000               0.999999984              -0.000822902              -0.000000000               0.999999984              -0.000837115              -0.000000000               0.999999984              -0.000851713              -0.000000000               0.999999984              -0.000866314               0.000000000               0.999999984              -0.000880559              -0.000000000               0.999999984              -0.000893872               0.000000000               0.999999984              -0.000905512              -0.000000000               0.999999984              -0.000659233               0.000125463               0.999999984              -0.000704223               0.000102598               0.999999984              -0.000723029               0.000092745               0.999999984              -0.000733235               0.000089690               0.999999984              -0.000741335               0.000090121               0.999999984              -0.000749712               0.000092466               0.999999984              -0.000759122               0.000095701               0.999999984              -0.000769759               0.000099181               0.999999984              -0.000781485               0.000102464               0.999999984              -0.000793934               0.000105185               0.999999984              -0.000806958               0.000107253               0.999999984              -0.000820290               0.000108527               0.999999984              -0.000833635               0.000108625               0.999999984              -0.000846769               0.000107191               0.999999984              -0.000859308               0.000103519               0.999999984              -0.000870852               0.000097050               0.999999984              -0.000880888               0.000086618               0.999999984              -0.000648264               0.000249819               0.999999984              -0.000682794               0.000204630               0.999999984              -0.000695262               0.000186162               0.999999984              -0.000701697               0.000181004               0.999999984              -0.000707406               0.000182635               0.999999984              -0.000714095               0.000187760               0.999999984              -0.000722158               0.000194504               0.999999984              -0.000731401               0.000201631               0.999999984              -0.000741565               0.000208209               0.999999984              -0.000752259               0.000213693               0.999999984              -0.000763058               0.000217837               0.999999984              -0.000773755               0.000220274               0.999999984              -0.000784076               0.000220565               0.999999984              -0.000793673               0.000218102               0.999999984              -0.000802281               0.000211780               0.999999984              -0.000809530               0.000200641               0.999999984              -0.000815101               0.000183455               0.999999984              -0.000630141               0.000371916               0.999999984              -0.000648392               0.000305718               0.999999984              -0.000651783               0.000280609               0.999999984              -0.000653160               0.000274965               0.999999984              -0.000656057               0.000278895               0.999999984              -0.000660891               0.000287438               0.999999984              -0.000667356               0.000297954               0.999999984              -0.000674880               0.000308792               0.999999984              -0.000682857               0.000318578               0.999999984              -0.000690820               0.000326783               0.999999984              -0.000698457               0.000332874               0.999999984              -0.000705340               0.000336503               0.999999984              -0.000711114               0.000337243               0.999999984              -0.000715501               0.000334303               0.999999984              -0.000718247               0.000326483               0.999999984              -0.000719190               0.000312987               0.999999984              -0.000718394               0.000293276               0.999999984              -0.000605496               0.000490621               0.999999984              -0.000602784               0.000405568               0.999999984              -0.000596029               0.000376246               0.999999984              -0.000592695               0.000371793               0.999999984              -0.000593244               0.000378996               0.999999984              -0.000596618               0.000391375               0.999999984              -0.000601684               0.000405721               0.999999984              -0.000607404               0.000419919               0.999999984              -0.000613001               0.000432671               0.999999984              -0.000617965               0.000443134               0.999999984              -0.000621652               0.000450855               0.999999984              -0.000623740               0.000455476               0.999999984              -0.000623871               0.000456644               0.999999984              -0.000621833               0.000453477               0.999999984              -0.000617546               0.000445197               0.999999984              -0.000611229               0.000431686               0.999999984              -0.000603373               0.000413062               0.999999984              -0.000574598               0.000604847               0.999999984              -0.000548167               0.000504097               0.999999984              -0.000532262               0.000473041               0.999999984              -0.000525628               0.000471096               0.999999984              -0.000525012               0.000482045               0.999999984              -0.000527812               0.000498292               0.999999984              -0.000531924               0.000516035               0.999999984              -0.000535942               0.000533051               0.999999984              -0.000538875               0.000548033               0.999999984              -0.000540033               0.000560352               0.999999984              -0.000538987               0.000569387               0.999999984              -0.000535471               0.000574807               0.999999984              -0.000529235               0.000576139               0.999999984              -0.000520160               0.000572945               0.999999984              -0.000508460               0.000565041               0.999999984              -0.000494792               0.000552890               0.999999984              -0.000479812               0.000537451               0.999999984              -0.000538031               0.000713380               0.999999984              -0.000487472               0.000601256               0.999999984              -0.000464655               0.000570532               0.999999984              -0.000456791               0.000571732               0.999999984              -0.000456645               0.000586314               0.999999984              -0.000459629               0.000605998               0.999999984              -0.000463090               0.000626522               0.999999984              -0.000465209               0.000645703               0.999999984              -0.000464913               0.000662378               0.999999984              -0.000461711               0.000676016               0.999999984              -0.000455206               0.000686116               0.999999984              -0.000445256               0.000692050               0.999999984              -0.000431821               0.000693411               0.999999984              -0.000415171               0.000690376               0.999999984              -0.000396016               0.000683482               0.999999984              -0.000375133               0.000673671               0.999999984              -0.000353207               0.000661955               0.999999984              -0.000496617               0.000815019               0.999999984              -0.000423568               0.000696881               0.999999984              -0.000397050               0.000667718               0.999999984              -0.000390516               0.000671914               0.999999984              -0.000391947               0.000689682               0.999999984              -0.000395539               0.000712109               0.999999984              -0.000398098               0.000734973               0.999999984              -0.000397736               0.000755859               0.999999984              -0.000393586               0.000773739               0.999999984              -0.000385204               0.000788252               0.999999984              -0.000372410               0.000798859               0.999999984              -0.000355182               0.000804862               0.999999984              -0.000333943               0.000806253               0.999999984              -0.000309547               0.000803926               0.999999984              -0.000282855               0.000798754               0.999999984              -0.000254733               0.000791677               0.999999984              -0.000225849               0.000783691               0.999999984              -0.000451721               0.000907976               0.999999984              -0.000358671               0.000790782               0.999999984              -0.000333023               0.000763266               0.999999984              -0.000329506               0.000769900               0.999999984              -0.000333223               0.000790096               0.999999984              -0.000337325               0.000814766               0.999999984              -0.000338316               0.000839518               0.999999984              -0.000334775               0.000861833               0.999999984              -0.000325891               0.000880593               0.999999984              -0.000311437               0.000895426               0.999999984              -0.000291356               0.000905923               0.999999984              -0.000266006               0.000911827               0.999999984              -0.000236459               0.000913782               0.999999984              -0.000203858               0.000912843               0.999999984              -0.000169383               0.000910089               0.999999984              -0.000134043               0.000906299               0.999999984              -0.000098328               0.000902152               0.999999984              -0.000405423               0.000995729               0.999999984              -0.000304892               0.000894463               0.999999984              -0.000276040               0.000861894               0.999999984              -0.000271398               0.000862203               0.999999984              -0.000274760               0.000877480               0.999999984              -0.000279323               0.000899297               0.999999984              -0.000281549               0.000923034               0.999999984              -0.000279954               0.000946185               0.999999984              -0.000273565               0.000966996               0.999999984              -0.000261898               0.000985031               0.999999984              -0.000244948               0.000999837               0.999999984              -0.000222645               0.001011286               0.999999984              -0.000195630               0.001019295               0.999999984              -0.000164498               0.001024560               0.999999984              -0.000130432               0.001027663               0.999999984              -0.000094544               0.001029589               0.999999984              -0.000057777               0.001030812               0.999999984              -0.000354699               0.001075401               0.999999984              -0.000254088               0.000994518               0.999999984              -0.000222114               0.000962873               0.999999984              -0.000215434               0.000959109               0.999999984              -0.000217581               0.000970561               0.999999984              -0.000221852               0.000989860               0.999999984              -0.000224777               0.001012619               0.999999984              -0.000224710               0.001036272               0.999999984              -0.000220494               0.001058992               0.999999984              -0.000211413               0.001079845               0.999999984              -0.000197323               0.001098426               0.999999984              -0.000178089               0.001114406               0.999999984              -0.000153732               0.001127707               0.999999984              -0.000124665               0.001138488               0.999999984              -0.000091440               0.001147175               0.999999984              -0.000055046               0.001154494               0.999999984              -0.000016735               0.001161012               0.999999984              -0.000300715               0.001145078               0.999999984              -0.000206197               0.001087967               0.999999984              -0.000172840               0.001061608               0.999999984              -0.000163802               0.001057011               0.999999984              -0.000164155               0.001066331               0.999999984              -0.000167373               0.001083906               0.999999984              -0.000170288               0.001106060               0.999999984              -0.000170992               0.001130277               0.999999984              -0.000168425               0.001154893               0.999999984              -0.000161629               0.001178592               0.999999984              -0.000150234               0.001200884               0.999999984              -0.000134020               0.001221233               0.999999984              -0.000112634               0.001239441               0.999999984              -0.000086042               0.001255444               0.999999984              -0.000054235               0.001269490               0.999999984              -0.000017606               0.001281960               0.999999984               0.000022782               0.001293498               0.999999984              -0.000243954               0.001203621               0.999999984              -0.000161230               0.001170932               0.999999984              -0.000128966               0.001153161               0.999999984              -0.000118384               0.001150539               0.999999984              -0.000116904               0.001159548               0.999999984              -0.000118678               0.001176606               0.999999984              -0.000120943               0.001198800               0.999999984              -0.000121910               0.001223866               0.999999984              -0.000120391               0.001250320               0.999999984              -0.000115435               0.001276962               0.999999984              -0.000106558               0.001302989               0.999999984              -0.000093284               0.001327860               0.999999984              -0.000075274               0.001351206               0.999999984              -0.000051899               0.001372627               0.999999984              -0.000022561               0.001392177               0.999999984               0.000012999               0.001410032               0.999999984               0.000054797               0.001426740               0.999999984              -0.000184897               0.001250069               0.999999984              -0.000118831               0.001239684               0.999999984              -0.000090739               0.001231861               0.999999984              -0.000080170               0.001233335               0.999999984              -0.000077468               0.001243711               0.999999984              -0.000077909               0.001261307               0.999999984              -0.000079197               0.001284153               0.999999984              -0.000079980               0.001310432               0.999999984              -0.000079093               0.001338821               0.999999984              -0.000075676               0.001368280               0.999999984              -0.000069101               0.001398000               0.999999984              -0.000058967               0.001427328               0.999999984              -0.000044698               0.001455857               0.999999984              -0.000025599               0.001483076               0.999999984              -0.000000579               0.001508734               0.999999984               0.000031506               0.001532641               0.999999984               0.000071719               0.001554999               0.999999984              -0.000124175               0.001283541               0.999999984              -0.000078305               0.001291035               0.999999984              -0.000057447               0.001292610               0.999999984              -0.000048820               0.001298763               0.999999984              -0.000046031               0.001311456               0.999999984              -0.000045699               0.001330260               0.999999984              -0.000046184               0.001354089               0.999999984              -0.000046574               0.001381605               0.999999984              -0.000046083               0.001411780               0.999999984              -0.000043971               0.001443789               0.999999984              -0.000039695               0.001476787               0.999999984              -0.000032755               0.001510197               0.999999984              -0.000022755               0.001543454               0.999999984              -0.000008998               0.001576117               0.999999984               0.000009684               0.001607787               0.999999984               0.000034700               0.001637961               0.999999984               0.000067725               0.001666219               0.999999984              -0.000062357               0.001303800               0.999999984              -0.000038865               0.001322733               0.999999984              -0.000027764               0.001331002               0.999999984              -0.000022918               0.001340802               0.999999984              -0.000021165               0.001355544               0.999999984              -0.000020841               0.001375615               0.999999984              -0.000020852               0.001400391               0.999999984              -0.000020905               0.001428957               0.999999984              -0.000020739               0.001460422               0.999999984              -0.000019806               0.001494199               0.999999984              -0.000017624               0.001529555               0.999999984              -0.000014080               0.001565854               0.999999984              -0.000008914               0.001602638               0.999999984              -0.000001618               0.001639404               0.999999984               0.000008489               0.001675558               0.999999984               0.000022400               0.001710484               0.999999984               0.000041306               0.001743308               0.999999984              -0.000000000               0.001310661               0.999999984               0.000000000               0.001333436               0.999999984               0.000000000               0.001343991               0.999999984              -0.000000000               0.001355207               0.999999984              -0.000000000               0.001370807               0.999999984              -0.000000000               0.001391431               0.999999984               0.000000000               0.001416637               0.999999984               0.000000000               0.001445579               0.999999984              -0.000000000               0.001477516               0.999999984               0.000000000               0.001512014               0.999999984               0.000000000               0.001548222               0.999999984              -0.000000000               0.001585561               0.999999984               0.000000000               0.001623583               0.999999984               0.000000000               0.001661772               0.999999984               0.000000000               0.001699569               0.999999984              -0.000000000               0.001736215               0.999999984               0.000000000               0.001770751               0.999999984              -0.000662783              -0.000000000               0.999999984              -0.000711366               0.000000000               0.999999984              -0.000732489              -0.000000000               0.999999984              -0.000744184               0.000000000               0.999999984              -0.000753241               0.000000000               0.999999984              -0.000762311               0.000000000               0.999999984              -0.000772428               0.000000000               0.999999984              -0.000783726               0.000000000               0.999999984              -0.000796081              -0.000000000               0.999999984              -0.000809197               0.000000000               0.999999984              -0.000822902              -0.000000000               0.999999984              -0.000837115              -0.000000000               0.999999984              -0.000851713              -0.000000000               0.999999984              -0.000866314               0.000000000               0.999999984              -0.000880559              -0.000000000               0.999999984              -0.000893872               0.000000000               0.999999984              -0.000905512              -0.000000000               0.999999984              -0.000659233              -0.000125463               0.999999984              -0.000704223              -0.000102598               0.999999984              -0.000723029              -0.000092745               0.999999984              -0.000733235              -0.000089690               0.999999984              -0.000741335              -0.000090121               0.999999984              -0.000749712              -0.000092466               0.999999984              -0.000759122              -0.000095701               0.999999984              -0.000769759              -0.000099181               0.999999984              -0.000781485              -0.000102464               0.999999984              -0.000793934              -0.000105185               0.999999984              -0.000806958              -0.000107253               0.999999984              -0.000820290              -0.000108527               0.999999984              -0.000833635              -0.000108625               0.999999984              -0.000846769              -0.000107191               0.999999984              -0.000859308              -0.000103519               0.999999984              -0.000870852              -0.000097050               0.999999984              -0.000880888              -0.000086618               0.999999984              -0.000648264              -0.000249819               0.999999984              -0.000682794              -0.000204630               0.999999984              -0.000695262              -0.000186162               0.999999984              -0.000701697              -0.000181004               0.999999984              -0.000707406              -0.000182635               0.999999984              -0.000714095              -0.000187760               0.999999984              -0.000722158              -0.000194504               0.999999984              -0.000731401              -0.000201631               0.999999984              -0.000741565              -0.000208209               0.999999984              -0.000752259              -0.000213693               0.999999984              -0.000763058              -0.000217837               0.999999984              -0.000773755              -0.000220274               0.999999984              -0.000784076              -0.000220565               0.999999984              -0.000793673              -0.000218102               0.999999984              -0.000802281              -0.000211780               0.999999984              -0.000809530              -0.000200641               0.999999984              -0.000815101              -0.000183455               0.999999984              -0.000630141              -0.000371916               0.999999984              -0.000648392              -0.000305718               0.999999984              -0.000651783              -0.000280609               0.999999984              -0.000653160              -0.000274965               0.999999984              -0.000656057              -0.000278895               0.999999984              -0.000660891              -0.000287438               0.999999984              -0.000667356              -0.000297954               0.999999984              -0.000674880              -0.000308792               0.999999984              -0.000682857              -0.000318578               0.999999984              -0.000690820              -0.000326783               0.999999984              -0.000698457              -0.000332874               0.999999984              -0.000705340              -0.000336503               0.999999984              -0.000711114              -0.000337243               0.999999984              -0.000715501              -0.000334303               0.999999984              -0.000718247              -0.000326483               0.999999984              -0.000719190              -0.000312987               0.999999984              -0.000718394              -0.000293276               0.999999984              -0.000605496              -0.000490621               0.999999984              -0.000602784              -0.000405568               0.999999984              -0.000596029              -0.000376246               0.999999984              -0.000592695              -0.000371793               0.999999984              -0.000593244              -0.000378996               0.999999984              -0.000596618              -0.000391375               0.999999984              -0.000601684              -0.000405721               0.999999984              -0.000607404              -0.000419919               0.999999984              -0.000613001              -0.000432671               0.999999984              -0.000617965              -0.000443134               0.999999984              -0.000621652              -0.000450855               0.999999984              -0.000623740              -0.000455476               0.999999984              -0.000623871              -0.000456644               0.999999984              -0.000621833              -0.000453477               0.999999984              -0.000617546              -0.000445197               0.999999984              -0.000611229              -0.000431686               0.999999984              -0.000603373              -0.000413062               0.999999984              -0.000574598              -0.000604847               0.999999984              -0.000548167              -0.000504097               0.999999984              -0.000532262              -0.000473041               0.999999984              -0.000525628              -0.000471096               0.999999984              -0.000525012              -0.000482045               0.999999984              -0.000527812              -0.000498292               0.999999984              -0.000531924              -0.000516035               0.999999984              -0.000535942              -0.000533051               0.999999984              -0.000538875              -0.000548033               0.999999984              -0.000540033              -0.000560352               0.999999984              -0.000538987              -0.000569387               0.999999984              -0.000535471              -0.000574807               0.999999984              -0.000529235              -0.000576139               0.999999984              -0.000520160              -0.000572945               0.999999984              -0.000508460              -0.000565041               0.999999984              -0.000494792              -0.000552890               0.999999984              -0.000479812              -0.000537451               0.999999984              -0.000538031              -0.000713380               0.999999984              -0.000487472              -0.000601256               0.999999984              -0.000464655              -0.000570532               0.999999984              -0.000456791              -0.000571732               0.999999984              -0.000456645              -0.000586314               0.999999984              -0.000459629              -0.000605998               0.999999984              -0.000463090              -0.000626522               0.999999984              -0.000465209              -0.000645703               0.999999984              -0.000464913              -0.000662378               0.999999984              -0.000461711              -0.000676016               0.999999984              -0.000455206              -0.000686116               0.999999984              -0.000445256              -0.000692050               0.999999984              -0.000431821              -0.000693411               0.999999984              -0.000415171              -0.000690376               0.999999984              -0.000396016              -0.000683482               0.999999984              -0.000375133              -0.000673671               0.999999984              -0.000353207              -0.000661955               0.999999984              -0.000496617              -0.000815019               0.999999984              -0.000423568              -0.000696881               0.999999984              -0.000397050              -0.000667718               0.999999984              -0.000390516              -0.000671914               0.999999984              -0.000391947              -0.000689682               0.999999984              -0.000395539              -0.000712109               0.999999984              -0.000398098              -0.000734973               0.999999984              -0.000397736              -0.000755859               0.999999984              -0.000393586              -0.000773739               0.999999984              -0.000385204              -0.000788252               0.999999984              -0.000372410              -0.000798859               0.999999984              -0.000355182              -0.000804862               0.999999984              -0.000333943              -0.000806253               0.999999984              -0.000309547              -0.000803926               0.999999984              -0.000282855              -0.000798754               0.999999984              -0.000254733              -0.000791677               0.999999984              -0.000225849              -0.000783691               0.999999984              -0.000451721              -0.000907976               0.999999984              -0.000358671              -0.000790782               0.999999984              -0.000333023              -0.000763266               0.999999984              -0.000329506              -0.000769900               0.999999984              -0.000333223              -0.000790096               0.999999984              -0.000337325              -0.000814766               0.999999984              -0.000338316              -0.000839518               0.999999984              -0.000334775              -0.000861833               0.999999984              -0.000325891              -0.000880593               0.999999984              -0.000311437              -0.000895426               0.999999984              -0.000291356              -0.000905923               0.999999984              -0.000266006              -0.000911827               0.999999984              -0.000236459              -0.000913782               0.999999984              -0.000203858              -0.000912843               0.999999984              -0.000169383              -0.000910089               0.999999984              -0.000134043              -0.000906299               0.999999984              -0.000098328              -0.000902152               0.999999984              -0.000405423              -0.000995729               0.999999984              -0.000304892              -0.000894463               0.999999984              -0.000276040              -0.000861894               0.999999984              -0.000271398              -0.000862203               0.999999984              -0.000274760              -0.000877480               0.999999984              -0.000279323              -0.000899297               0.999999984              -0.000281549              -0.000923034               0.999999984              -0.000279954              -0.000946185               0.999999984              -0.000273565              -0.000966996               0.999999984              -0.000261898              -0.000985031               0.999999984              -0.000244948              -0.000999837               0.999999984              -0.000222645              -0.001011286               0.999999984              -0.000195630              -0.001019295               0.999999984              -0.000164498              -0.001024560               0.999999984              -0.000130432              -0.001027663               0.999999984              -0.000094544              -0.001029589               0.999999984              -0.000057777              -0.001030812               0.999999984              -0.000354699              -0.001075401               0.999999984              -0.000254088              -0.000994518               0.999999984              -0.000222114              -0.000962873               0.999999984              -0.000215434              -0.000959109               0.999999984              -0.000217581              -0.000970561               0.999999984              -0.000221852              -0.000989860               0.999999984              -0.000224777              -0.001012619               0.999999984              -0.000224710              -0.001036272               0.999999984              -0.000220494              -0.001058992               0.999999984              -0.000211413              -0.001079845               0.999999984              -0.000197323              -0.001098426               0.999999984              -0.000178089              -0.001114406               0.999999984              -0.000153732              -0.001127707               0.999999984              -0.000124665              -0.001138488               0.999999984              -0.000091440              -0.001147175               0.999999984              -0.000055046              -0.001154494               0.999999984              -0.000016735              -0.001161012               0.999999984              -0.000300715              -0.001145078               0.999999984              -0.000206197              -0.001087967               0.999999984              -0.000172840              -0.001061608               0.999999984              -0.000163802              -0.001057011               0.999999984              -0.000164155              -0.001066331               0.999999984              -0.000167373              -0.001083906               0.999999984              -0.000170288              -0.001106060               0.999999984              -0.000170992              -0.001130277               0.999999984              -0.000168425              -0.001154893               0.999999984              -0.000161629              -0.001178592               0.999999984              -0.000150234              -0.001200884               0.999999984              -0.000134020              -0.001221233               0.999999984              -0.000112634              -0.001239441               0.999999984              -0.000086042              -0.001255444               0.999999984              -0.000054235              -0.001269490               0.999999984              -0.000017606              -0.001281960               0.999999984               0.000022782              -0.001293498               0.999999984              -0.000243954              -0.001203621               0.999999984              -0.000161230              -0.001170932               0.999999984              -0.000128966              -0.001153161               0.999999984              -0.000118384              -0.001150539               0.999999984              -0.000116904              -0.001159548               0.999999984              -0.000118678              -0.001176606               0.999999984              -0.000120943              -0.001198800               0.999999984              -0.000121910              -0.001223866               0.999999984              -0.000120391              -0.001250320               0.999999984              -0.000115435              -0.001276962               0.999999984              -0.000106558              -0.001302989               0.999999984              -0.000093284              -0.001327860               0.999999984              -0.000075274              -0.001351206               0.999999984              -0.000051899              -0.001372627               0.999999984              -0.000022561              -0.001392177               0.999999984               0.000012999              -0.001410032               0.999999984               0.000054797              -0.001426740               0.999999984              -0.000184897              -0.001250069               0.999999984              -0.000118831              -0.001239684               0.999999984              -0.000090739              -0.001231861               0.999999984              -0.000080170              -0.001233335               0.999999984              -0.000077468              -0.001243711               0.999999984              -0.000077909              -0.001261307               0.999999984              -0.000079197              -0.001284153               0.999999984              -0.000079980              -0.001310432               0.999999984              -0.000079093              -0.001338821               0.999999984              -0.000075676              -0.001368280               0.999999984              -0.000069101              -0.001398000               0.999999984              -0.000058967              -0.001427328               0.999999984              -0.000044698              -0.001455857               0.999999984              -0.000025599              -0.001483076               0.999999984              -0.000000579              -0.001508734               0.999999984               0.000031506              -0.001532641               0.999999984               0.000071719              -0.001554999               0.999999984              -0.000124175              -0.001283541               0.999999984              -0.000078305              -0.001291035               0.999999984              -0.000057447              -0.001292610               0.999999984              -0.000048820              -0.001298763               0.999999984              -0.000046031              -0.001311456               0.999999984              -0.000045699              -0.001330260               0.999999984              -0.000046184              -0.001354089               0.999999984              -0.000046574              -0.001381605               0.999999984              -0.000046083              -0.001411780               0.999999984              -0.000043971              -0.001443789               0.999999984              -0.000039695              -0.001476787               0.999999984              -0.000032755              -0.001510197               0.999999984              -0.000022755              -0.001543454               0.999999984              -0.000008998              -0.001576117               0.999999984               0.000009684              -0.001607787               0.999999984               0.000034700              -0.001637961               0.999999984               0.000067725              -0.001666219               0.999999984              -0.000062357              -0.001303800               0.999999984              -0.000038865              -0.001322733               0.999999984              -0.000027764              -0.001331002               0.999999984              -0.000022918              -0.001340802               0.999999984              -0.000021165              -0.001355544               0.999999984              -0.000020841              -0.001375615               0.999999984              -0.000020852              -0.001400391               0.999999984              -0.000020905              -0.001428957               0.999999984              -0.000020739              -0.001460422               0.999999984              -0.000019806              -0.001494199               0.999999984              -0.000017624              -0.001529555               0.999999984              -0.000014080              -0.001565854               0.999999984              -0.000008914              -0.001602638               0.999999984              -0.000001618              -0.001639404               0.999999984               0.000008489              -0.001675558               0.999999984               0.000022400              -0.001710484               0.999999984               0.000041306              -0.001743308               0.999999984              -0.000000000              -0.001310661               0.999999984              -0.000000000              -0.001333436               0.999999984               0.000000000              -0.001343991               0.999999984               0.000000000              -0.001355207               0.999999984              -0.000000000              -0.001370807               0.999999984               0.000000000              -0.001391431               0.999999984              -0.000000000              -0.001416637               0.999999984              -0.000000000              -0.001445579               0.999999984               0.000000000              -0.001477516               0.999999984              -0.000000000              -0.001512014               0.999999984              -0.000000000              -0.001548222               0.999999984              -0.000000000              -0.001585561               0.999999984              -0.000000000              -0.001623583               0.999999984              -0.000000000              -0.001661772               0.999999984               0.000000000              -0.001699569               0.999999984              -0.000000000              -0.001736215               0.999999984               0.000000000              -0.001770751               0.999999984               0.000662783               0.000000000               0.999999984               0.000711366              -0.000000000               0.999999984               0.000732489               0.000000000               0.999999984               0.000744184               0.000000000               0.999999984               0.000753241               0.000000000               0.999999984               0.000762311              -0.000000000               0.999999984               0.000772428              -0.000000000               0.999999984               0.000783726               0.000000000               0.999999984               0.000796081               0.000000000               0.999999984               0.000809197               0.000000000               0.999999984               0.000822902              -0.000000000               0.999999984               0.000837115              -0.000000000               0.999999984               0.000851713               0.000000000               0.999999984               0.000866314              -0.000000000               0.999999984               0.000880559               0.000000000               0.999999984               0.000893872               0.000000000               0.999999984               0.000905512               0.000000000               0.999999984               0.000659233              -0.000125463               0.999999984               0.000704223              -0.000102598               0.999999984               0.000723029              -0.000092745               0.999999984               0.000733235              -0.000089690               0.999999984               0.000741335              -0.000090121               0.999999984               0.000749712              -0.000092466               0.999999984               0.000759122              -0.000095701               0.999999984               0.000769759              -0.000099181               0.999999984               0.000781485              -0.000102464               0.999999984               0.000793934              -0.000105185               0.999999984               0.000806958              -0.000107253               0.999999984               0.000820290              -0.000108527               0.999999984               0.000833635              -0.000108625               0.999999984               0.000846769              -0.000107191               0.999999984               0.000859308              -0.000103519               0.999999984               0.000870852              -0.000097050               0.999999984               0.000880888              -0.000086618               0.999999984               0.000648264              -0.000249819               0.999999984               0.000682794              -0.000204630               0.999999984               0.000695262              -0.000186162               0.999999984               0.000701697              -0.000181004               0.999999984               0.000707406              -0.000182635               0.999999984               0.000714095              -0.000187760               0.999999984               0.000722158              -0.000194504               0.999999984               0.000731401              -0.000201631               0.999999984               0.000741565              -0.000208209               0.999999984               0.000752259              -0.000213693               0.999999984               0.000763058              -0.000217837               0.999999984               0.000773755              -0.000220274               0.999999984               0.000784076              -0.000220565               0.999999984               0.000793673              -0.000218102               0.999999984               0.000802281              -0.000211780               0.999999984               0.000809530              -0.000200641               0.999999984               0.000815101              -0.000183455               0.999999984               0.000630141              -0.000371916               0.999999984               0.000648392              -0.000305718               0.999999984               0.000651783              -0.000280609               0.999999984               0.000653160              -0.000274965               0.999999984               0.000656057              -0.000278895               0.999999984               0.000660891              -0.000287438               0.999999984               0.000667356              -0.000297954               0.999999984               0.000674880              -0.000308792               0.999999984               0.000682857              -0.000318578               0.999999984               0.000690820              -0.000326783               0.999999984               0.000698457              -0.000332874               0.999999984               0.000705340              -0.000336503               0.999999984               0.000711114              -0.000337243               0.999999984               0.000715501              -0.000334303               0.999999984               0.000718247              -0.000326483               0.999999984               0.000719190              -0.000312987               0.999999984               0.000718394              -0.000293276               0.999999984               0.000605496              -0.000490621               0.999999984               0.000602784              -0.000405568               0.999999984               0.000596029              -0.000376246               0.999999984               0.000592695              -0.000371793               0.999999984               0.000593244              -0.000378996               0.999999984               0.000596618              -0.000391375               0.999999984               0.000601684              -0.000405721               0.999999984               0.000607404              -0.000419919               0.999999984               0.000613001              -0.000432671               0.999999984               0.000617965              -0.000443134               0.999999984               0.000621652              -0.000450855               0.999999984               0.000623740              -0.000455476               0.999999984               0.000623871              -0.000456644               0.999999984               0.000621833              -0.000453477               0.999999984               0.000617546              -0.000445197               0.999999984               0.000611229              -0.000431686               0.999999984               0.000603373              -0.000413062               0.999999984               0.000574598              -0.000604847               0.999999984               0.000548167              -0.000504097               0.999999984               0.000532262              -0.000473041               0.999999984               0.000525628              -0.000471096               0.999999984               0.000525012              -0.000482045               0.999999984               0.000527812              -0.000498292               0.999999984               0.000531924              -0.000516035               0.999999984               0.000535942              -0.000533051               0.999999984               0.000538875              -0.000548033               0.999999984               0.000540033              -0.000560352               0.999999984               0.000538987              -0.000569387               0.999999984               0.000535471              -0.000574807               0.999999984               0.000529235              -0.000576139               0.999999984               0.000520160              -0.000572945               0.999999984               0.000508460              -0.000565041               0.999999984               0.000494792              -0.000552890               0.999999984               0.000479812              -0.000537451               0.999999984               0.000538031              -0.000713380               0.999999984               0.000487472              -0.000601256               0.999999984               0.000464655              -0.000570532               0.999999984               0.000456791              -0.000571732               0.999999984               0.000456645              -0.000586314               0.999999984               0.000459629              -0.000605998               0.999999984               0.000463090              -0.000626522               0.999999984               0.000465209              -0.000645703               0.999999984               0.000464913              -0.000662378               0.999999984               0.000461711              -0.000676016               0.999999984               0.000455206              -0.000686116               0.999999984               0.000445256              -0.000692050               0.999999984               0.000431821              -0.000693411               0.999999984               0.000415171              -0.000690376               0.999999984               0.000396016              -0.000683482               0.999999984               0.000375133              -0.000673671               0.999999984               0.000353207              -0.000661955               0.999999984               0.000496617              -0.000815019               0.999999984               0.000423568              -0.000696881               0.999999984               0.000397050              -0.000667718               0.999999984               0.000390516              -0.000671914               0.999999984               0.000391947              -0.000689682               0.999999984               0.000395539              -0.000712109               0.999999984               0.000398098              -0.000734973               0.999999984               0.000397736              -0.000755859               0.999999984               0.000393586              -0.000773739               0.999999984               0.000385204              -0.000788252               0.999999984               0.000372410              -0.000798859               0.999999984               0.000355182              -0.000804862               0.999999984               0.000333943              -0.000806253               0.999999984               0.000309547              -0.000803926               0.999999984               0.000282855              -0.000798754               0.999999984               0.000254733              -0.000791677               0.999999984               0.000225849              -0.000783691               0.999999984               0.000451721              -0.000907976               0.999999984               0.000358671              -0.000790782               0.999999984               0.000333023              -0.000763266               0.999999984               0.000329506              -0.000769900               0.999999984               0.000333223              -0.000790096               0.999999984               0.000337325              -0.000814766               0.999999984               0.000338316              -0.000839518               0.999999984               0.000334775              -0.000861833               0.999999984               0.000325891              -0.000880593               0.999999984               0.000311437              -0.000895426               0.999999984               0.000291356              -0.000905923               0.999999984               0.000266006              -0.000911827               0.999999984               0.000236459              -0.000913782               0.999999984               0.000203858              -0.000912843               0.999999984               0.000169383              -0.000910089               0.999999984               0.000134043              -0.000906299               0.999999984               0.000098328              -0.000902152               0.999999984               0.000405423              -0.000995729               0.999999984               0.000304892              -0.000894463               0.999999984               0.000276040              -0.000861894               0.999999984               0.000271398              -0.000862203               0.999999984               0.000274760              -0.000877480               0.999999984               0.000279323              -0.000899297               0.999999984               0.000281549              -0.000923034               0.999999984               0.000279954              -0.000946185               0.999999984               0.000273565              -0.000966996               0.999999984               0.000261898              -0.000985031               0.999999984               0.000244948              -0.000999837               0.999999984               0.000222645              -0.001011286               0.999999984               0.000195630              -0.001019295               0.999999984               0.000164498              -0.001024560               0.999999984               0.000130432              -0.001027663               0.999999984               0.000094544              -0.001029589               0.999999984               0.000057777              -0.001030812               0.999999984               0.000354699              -0.001075401               0.999999984               0.000254088              -0.000994518               0.999999984               0.000222114              -0.000962873               0.999999984               0.000215434              -0.000959109               0.999999984               0.000217581              -0.000970561               0.999999984               0.000221852              -0.000989860               0.999999984               0.000224777              -0.001012619               0.999999984               0.000224710              -0.001036272               0.999999984               0.000220494              -0.001058992               0.999999984               0.000211413              -0.001079845               0.999999984               0.000197323              -0.001098426               0.999999984               0.000178089              -0.001114406               0.999999984               0.000153732              -0.001127707               0.999999984               0.000124665              -0.001138488               0.999999984               0.000091440              -0.001147175               0.999999984               0.000055046              -0.001154494               0.999999984               0.000016735              -0.001161012               0.999999984               0.000300715              -0.001145078               0.999999984               0.000206197              -0.001087967               0.999999984               0.000172840              -0.001061608               0.999999984               0.000163802              -0.001057011               0.999999984               0.000164155              -0.001066331               0.999999984               0.000167373              -0.001083906               0.999999984               0.000170288              -0.001106060               0.999999984               0.000170992              -0.001130277               0.999999984               0.000168425              -0.001154893               0.999999984               0.000161629              -0.001178592               0.999999984               0.000150234              -0.001200884               0.999999984               0.000134020              -0.001221233               0.999999984               0.000112634              -0.001239441               0.999999984               0.000086042              -0.001255444               0.999999984               0.000054235              -0.001269490               0.999999984               0.000017606              -0.001281960               0.999999984              -0.000022782              -0.001293498               0.999999984               0.000243954              -0.001203621               0.999999984               0.000161230              -0.001170932               0.999999984               0.000128966              -0.001153161               0.999999984               0.000118384              -0.001150539               0.999999984               0.000116904              -0.001159548               0.999999984               0.000118678              -0.001176606               0.999999984               0.000120943              -0.001198800               0.999999984               0.000121910              -0.001223866               0.999999984               0.000120391              -0.001250320               0.999999984               0.000115435              -0.001276962               0.999999984               0.000106558              -0.001302989               0.999999984               0.000093284              -0.001327860               0.999999984               0.000075274              -0.001351206               0.999999984               0.000051899              -0.001372627               0.999999984               0.000022561              -0.001392177               0.999999984              -0.000012999              -0.001410032               0.999999984              -0.000054797              -0.001426740               0.999999984               0.000184897              -0.001250069               0.999999984               0.000118831              -0.001239684               0.999999984               0.000090739              -0.001231861               0.999999984               0.000080170              -0.001233335               0.999999984               0.000077468              -0.001243711               0.999999984               0.000077909              -0.001261307               0.999999984               0.000079197              -0.001284153               0.999999984               0.000079980              -0.001310432               0.999999984               0.000079093              -0.001338821               0.999999984               0.000075676              -0.001368280               0.999999984               0.000069101              -0.001398000               0.999999984               0.000058967              -0.001427328               0.999999984               0.000044698              -0.001455857               0.999999984               0.000025599              -0.001483076               0.999999984               0.000000579              -0.001508734               0.999999984              -0.000031506              -0.001532641               0.999999984              -0.000071719              -0.001554999               0.999999984               0.000124175              -0.001283541               0.999999984               0.000078305              -0.001291035               0.999999984               0.000057447              -0.001292610               0.999999984               0.000048820              -0.001298763               0.999999984               0.000046031              -0.001311456               0.999999984               0.000045699              -0.001330260               0.999999984               0.000046184              -0.001354089               0.999999984               0.000046574              -0.001381605               0.999999984               0.000046083              -0.001411780               0.999999984               0.000043971              -0.001443789               0.999999984               0.000039695              -0.001476787               0.999999984               0.000032755              -0.001510197               0.999999984               0.000022755              -0.001543454               0.999999984               0.000008998              -0.001576117               0.999999984              -0.000009684              -0.001607787               0.999999984              -0.000034700              -0.001637961               0.999999984              -0.000067725              -0.001666219               0.999999984               0.000062357              -0.001303800               0.999999984               0.000038865              -0.001322733               0.999999984               0.000027764              -0.001331002               0.999999984               0.000022918              -0.001340802               0.999999984               0.000021165              -0.001355544               0.999999984               0.000020841              -0.001375615               0.999999984               0.000020852              -0.001400391               0.999999984               0.000020905              -0.001428957               0.999999984               0.000020739              -0.001460422               0.999999984               0.000019806              -0.001494199               0.999999984               0.000017624              -0.001529555               0.999999984               0.000014080              -0.001565854               0.999999984               0.000008914              -0.001602638               0.999999984               0.000001618              -0.001639404               0.999999984              -0.000008489              -0.001675558               0.999999984              -0.000022400              -0.001710484               0.999999984              -0.000041306              -0.001743308               0.999999984              -0.000000000              -0.001310661               0.999999984              -0.000000000              -0.001333436               0.999999984               0.000000000              -0.001343991               0.999999984               0.000000000              -0.001355207               0.999999984              -0.000000000              -0.001370807               0.999999984               0.000000000              -0.001391431               0.999999984              -0.000000000              -0.001416637               0.999999984              -0.000000000              -0.001445579               0.999999984               0.000000000              -0.001477516               0.999999984              -0.000000000              -0.001512014               0.999999984              -0.000000000              -0.001548222               0.999999984              -0.000000000              -0.001585561               0.999999984              -0.000000000              -0.001623583               0.999999984              -0.000000000              -0.001661772               0.999999984               0.000000000              -0.001699569               0.999999984              -0.000000000              -0.001736215               0.999999984               0.000000000              -0.001770751               0.999999984               0.000662783               0.000000000               0.999999984               0.000711366              -0.000000000               0.999999984               0.000732489               0.000000000               0.999999984               0.000744184               0.000000000               0.999999984               0.000753241               0.000000000               0.999999984               0.000762311              -0.000000000               0.999999984               0.000772428              -0.000000000               0.999999984               0.000783726               0.000000000               0.999999984               0.000796081               0.000000000               0.999999984               0.000809197               0.000000000               0.999999984               0.000822902              -0.000000000               0.999999984               0.000837115              -0.000000000               0.999999984               0.000851713               0.000000000               0.999999984               0.000866314              -0.000000000               0.999999984               0.000880559               0.000000000               0.999999984               0.000893872               0.000000000               0.999999984               0.000905512               0.000000000               0.999999984               0.000659233               0.000125463               0.999999984               0.000704223               0.000102598               0.999999984               0.000723029               0.000092745               0.999999984               0.000733235               0.000089690               0.999999984               0.000741335               0.000090121               0.999999984               0.000749712               0.000092466               0.999999984               0.000759122               0.000095701               0.999999984               0.000769759               0.000099181               0.999999984               0.000781485               0.000102464               0.999999984               0.000793934               0.000105185               0.999999984               0.000806958               0.000107253               0.999999984               0.000820290               0.000108527               0.999999984               0.000833635               0.000108625               0.999999984               0.000846769               0.000107191               0.999999984               0.000859308               0.000103519               0.999999984               0.000870852               0.000097050               0.999999984               0.000880888               0.000086618               0.999999984               0.000648264               0.000249819               0.999999984               0.000682794               0.000204630               0.999999984               0.000695262               0.000186162               0.999999984               0.000701697               0.000181004               0.999999984               0.000707406               0.000182635               0.999999984               0.000714095               0.000187760               0.999999984               0.000722158               0.000194504               0.999999984               0.000731401               0.000201631               0.999999984               0.000741565               0.000208209               0.999999984               0.000752259               0.000213693               0.999999984               0.000763058               0.000217837               0.999999984               0.000773755               0.000220274               0.999999984               0.000784076               0.000220565               0.999999984               0.000793673               0.000218102               0.999999984               0.000802281               0.000211780               0.999999984               0.000809530               0.000200641               0.999999984               0.000815101               0.000183455               0.999999984               0.000630141               0.000371916               0.999999984               0.000648392               0.000305718               0.999999984               0.000651783               0.000280609               0.999999984               0.000653160               0.000274965               0.999999984               0.000656057               0.000278895               0.999999984               0.000660891               0.000287438               0.999999984               0.000667356               0.000297954               0.999999984               0.000674880               0.000308792               0.999999984               0.000682857               0.000318578               0.999999984               0.000690820               0.000326783               0.999999984               0.000698457               0.000332874               0.999999984               0.000705340               0.000336503               0.999999984               0.000711114               0.000337243               0.999999984               0.000715501               0.000334303               0.999999984               0.000718247               0.000326483               0.999999984               0.000719190               0.000312987               0.999999984               0.000718394               0.000293276               0.999999984               0.000605496               0.000490621               0.999999984               0.000602784               0.000405568               0.999999984               0.000596029               0.000376246               0.999999984               0.000592695               0.000371793               0.999999984               0.000593244               0.000378996               0.999999984               0.000596618               0.000391375               0.999999984               0.000601684               0.000405721               0.999999984               0.000607404               0.000419919               0.999999984               0.000613001               0.000432671               0.999999984               0.000617965               0.000443134               0.999999984               0.000621652               0.000450855               0.999999984               0.000623740               0.000455476               0.999999984               0.000623871               0.000456644               0.999999984               0.000621833               0.000453477               0.999999984               0.000617546               0.000445197               0.999999984               0.000611229               0.000431686               0.999999984               0.000603373               0.000413062               0.999999984               0.000574598               0.000604847               0.999999984               0.000548167               0.000504097               0.999999984               0.000532262               0.000473041               0.999999984               0.000525628               0.000471096               0.999999984               0.000525012               0.000482045               0.999999984               0.000527812               0.000498292               0.999999984               0.000531924               0.000516035               0.999999984               0.000535942               0.000533051               0.999999984               0.000538875               0.000548033               0.999999984               0.000540033               0.000560352               0.999999984               0.000538987               0.000569387               0.999999984               0.000535471               0.000574807               0.999999984               0.000529235               0.000576139               0.999999984               0.000520160               0.000572945               0.999999984               0.000508460               0.000565041               0.999999984               0.000494792               0.000552890               0.999999984               0.000479812               0.000537451               0.999999984               0.000538031               0.000713380               0.999999984               0.000487472               0.000601256               0.999999984               0.000464655               0.000570532               0.999999984               0.000456791               0.000571732               0.999999984               0.000456645               0.000586314               0.999999984               0.000459629               0.000605998               0.999999984               0.000463090               0.000626522               0.999999984               0.000465209               0.000645703               0.999999984               0.000464913               0.000662378               0.999999984               0.000461711               0.000676016               0.999999984               0.000455206               0.000686116               0.999999984               0.000445256               0.000692050               0.999999984               0.000431821               0.000693411               0.999999984               0.000415171               0.000690376               0.999999984               0.000396016               0.000683482               0.999999984               0.000375133               0.000673671               0.999999984               0.000353207               0.000661955               0.999999984               0.000496617               0.000815019               0.999999984               0.000423568               0.000696881               0.999999984               0.000397050               0.000667718               0.999999984               0.000390516               0.000671914               0.999999984               0.000391947               0.000689682               0.999999984               0.000395539               0.000712109               0.999999984               0.000398098               0.000734973               0.999999984               0.000397736               0.000755859               0.999999984               0.000393586               0.000773739               0.999999984               0.000385204               0.000788252               0.999999984               0.000372410               0.000798859               0.999999984               0.000355182               0.000804862               0.999999984               0.000333943               0.000806253               0.999999984               0.000309547               0.000803926               0.999999984               0.000282855               0.000798754               0.999999984               0.000254733               0.000791677               0.999999984               0.000225849               0.000783691               0.999999984               0.000451721               0.000907976               0.999999984               0.000358671               0.000790782               0.999999984               0.000333023               0.000763266               0.999999984               0.000329506               0.000769900               0.999999984               0.000333223               0.000790096               0.999999984               0.000337325               0.000814766               0.999999984               0.000338316               0.000839518               0.999999984               0.000334775               0.000861833               0.999999984               0.000325891               0.000880593               0.999999984               0.000311437               0.000895426               0.999999984               0.000291356               0.000905923               0.999999984               0.000266006               0.000911827               0.999999984               0.000236459               0.000913782               0.999999984               0.000203858               0.000912843               0.999999984               0.000169383               0.000910089               0.999999984               0.000134043               0.000906299               0.999999984               0.000098328               0.000902152               0.999999984               0.000405423               0.000995729               0.999999984               0.000304892               0.000894463               0.999999984               0.000276040               0.000861894               0.999999984               0.000271398               0.000862203               0.999999984               0.000274760               0.000877480               0.999999984               0.000279323               0.000899297               0.999999984               0.000281549               0.000923034               0.999999984               0.000279954               0.000946185               0.999999984               0.000273565               0.000966996               0.999999984               0.000261898               0.000985031               0.999999984               0.000244948               0.000999837               0.999999984               0.000222645               0.001011286               0.999999984               0.000195630               0.001019295               0.999999984               0.000164498               0.001024560               0.999999984               0.000130432               0.001027663               0.999999984               0.000094544               0.001029589               0.999999984               0.000057777               0.001030812               0.999999984               0.000354699               0.001075401               0.999999984               0.000254088               0.000994518               0.999999984               0.000222114               0.000962873               0.999999984               0.000215434               0.000959109               0.999999984               0.000217581               0.000970561               0.999999984               0.000221852               0.000989860               0.999999984               0.000224777               0.001012619               0.999999984               0.000224710               0.001036272               0.999999984               0.000220494               0.001058992               0.999999984               0.000211413               0.001079845               0.999999984               0.000197323               0.001098426               0.999999984               0.000178089               0.001114406               0.999999984               0.000153732               0.001127707               0.999999984               0.000124665               0.001138488               0.999999984               0.000091440               0.001147175               0.999999984               0.000055046               0.001154494               0.999999984               0.000016735               0.001161012               0.999999984               0.000300715               0.001145078               0.999999984               0.000206197               0.001087967               0.999999984               0.000172840               0.001061608               0.999999984               0.000163802               0.001057011               0.999999984               0.000164155               0.001066331               0.999999984               0.000167373               0.001083906               0.999999984               0.000170288               0.001106060               0.999999984               0.000170992               0.001130277               0.999999984               0.000168425               0.001154893               0.999999984               0.000161629               0.001178592               0.999999984               0.000150234               0.001200884               0.999999984               0.000134020               0.001221233               0.999999984               0.000112634               0.001239441               0.999999984               0.000086042               0.001255444               0.999999984               0.000054235               0.001269490               0.999999984               0.000017606               0.001281960               0.999999984              -0.000022782               0.001293498               0.999999984               0.000243954               0.001203621               0.999999984               0.000161230               0.001170932               0.999999984               0.000128966               0.001153161               0.999999984               0.000118384               0.001150539               0.999999984               0.000116904               0.001159548               0.999999984               0.000118678               0.001176606               0.999999984               0.000120943               0.001198800               0.999999984               0.000121910               0.001223866               0.999999984               0.000120391               0.001250320               0.999999984               0.000115435               0.001276962               0.999999984               0.000106558               0.001302989               0.999999984               0.000093284               0.001327860               0.999999984               0.000075274               0.001351206               0.999999984               0.000051899               0.001372627               0.999999984               0.000022561               0.001392177               0.999999984              -0.000012999               0.001410032               0.999999984              -0.000054797               0.001426740               0.999999984               0.000184897               0.001250069               0.999999984               0.000118831               0.001239684               0.999999984               0.000090739               0.001231861               0.999999984               0.000080170               0.001233335               0.999999984               0.000077468               0.001243711               0.999999984               0.000077909               0.001261307               0.999999984               0.000079197               0.001284153               0.999999984               0.000079980               0.001310432               0.999999984               0.000079093               0.001338821               0.999999984               0.000075676               0.001368280               0.999999984               0.000069101               0.001398000               0.999999984               0.000058967               0.001427328               0.999999984               0.000044698               0.001455857               0.999999984               0.000025599               0.001483076               0.999999984               0.000000579               0.001508734               0.999999984              -0.000031506               0.001532641               0.999999984              -0.000071719               0.001554999               0.999999984               0.000124175               0.001283541               0.999999984               0.000078305               0.001291035               0.999999984               0.000057447               0.001292610               0.999999984               0.000048820               0.001298763               0.999999984               0.000046031               0.001311456               0.999999984               0.000045699               0.001330260               0.999999984               0.000046184               0.001354089               0.999999984               0.000046574               0.001381605               0.999999984               0.000046083               0.001411780               0.999999984               0.000043971               0.001443789               0.999999984               0.000039695               0.001476787               0.999999984               0.000032755               0.001510197               0.999999984               0.000022755               0.001543454               0.999999984               0.000008998               0.001576117               0.999999984              -0.000009684               0.001607787               0.999999984              -0.000034700               0.001637961               0.999999984              -0.000067725               0.001666219               0.999999984               0.000062357               0.001303800               0.999999984               0.000038865               0.001322733               0.999999984               0.000027764               0.001331002               0.999999984               0.000022918               0.001340802               0.999999984               0.000021165               0.001355544               0.999999984               0.000020841               0.001375615               0.999999984               0.000020852               0.001400391               0.999999984               0.000020905               0.001428957               0.999999984               0.000020739               0.001460422               0.999999984               0.000019806               0.001494199               0.999999984               0.000017624               0.001529555               0.999999984               0.000014080               0.001565854               0.999999984               0.000008914               0.001602638               0.999999984               0.000001618               0.001639404               0.999999984              -0.000008489               0.001675558               0.999999984              -0.000022400               0.001710484               0.999999984              -0.000041306               0.001743308               0.999999984              -0.000000000               0.001310661               0.999999984               0.000000000               0.001333436               0.999999984               0.000000000               0.001343991               0.999999984              -0.000000000               0.001355207               0.999999984              -0.000000000               0.001370807               0.999999984              -0.000000000               0.001391431               0.999999984               0.000000000               0.001416637               0.999999984               0.000000000               0.001445579               0.999999984              -0.000000000               0.001477516               0.999999984               0.000000000               0.001512014               0.999999984               0.000000000               0.001548222               0.999999984              -0.000000000               0.001585561               0.999999984               0.000000000               0.001623583               0.999999984               0.000000000               0.001661772               0.999999984               0.000000000               0.001699569               0.999999984              -0.000000000               0.001736215               0.999999984               0.000000000               0.001770751               0.999999984 </DataArray>
<DataArray type="Float64"                                    Name="stress"                                                      NumberOfComponents="10" format="ascii">
              0.002118872               0.022961906               0.000000000              -0.002075656               0.008345777               0.006270121               0.000000000               0.000000000               0.000000000               0.000000000               0.002111621               0.017974170               0.000000000              -0.001454910               0.006476300               0.005021390               0.000000000               0.000000000               0.000000000               0.000000000               0.002782964               0.013928904               0.000000000              -0.000697500               0.004875422               0.004177922               0.000000000               0.000000000               0.000000000               0.000000000               0.002681728               0.011671078               0.000000000              -0.000453235               0.004041399               0.003588164               0.000000000               0.000000000               0.000000000               0.000000000               0.002346788               0.010269503              -0.000000000              -0.000403642               0.003557681               0.003154039               0.000000000               0.000000000               0.000000000               0.000000000               0.001964070               0.009318010              -0.000000000              -0.000428224               0.003248714               0.002820490               0.000000000               0.000000000               0.000000000               0.000000000               0.001601860               0.008614346              -0.000000000              -0.000476094               0.003030118               0.002554024               0.000000000               0.000000000               0.000000000               0.000000000               0.001285047               0.008050812              -0.000000000              -0.000524457               0.002858396               0.002333939               0.000000000               0.000000000               0.000000000               0.000000000               0.001020590               0.007566501               0.000000000              -0.000563090               0.002709838               0.002146748               0.000000000               0.000000000               0.000000000               0.000000000               0.000796818               0.007121917              -0.000000000              -0.000591431               0.002571092               0.001979661               0.000000000               0.000000000               0.000000000               0.000000000               0.000597054               0.006697245              -0.000000000              -0.000613259               0.002436812               0.001823554               0.000000000               0.000000000               0.000000000               0.000000000               0.000417561               0.006279074               0.000000000              -0.000628297               0.002302436               0.001674139               0.000000000               0.000000000               0.000000000               0.000000000               0.000263853               0.005851360               0.000000000              -0.000632473               0.002161258               0.001528785               0.000000000               0.000000000               0.000000000               0.000000000               0.000141648               0.005398226               0.000000000              -0.000621659               0.002006610               0.001384951               0.000000000               0.000000000               0.000000000               0.000000000               0.000054676               0.004897335               0.000000000              -0.000591662               0.001829649               0.001237987               0.000000000               0.000000000               0.000000000               0.000000000               0.000014752               0.004331244               0.000000000              -0.000535872               0.001622357               0.001086485               0.000000000               0.000000000               0.000000000               0.000000000              -0.000038724               0.003895522              -0.000000000              -0.000501461               0.001465648               0.000964187               0.000000000               0.000000000               0.000000000               0.000000000               0.002201075               0.022503073              -0.001572937              -0.001987476               0.008163441               0.006175965               0.000000000               0.000000000               0.000000000               0.000000000               0.002077442               0.017678371              -0.000788066              -0.001430752               0.006369649               0.004938897               0.000000000               0.000000000               0.000000000               0.000000000               0.002627383               0.013814206              -0.000003709              -0.000741505               0.004851858               0.004110352               0.000000000               0.000000000               0.000000000               0.000000000               0.002478027               0.011649396               0.000328781              -0.000526913               0.004058731               0.003531818               0.000000000               0.000000000               0.000000000               0.000000000               0.002131942               0.010296416               0.000463839              -0.000487573               0.003594629               0.003107056               0.000000000               0.000000000               0.000000000               0.000000000               0.001759270               0.009368045               0.000510706              -0.000511278               0.003293076               0.002781798               0.000000000               0.000000000               0.000000000               0.000000000               0.001414973               0.008674629               0.000515156              -0.000553712               0.003076085               0.002522372               0.000000000               0.000000000               0.000000000               0.000000000               0.001113544               0.008112933               0.000498684              -0.000596536               0.002903130               0.002306593               0.000000000               0.000000000               0.000000000               0.000000000               0.000863142               0.007625444               0.000471018              -0.000629501               0.002751623               0.002122122               0.000000000               0.000000000               0.000000000               0.000000000               0.000654713               0.007178589               0.000440815              -0.000651805               0.002610107               0.001958303               0.000000000               0.000000000               0.000000000               0.000000000               0.000474043               0.006752758               0.000413072              -0.000666327               0.002473006               0.001806679               0.000000000               0.000000000               0.000000000               0.000000000               0.000321122               0.006335459               0.000383326              -0.000671510               0.002335635               0.001664125               0.000000000               0.000000000               0.000000000               0.000000000               0.000194877               0.005914425               0.000347715              -0.000666223               0.002193530               0.001527307               0.000000000               0.000000000               0.000000000               0.000000000               0.000096888               0.005475901               0.000298078              -0.000648153               0.002041333               0.001393180               0.000000000               0.000000000               0.000000000               0.000000000               0.000030829               0.005002166               0.000229248              -0.000613708               0.001871942               0.001258233               0.000000000               0.000000000               0.000000000               0.000000000               0.000002276               0.004479461               0.000131960              -0.000559078               0.001679498               0.001120420               0.000000000               0.000000000               0.000000000               0.000000000              -0.000042767               0.004088821               0.000081821              -0.000527139               0.001538640               0.001011501               0.000000000               0.000000000               0.000000000               0.000000000               0.002396706               0.021183607              -0.002920149              -0.001749183               0.007644192               0.005895009               0.000000000               0.000000000               0.000000000               0.000000000               0.001953753               0.016834794              -0.001461461              -0.001371689               0.006068771               0.004697082               0.000000000               0.000000000               0.000000000               0.000000000               0.002164404               0.013473903              -0.000019572              -0.000872584               0.004782118               0.003909533               0.000000000               0.000000000               0.000000000               0.000000000               0.001892622               0.011564429               0.000569132              -0.000735819               0.004100044               0.003364225               0.000000000               0.000000000               0.000000000               0.000000000               0.001529338               0.010341058               0.000796545              -0.000719129               0.003686695               0.002967566               0.000000000               0.000000000               0.000000000               0.000000000               0.001184357               0.009471123               0.000867281              -0.000739755               0.003403594               0.002663839               0.000000000               0.000000000               0.000000000               0.000000000               0.000889384               0.008800322               0.000866019              -0.000766519               0.003188918               0.002422398               0.000000000               0.000000000               0.000000000               0.000000000               0.000645909               0.008244189               0.000829421              -0.000788306               0.003010804               0.002222498               0.000000000               0.000000000               0.000000000               0.000000000               0.000447791               0.007751453               0.000778484              -0.000801008               0.002850795               0.002049786               0.000000000               0.000000000               0.000000000               0.000000000               0.000293909               0.007302026               0.000726324              -0.000802536               0.002701496               0.001898961               0.000000000               0.000000000               0.000000000               0.000000000               0.000171215               0.006875577               0.000676089              -0.000795240               0.002556916               0.001761676               0.000000000               0.000000000               0.000000000               0.000000000               0.000073589               0.006461676               0.000623303              -0.000780112               0.002413908               0.001633796               0.000000000               0.000000000               0.000000000               0.000000000               0.000004937               0.006057442               0.000560528              -0.000755327               0.002270903               0.001515576               0.000000000               0.000000000               0.000000000               0.000000000              -0.000036934               0.005652869               0.000472997              -0.000720457               0.002124423               0.001403966               0.000000000               0.000000000               0.000000000               0.000000000              -0.000051092               0.005240053               0.000353076              -0.000674164               0.001971388               0.001297224               0.000000000               0.000000000               0.000000000               0.000000000              -0.000034085               0.004820762               0.000195686              -0.000615376               0.001812030               0.001196654               0.000000000               0.000000000               0.000000000               0.000000000              -0.000048404               0.004531792               0.000118204              -0.000584624               0.001705457               0.001120833               0.000000000               0.000000000               0.000000000               0.000000000               0.002594178               0.019167985              -0.003895262              -0.001423180               0.006863657               0.005440477               0.000000000               0.000000000               0.000000000               0.000000000               0.001704721               0.015560317              -0.001958444              -0.001305767               0.005621976               0.004316209               0.000000000               0.000000000               0.000000000               0.000000000               0.001443135               0.012944163              -0.000071707              -0.001076842               0.004673625               0.003596783               0.000000000               0.000000000               0.000000000               0.000000000               0.001027663               0.011389943               0.000656245              -0.001038367               0.004142732               0.003104365               0.000000000               0.000000000               0.000000000               0.000000000               0.000663118               0.010334166               0.000919602              -0.001043099               0.003792387               0.002749288               0.000000000               0.000000000               0.000000000               0.000000000               0.000380649               0.009538228               0.000991372              -0.001049533               0.003529222               0.002479689               0.000000000               0.000000000               0.000000000               0.000000000               0.000170061               0.008892066               0.000981971              -0.001047733               0.003313237               0.002265504               0.000000000               0.000000000               0.000000000               0.000000000               0.000019601               0.008336138               0.000932766              -0.001034665               0.003123573               0.002088908               0.000000000               0.000000000               0.000000000               0.000000000              -0.000085948               0.007839572               0.000868601              -0.001012175               0.002950556               0.001938381               0.000000000               0.000000000               0.000000000               0.000000000              -0.000158419               0.007382959               0.000803894              -0.000982275               0.002788387               0.001806112               0.000000000               0.000000000               0.000000000               0.000000000              -0.000202892               0.006954517               0.000741365              -0.000945397               0.002633281               0.001687884               0.000000000               0.000000000               0.000000000               0.000000000              -0.000219117               0.006551107               0.000679257              -0.000901055               0.002484032               0.001582977               0.000000000               0.000000000               0.000000000               0.000000000              -0.000209982               0.006169516               0.000605474              -0.000849931               0.002339795               0.001489864               0.000000000               0.000000000               0.000000000               0.000000000              -0.000179860               0.005803552               0.000501785              -0.000792890               0.002198794               0.001405905               0.000000000               0.000000000               0.000000000               0.000000000              -0.000130051               0.005460147               0.000364365              -0.000731286               0.002063793               0.001332507               0.000000000               0.000000000               0.000000000               0.000000000              -0.000065859               0.005155324               0.000196513              -0.000669111               0.001941461               0.001272350               0.000000000               0.000000000               0.000000000               0.000000000              -0.000051753               0.004969783               0.000115938              -0.000640629               0.001870121               0.001229492               0.000000000               0.000000000               0.000000000               0.000000000               0.002665988               0.016694797              -0.004406100              -0.001087105               0.005927244               0.004840139               0.000000000               0.000000000               0.000000000               0.000000000               0.001303176               0.014019272              -0.002247794              -0.001263716               0.005094282               0.003830566               0.000000000               0.000000000               0.000000000               0.000000000               0.000542851               0.012290316              -0.000183200              -0.001332717               0.004540970               0.003208253               0.000000000               0.000000000               0.000000000               0.000000000               0.000029761               0.011120994               0.000562397              -0.001378961               0.004166615               0.002787654               0.000000000               0.000000000               0.000000000               0.000000000              -0.000285761               0.010231511               0.000816394              -0.001386096               0.003872501               0.002486406               0.000000000               0.000000000               0.000000000               0.000000000              -0.000466135               0.009502991               0.000877579              -0.001362671               0.003621856               0.002259184               0.000000000               0.000000000               0.000000000               0.000000000              -0.000560532               0.008873541               0.000863139              -0.001319389               0.003397614               0.002078225               0.000000000               0.000000000               0.000000000               0.000000000              -0.000598738               0.008310971               0.000815812              -0.001263395               0.003191428               0.001928032               0.000000000               0.000000000               0.000000000               0.000000000              -0.000601901               0.007804176               0.000756589              -0.001201232               0.003001777               0.001800545               0.000000000               0.000000000               0.000000000               0.000000000              -0.000575691               0.007344666               0.000696974              -0.001133965               0.002826186               0.001692221               0.000000000               0.000000000               0.000000000               0.000000000              -0.000525310               0.006923453               0.000640480              -0.001062420               0.002661935               0.001599514               0.000000000               0.000000000               0.000000000               0.000000000              -0.000454982               0.006534270               0.000583581              -0.000987399               0.002507201               0.001519802               0.000000000               0.000000000               0.000000000               0.000000000              -0.000365640               0.006173344               0.000512337              -0.000908781               0.002360688               0.001451907               0.000000000               0.000000000               0.000000000               0.000000000              -0.000264988               0.005845113               0.000412969              -0.000830008               0.002225021               0.001395013               0.000000000               0.000000000               0.000000000               0.000000000              -0.000163845               0.005565530               0.000289717              -0.000757131               0.002107535               0.001350404               0.000000000               0.000000000               0.000000000               0.000000000              -0.000075542               0.005352069               0.000150390              -0.000697335               0.002016450               0.001319115               0.000000000               0.000000000               0.000000000               0.000000000              -0.000047964               0.005243501               0.000084599              -0.000673422               0.001972290               0.001298868               0.000000000               0.000000000               0.000000000               0.000000000               0.002482069               0.014007548              -0.004453652              -0.000820170               0.004942525               0.004122355               0.000000000               0.000000000               0.000000000               0.000000000               0.000741197               0.012377259              -0.002357393              -0.001269207               0.004548780               0.003279573               0.000000000               0.000000000               0.000000000               0.000000000              -0.000430585               0.011569247              -0.000376871              -0.001607621               0.004392251               0.002784629               0.000000000               0.000000000               0.000000000               0.000000000              -0.000951241               0.010755057               0.000298217              -0.001701093               0.004152014               0.002450921               0.000000000               0.000000000               0.000000000               0.000000000              -0.001157645               0.010005162               0.000520503              -0.001684758               0.003896606               0.002211849               0.000000000               0.000000000               0.000000000               0.000000000              -0.001202766               0.009328628               0.000575527              -0.001617112               0.003648549               0.002031437               0.000000000               0.000000000               0.000000000               0.000000000              -0.001161615               0.008711583               0.000570209              -0.001524550               0.003412015               0.001887465               0.000000000               0.000000000               0.000000000               0.000000000              -0.001076117               0.008149441               0.000543271              -0.001422220               0.003190527               0.001768306               0.000000000               0.000000000               0.000000000               0.000000000              -0.000967707               0.007643099               0.000512511              -0.001318274               0.002987099               0.001668825               0.000000000               0.000000000               0.000000000               0.000000000              -0.000843337               0.007192794               0.000479999              -0.001215347               0.002802690               0.001587342               0.000000000               0.000000000               0.000000000               0.000000000              -0.000709350               0.006788166               0.000442939              -0.001114524               0.002634207               0.001519683               0.000000000               0.000000000               0.000000000               0.000000000              -0.000569214               0.006416340               0.000399370              -0.001015495               0.002477257               0.001461762               0.000000000               0.000000000               0.000000000               0.000000000              -0.000422119               0.006075808               0.000342496              -0.000917769               0.002331172               0.001413403               0.000000000               0.000000000               0.000000000               0.000000000              -0.000277088               0.005782919               0.000266447              -0.000826771               0.002203211               0.001376440               0.000000000               0.000000000               0.000000000               0.000000000              -0.000154002               0.005553695               0.000176684              -0.000751961               0.002101867               0.001349906               0.000000000               0.000000000               0.000000000               0.000000000              -0.000064347               0.005397897               0.000086643              -0.000698866               0.002032236               0.001333371               0.000000000               0.000000000               0.000000000               0.000000000              -0.000035366               0.005328980               0.000047968              -0.000679383               0.002002770               0.001323387               0.000000000               0.000000000               0.000000000               0.000000000               0.001978038               0.011331636              -0.004116191              -0.000674693               0.004002071               0.003327378               0.000000000               0.000000000               0.000000000               0.000000000               0.000053887               0.010767335              -0.002340324              -0.001325707               0.004030978               0.002705270               0.000000000               0.000000000               0.000000000               0.000000000              -0.001364699               0.010803050              -0.000657607              -0.001862139               0.004221694               0.002359555               0.000000000               0.000000000               0.000000000               0.000000000              -0.001791982               0.010278320              -0.000098641              -0.001956779               0.004078332               0.002121553               0.000000000               0.000000000               0.000000000               0.000000000              -0.001840712               0.009641717               0.000100055              -0.001895477               0.003845699               0.001950222               0.000000000               0.000000000               0.000000000               0.000000000              -0.001733216               0.009010813               0.000171346              -0.001776303               0.003595675               0.001819372               0.000000000               0.000000000               0.000000000               0.000000000              -0.001556765               0.008420016               0.000196344              -0.001636285               0.003352072               0.001715787               0.000000000               0.000000000               0.000000000               0.000000000              -0.001351846               0.007877877               0.000208210              -0.001491673               0.003123157               0.001631484               0.000000000               0.000000000               0.000000000               0.000000000              -0.001143670               0.007389253               0.000218276              -0.001352530               0.002913903               0.001561373               0.000000000               0.000000000               0.000000000               0.000000000              -0.000937744               0.006954802               0.000224090              -0.001221001               0.002725245               0.001504243               0.000000000               0.000000000               0.000000000               0.000000000              -0.000736473               0.006565819               0.000216365              -0.001096902               0.002554218               0.001457316               0.000000000               0.000000000               0.000000000               0.000000000              -0.000547575               0.006209212               0.000193739              -0.000981490               0.002396880               0.001415390               0.000000000               0.000000000               0.000000000               0.000000000              -0.000373508               0.005893232               0.000160380              -0.000876717               0.002256630               0.001379913               0.000000000               0.000000000               0.000000000               0.000000000              -0.000224507               0.005636804               0.000117444              -0.000788789               0.002141845               0.001353057               0.000000000               0.000000000               0.000000000               0.000000000              -0.000113857               0.005448409               0.000070413              -0.000723746               0.002057367               0.001333621               0.000000000               0.000000000               0.000000000               0.000000000              -0.000043199               0.005325506               0.000030480              -0.000681886               0.002002446               0.001320560               0.000000000               0.000000000               0.000000000               0.000000000              -0.000023958               0.005269740               0.000017537              -0.000667700               0.001979129               0.001311429               0.000000000               0.000000000               0.000000000               0.000000000               0.001184025               0.008845756              -0.003488292              -0.000661712               0.003169125               0.002507414               0.000000000               0.000000000               0.000000000               0.000000000              -0.000719376               0.009277862              -0.002243343              -0.001429497               0.003569088               0.002139592               0.000000000               0.000000000               0.000000000               0.000000000              -0.002169565               0.009998446              -0.001019436              -0.002063388               0.004020578               0.001957190               0.000000000               0.000000000               0.000000000               0.000000000              -0.002407406               0.009701419              -0.000569048              -0.002115450               0.003938924               0.001823474               0.000000000               0.000000000               0.000000000               0.000000000              -0.002273937               0.009163237              -0.000363573              -0.001998126               0.003720424               0.001722298               0.000000000               0.000000000               0.000000000               0.000000000              -0.002016829               0.008588320              -0.000250152              -0.001829846               0.003472693               0.001642847               0.000000000               0.000000000               0.000000000               0.000000000              -0.001723048               0.008040648              -0.000175163              -0.001651220               0.003230596               0.001579376               0.000000000               0.000000000               0.000000000               0.000000000              -0.001425110               0.007533936              -0.000117936              -0.001476155               0.003003338               0.001527184               0.000000000               0.000000000               0.000000000               0.000000000              -0.001142565               0.007071796              -0.000064101              -0.001312433               0.002794719               0.001482286               0.000000000               0.000000000               0.000000000               0.000000000              -0.000880523               0.006652196              -0.000016454              -0.001161718               0.002604616               0.001442898               0.000000000               0.000000000               0.000000000               0.000000000              -0.000639653               0.006271015               0.000011588              -0.001023744               0.002431566               0.001407821               0.000000000               0.000000000               0.000000000               0.000000000              -0.000429806               0.005932571               0.000018692              -0.000902746               0.002278419               0.001375673               0.000000000               0.000000000               0.000000000               0.000000000              -0.000261235               0.005652339               0.000015801              -0.000804504               0.002152262               0.001347758               0.000000000               0.000000000               0.000000000               0.000000000              -0.000138003               0.005438679               0.000009082              -0.000731584               0.002056736               0.001325152               0.000000000               0.000000000               0.000000000               0.000000000              -0.000060061               0.005288390              -0.000000022              -0.000683570               0.001990636               0.001307066               0.000000000               0.000000000               0.000000000               0.000000000              -0.000020535               0.005188546              -0.000003564              -0.000656267               0.001948254               0.001291986               0.000000000               0.000000000               0.000000000               0.000000000              -0.000014670               0.005139973               0.000001050              -0.000647996               0.001929306               0.001281310               0.000000000               0.000000000               0.000000000               0.000000000               0.000213052               0.006727539              -0.002689968              -0.000761048               0.002496172               0.001735124               0.000000000               0.000000000               0.000000000               0.000000000              -0.001469483               0.007932502              -0.002119433              -0.001542616               0.003158346               0.001615730               0.000000000               0.000000000               0.000000000               0.000000000              -0.002785689               0.009200112              -0.001449187              -0.002194642               0.003798220               0.001603578               0.000000000               0.000000000               0.000000000               0.000000000              -0.002821050               0.009142942              -0.001067556              -0.002200756               0.003781202               0.001580446               0.000000000               0.000000000               0.000000000               0.000000000              -0.002537302               0.008732843              -0.000829171              -0.002043088               0.003591948               0.001548859               0.000000000               0.000000000               0.000000000               0.000000000              -0.002159849               0.008247146              -0.000659401              -0.001840832               0.003362632               0.001521800               0.000000000               0.000000000               0.000000000               0.000000000              -0.001775258               0.007759323              -0.000529759              -0.001635633               0.003131626               0.001495993               0.000000000               0.000000000               0.000000000               0.000000000              -0.001408814               0.007295740              -0.000428510              -0.001440269               0.002911979               0.001471710               0.000000000               0.000000000               0.000000000               0.000000000              -0.001073017               0.006864696              -0.000336413              -0.001260465               0.002708364               0.001447899               0.000000000               0.000000000               0.000000000               0.000000000              -0.000774788               0.006464792              -0.000251868              -0.001098642               0.002521123               0.001422481               0.000000000               0.000000000               0.000000000               0.000000000              -0.000516182               0.006092096              -0.000182391              -0.000955078               0.002349038               0.001393960               0.000000000               0.000000000               0.000000000               0.000000000              -0.000307805               0.005766164              -0.000132307              -0.000836195               0.002200767               0.001364572               0.000000000               0.000000000               0.000000000               0.000000000              -0.000156399               0.005506879              -0.000094853              -0.000747008               0.002084611               0.001337603               0.000000000               0.000000000               0.000000000               0.000000000              -0.000065501               0.005314282              -0.000063129              -0.000688846               0.002001025               0.001312179               0.000000000               0.000000000               0.000000000               0.000000000              -0.000027650               0.005177959              -0.000038766              -0.000657612               0.001945173               0.001287561               0.000000000               0.000000000               0.000000000               0.000000000              -0.000023017               0.005090128              -0.000019430              -0.000644896               0.001911658               0.001266762               0.000000000               0.000000000               0.000000000               0.000000000              -0.000030004               0.005049307              -0.000007252              -0.000642413               0.001897223               0.001254810               0.000000000               0.000000000               0.000000000               0.000000000              -0.000946196               0.004736762              -0.001838203              -0.000946918               0.001894544               0.000947626               0.000000000               0.000000000               0.000000000               0.000000000              -0.002083673               0.006370334              -0.001977223              -0.001577666               0.002649311               0.001071646               0.000000000               0.000000000               0.000000000               0.000000000              -0.003124713               0.008037214              -0.001906111              -0.002176414               0.003404515               0.001228101               0.000000000               0.000000000               0.000000000               0.000000000              -0.003055451               0.008342790              -0.001601494              -0.002188638               0.003510448               0.001321810               0.000000000               0.000000000               0.000000000               0.000000000              -0.002716876               0.008187061              -0.001328077              -0.002042206               0.003409728               0.001367522               0.000000000               0.000000000               0.000000000               0.000000000              -0.002307979               0.007882368              -0.001104631              -0.001850784               0.003244357               0.001393574               0.000000000               0.000000000               0.000000000               0.000000000              -0.001892885               0.007528931              -0.000925296              -0.001650944               0.003059933               0.001408989               0.000000000               0.000000000               0.000000000               0.000000000              -0.001502096               0.007158605              -0.000780163              -0.001458108               0.002872214               0.001414106               0.000000000               0.000000000               0.000000000               0.000000000              -0.001146125               0.006795547              -0.000649848              -0.001279237               0.002691572               0.001412335               0.000000000               0.000000000               0.000000000               0.000000000              -0.000832884               0.006452426              -0.000528591              -0.001118882               0.002523748               0.001404866               0.000000000               0.000000000               0.000000000               0.000000000              -0.000563609               0.006125677              -0.000416842              -0.000977061               0.002367559               0.001390498               0.000000000               0.000000000               0.000000000               0.000000000              -0.000343690               0.005821640              -0.000317921              -0.000856587               0.002226056               0.001369469               0.000000000               0.000000000               0.000000000               0.000000000              -0.000181773               0.005558549              -0.000229816              -0.000762982               0.002107159               0.001344177               0.000000000               0.000000000               0.000000000               0.000000000              -0.000081310               0.005345247              -0.000150865              -0.000698645               0.002014613               0.001315968               0.000000000               0.000000000               0.000000000               0.000000000              -0.000040317               0.005184663              -0.000085170              -0.000663200               0.001949270               0.001286070               0.000000000               0.000000000               0.000000000               0.000000000              -0.000045224               0.005074911              -0.000034400              -0.000651321               0.001908727               0.001257406               0.000000000               0.000000000               0.000000000               0.000000000              -0.000062946               0.005023203              -0.000010512              -0.000651504               0.001891552               0.001240049               0.000000000               0.000000000               0.000000000               0.000000000              -0.002442475               0.002924871              -0.000988354              -0.001281534               0.001402124               0.000120590               0.000000000               0.000000000               0.000000000               0.000000000              -0.002773061               0.004801404              -0.001761391              -0.001640070               0.002147142               0.000507071               0.000000000               0.000000000               0.000000000               0.000000000              -0.003357725               0.006687149              -0.002267868              -0.002095036               0.002927372               0.000832336               0.000000000               0.000000000               0.000000000               0.000000000              -0.003196387               0.007344350              -0.002109285              -0.002116684               0.003153653               0.001036969               0.000000000               0.000000000               0.000000000               0.000000000              -0.002830570               0.007486976              -0.001838508              -0.001997331               0.003161410               0.001164079               0.000000000               0.000000000               0.000000000               0.000000000              -0.002419791               0.007401190              -0.001582139              -0.001832566               0.003077894               0.001245327               0.000000000               0.000000000               0.000000000               0.000000000              -0.002003145               0.007215626              -0.001364019              -0.001653129               0.002956227               0.001303098               0.000000000               0.000000000               0.000000000               0.000000000              -0.001608525               0.006974475              -0.001178886              -0.001475003               0.002816469               0.001341466               0.000000000               0.000000000               0.000000000               0.000000000              -0.001241914               0.006708644              -0.001014049              -0.001304295               0.002670957               0.001366662               0.000000000               0.000000000               0.000000000               0.000000000              -0.000911345               0.006440100              -0.000861026              -0.001146764               0.002528933               0.001382169               0.000000000               0.000000000               0.000000000               0.000000000              -0.000621908               0.006174362              -0.000717651              -0.001005009               0.002393103               0.001388094               0.000000000               0.000000000               0.000000000               0.000000000              -0.000376477               0.005910356              -0.000578918              -0.000879971               0.002263423               0.001383451               0.000000000               0.000000000               0.000000000               0.000000000              -0.000184998               0.005661018              -0.000444606              -0.000777000               0.002145987               0.001368987               0.000000000               0.000000000               0.000000000               0.000000000              -0.000054136               0.005436484              -0.000314465              -0.000699860               0.002045430               0.001345570               0.000000000               0.000000000               0.000000000               0.000000000               0.000008633               0.005252338              -0.000191416              -0.000653303               0.001968529               0.001315226               0.000000000               0.000000000               0.000000000               0.000000000               0.000002258               0.005109126              -0.000084473              -0.000637792               0.001915622               0.001277830               0.000000000               0.000000000               0.000000000               0.000000000              -0.000029771               0.005038183              -0.000032421              -0.000640935               0.001893023               0.001252087               0.000000000               0.000000000               0.000000000               0.000000000              -0.004171364               0.001437826              -0.000208657              -0.001743987               0.001060597              -0.000683390               0.000000000               0.000000000               0.000000000               0.000000000              -0.003590506               0.003319173              -0.001448243              -0.001761333               0.001693490              -0.000067843               0.000000000               0.000000000               0.000000000               0.000000000              -0.003527976               0.005163952              -0.002417788              -0.001968481               0.002377459               0.000408979               0.000000000               0.000000000               0.000000000               0.000000000              -0.003194210               0.006068080              -0.002446122              -0.001956335               0.002674784               0.000718449               0.000000000               0.000000000               0.000000000               0.000000000              -0.002786390               0.006482858              -0.002229113              -0.001855250               0.002779347               0.000924097               0.000000000               0.000000000               0.000000000               0.000000000              -0.002377677               0.006632565              -0.001976268              -0.001720696               0.002784398               0.001063702               0.000000000               0.000000000               0.000000000               0.000000000              -0.001976604               0.006638191              -0.001742911              -0.001570997               0.002736373               0.001165376               0.000000000               0.000000000               0.000000000               0.000000000              -0.001593724               0.006556005              -0.001535255              -0.001417144               0.002657694               0.001240550               0.000000000               0.000000000               0.000000000               0.000000000              -0.001233063               0.006416969              -0.001348146              -0.001264517               0.002560474               0.001295957               0.000000000               0.000000000               0.000000000               0.000000000              -0.000896771               0.006250499              -0.001175662              -0.001117599               0.002456012               0.001338413               0.000000000               0.000000000               0.000000000               0.000000000              -0.000591087               0.006069204              -0.001014527              -0.000980306               0.002349816               0.001369510               0.000000000               0.000000000               0.000000000               0.000000000              -0.000321615               0.005873639              -0.000855578              -0.000854809               0.002242796               0.001387987               0.000000000               0.000000000               0.000000000               0.000000000              -0.000093437               0.005672288              -0.000693426              -0.000744073               0.002138768               0.001394695               0.000000000               0.000000000               0.000000000               0.000000000               0.000078298               0.005473127              -0.000522349              -0.000654778               0.002042616               0.001387839               0.000000000               0.000000000               0.000000000               0.000000000               0.000179738               0.005289953              -0.000342293              -0.000593841               0.001961247               0.001367406               0.000000000               0.000000000               0.000000000               0.000000000               0.000197862               0.005132629              -0.000165084              -0.000567379               0.001899986               0.001332607               0.000000000               0.000000000               0.000000000               0.000000000               0.000167626               0.005052696              -0.000074338              -0.000568726               0.001873791               0.001305065               0.000000000               0.000000000               0.000000000               0.000000000              -0.006013650               0.000346336               0.000391246              -0.002298409               0.000881576              -0.001416833               0.000000000               0.000000000               0.000000000               0.000000000              -0.004483088               0.002004101              -0.001080226              -0.001931668               0.001311913              -0.000619754               0.000000000               0.000000000               0.000000000               0.000000000              -0.003661839               0.003592865              -0.002323805              -0.001822294               0.001805040              -0.000017255               0.000000000               0.000000000               0.000000000               0.000000000              -0.003076248               0.004611561              -0.002525519              -0.001730035               0.002113849               0.000383814               0.000000000               0.000000000               0.000000000               0.000000000              -0.002592497               0.005241338              -0.002393147              -0.001627350               0.002289544               0.000662194               0.000000000               0.000000000               0.000000000               0.000000000              -0.002172545               0.005614833              -0.002177546              -0.001516556               0.002377110               0.000860554               0.000000000               0.000000000               0.000000000               0.000000000              -0.001791729               0.005813192              -0.001959194              -0.001398545               0.002403892               0.001005347               0.000000000               0.000000000               0.000000000               0.000000000              -0.001429496               0.005898608              -0.001755111              -0.001273385               0.002390644               0.001117259               0.000000000               0.000000000               0.000000000               0.000000000              -0.001083534               0.005908216              -0.001564912              -0.001144850               0.002351002               0.001206152               0.000000000               0.000000000               0.000000000               0.000000000              -0.000751993               0.005866966              -0.001389609              -0.001015366               0.002294091               0.001278725               0.000000000               0.000000000               0.000000000               0.000000000              -0.000438511               0.005791041              -0.001225633              -0.000888320               0.002226434               0.001338114               0.000000000               0.000000000               0.000000000               0.000000000              -0.000145412               0.005690393              -0.001065494              -0.000765827               0.002152054               0.001386227               0.000000000               0.000000000               0.000000000               0.000000000               0.000120751               0.005563819              -0.000898423              -0.000650195               0.002071319               0.001421125               0.000000000               0.000000000               0.000000000               0.000000000               0.000348595               0.005419417              -0.000710322              -0.000546703               0.001988689               0.001441986               0.000000000               0.000000000               0.000000000               0.000000000               0.000521249               0.005271590              -0.000496004              -0.000463479               0.001911672               0.001448193               0.000000000               0.000000000               0.000000000               0.000000000               0.000615062               0.005132483              -0.000257157              -0.000410911               0.001847781               0.001436870               0.000000000               0.000000000               0.000000000               0.000000000               0.000632306               0.005063747              -0.000130531              -0.000395853               0.001819850               0.001423997               0.000000000               0.000000000               0.000000000               0.000000000              -0.007786397              -0.000365929               0.000716066              -0.002874156               0.000836070              -0.002038086               0.000000000               0.000000000               0.000000000               0.000000000              -0.005375289               0.000931360              -0.000716197              -0.002132151               0.001021163              -0.001110988               0.000000000               0.000000000               0.000000000               0.000000000              -0.003779158               0.002137664              -0.001987097              -0.001684390               0.001274008              -0.000410381               0.000000000               0.000000000               0.000000000               0.000000000              -0.002896677               0.003155061              -0.002293752              -0.001480634               0.001545220               0.000064586               0.000000000               0.000000000               0.000000000               0.000000000              -0.002305351               0.003918866              -0.002248777              -0.001354363               0.001757729               0.000403366               0.000000000               0.000000000               0.000000000               0.000000000              -0.001855453               0.004468752              -0.002090523              -0.001254387               0.001907697               0.000653310               0.000000000               0.000000000               0.000000000               0.000000000              -0.001484383               0.004840762              -0.001911460              -0.001161737               0.002000816               0.000839079               0.000000000               0.000000000               0.000000000               0.000000000              -0.001147167               0.005084629              -0.001736406              -0.001065765               0.002050114               0.000984349               0.000000000               0.000000000               0.000000000               0.000000000              -0.000820205               0.005242908              -0.001568779              -0.000962939               0.002068598               0.001105659               0.000000000               0.000000000               0.000000000               0.000000000              -0.000497233               0.005336799              -0.001411753              -0.000853561               0.002063435               0.001209874               0.000000000               0.000000000               0.000000000               0.000000000              -0.000179754               0.005379714              -0.001264824              -0.000739871               0.002039843               0.001299973               0.000000000               0.000000000               0.000000000               0.000000000               0.000132828               0.005386098              -0.001121882              -0.000623451               0.002003165               0.001379714               0.000000000               0.000000000               0.000000000               0.000000000               0.000437404               0.005356329              -0.000970875              -0.000505514               0.001953930               0.001448416               0.000000000               0.000000000               0.000000000               0.000000000               0.000730962               0.005296250              -0.000795429              -0.000387920               0.001894705               0.001506786               0.000000000               0.000000000               0.000000000               0.000000000               0.001000828               0.005211960              -0.000579690              -0.000276184               0.001829364               0.001553180               0.000000000               0.000000000               0.000000000               0.000000000               0.001224896               0.005110831              -0.000313583              -0.000179518               0.001763433               0.001583915               0.000000000               0.000000000               0.000000000               0.000000000               0.001350283               0.005068873              -0.000172544              -0.000127253               0.001732025               0.001604772               0.000000000               0.000000000               0.000000000               0.000000000              -0.009267252              -0.000752469               0.000721980              -0.003381159               0.000876224              -0.002504935               0.000000000               0.000000000               0.000000000               0.000000000              -0.006155335               0.000163375              -0.000407441              -0.002328670               0.000830676              -0.001497994               0.000000000               0.000000000               0.000000000               0.000000000              -0.003889450               0.000965789              -0.001444964              -0.001579266               0.000848345              -0.000730921               0.000000000               0.000000000               0.000000000               0.000000000              -0.002718728               0.001903150              -0.001747399              -0.001257415               0.001053514              -0.000203901               0.000000000               0.000000000               0.000000000               0.000000000              -0.002010883               0.002724410              -0.001759557              -0.001094630               0.001273003               0.000178373               0.000000000               0.000000000               0.000000000               0.000000000              -0.001517822               0.003388512              -0.001663951              -0.000992746               0.001460407               0.000467662               0.000000000               0.000000000               0.000000000               0.000000000              -0.001142959               0.003893230              -0.001539896              -0.000915262               0.001602817               0.000687555               0.000000000               0.000000000               0.000000000               0.000000000              -0.000823099               0.004268618              -0.001414912              -0.000842238               0.001703604               0.000861366               0.000000000               0.000000000               0.000000000               0.000000000              -0.000513561               0.004557534              -0.001292283              -0.000762276               0.001773255               0.001010979               0.000000000               0.000000000               0.000000000               0.000000000              -0.000202702               0.004774255              -0.001174145              -0.000672794               0.001815667               0.001142873               0.000000000               0.000000000               0.000000000               0.000000000               0.000112237               0.004928651              -0.001061870              -0.000573992               0.001834198               0.001260206               0.000000000               0.000000000               0.000000000               0.000000000               0.000438582               0.005036561              -0.000953584              -0.000465101               0.001833871               0.001368769               0.000000000               0.000000000               0.000000000               0.000000000               0.000780871               0.005104254              -0.000840000              -0.000345205               0.001816469               0.001471264               0.000000000               0.000000000               0.000000000               0.000000000               0.001141612               0.005136627              -0.000703200              -0.000213974               0.001783517               0.001569543               0.000000000               0.000000000               0.000000000               0.000000000               0.001521763               0.005130090              -0.000524960              -0.000070600               0.001733546               0.001662946               0.000000000               0.000000000               0.000000000               0.000000000               0.001917043               0.005080052              -0.000290158               0.000083884               0.001665373               0.001749256               0.000000000               0.000000000               0.000000000               0.000000000               0.002199252               0.005074327              -0.000167507               0.000190427               0.001627950               0.001818377               0.000000000               0.000000000               0.000000000               0.000000000              -0.010252843              -0.000921514               0.000441761              -0.003729624               0.000936030              -0.002793594               0.000000000               0.000000000               0.000000000               0.000000000              -0.006689900              -0.000290240              -0.000176171              -0.002472431               0.000727392              -0.001745039               0.000000000               0.000000000               0.000000000               0.000000000              -0.003972023               0.000204990              -0.000755889              -0.001515131               0.000573369              -0.000941761               0.000000000               0.000000000               0.000000000               0.000000000              -0.002590605               0.001052364              -0.000942786              -0.001103021               0.000718456              -0.000384564               0.000000000               0.000000000               0.000000000               0.000000000              -0.001794164               0.001887013              -0.000967232              -0.000908686               0.000931893               0.000023206               0.000000000               0.000000000               0.000000000               0.000000000              -0.001267968               0.002608918              -0.000924904              -0.000801601               0.001136831               0.000335229               0.000000000               0.000000000               0.000000000               0.000000000              -0.000879223               0.003195071              -0.000862076              -0.000729091               0.001308043               0.000578952               0.000000000               0.000000000               0.000000000               0.000000000              -0.000562369               0.003656726              -0.000799929              -0.000667978               0.001441555               0.000773578               0.000000000               0.000000000               0.000000000               0.000000000              -0.000269380               0.004031665              -0.000737169              -0.000604974               0.001545533               0.000940559               0.000000000               0.000000000               0.000000000               0.000000000               0.000026549               0.004334609              -0.000672406              -0.000531869               0.001622145               0.001090276               0.000000000               0.000000000               0.000000000               0.000000000               0.000337247               0.004567918              -0.000610437              -0.000444521               0.001670798               0.001226277               0.000000000               0.000000000               0.000000000               0.000000000               0.000675625               0.004751998              -0.000552557              -0.000340640               0.001697530               0.001356890               0.000000000               0.000000000               0.000000000               0.000000000               0.001048713               0.004895417              -0.000491039              -0.000218660               0.001704676               0.001486016               0.000000000               0.000000000               0.000000000               0.000000000               0.001465213               0.004995229              -0.000415143              -0.000074949               0.001690043               0.001615094               0.000000000               0.000000000               0.000000000               0.000000000               0.001941077               0.005048332              -0.000313333               0.000096861               0.001650473               0.001747335               0.000000000               0.000000000               0.000000000               0.000000000               0.002492303               0.005043725              -0.000174130               0.000304145               0.001579843               0.001883988               0.000000000               0.000000000               0.000000000               0.000000000               0.002921550               0.005071930              -0.000102730               0.000461585               0.001536765               0.001998350               0.000000000               0.000000000               0.000000000               0.000000000              -0.010599371              -0.000971450              -0.000000000              -0.003853330               0.000960620              -0.002892710               0.000000000               0.000000000               0.000000000               0.000000000              -0.006879399              -0.000444476              -0.000000000              -0.002524214               0.000693241              -0.001830972               0.000000000               0.000000000               0.000000000               0.000000000              -0.004002518              -0.000059756               0.000000000              -0.001493474               0.000477903              -0.001015571               0.000000000               0.000000000               0.000000000               0.000000000              -0.002543790               0.000753339              -0.000000000              -0.001048087               0.000600471              -0.000447616               0.000000000               0.000000000               0.000000000               0.000000000              -0.001715084               0.001587359               0.000000000              -0.000841575               0.000809639              -0.000031936               0.000000000               0.000000000               0.000000000               0.000000000              -0.001179389               0.002324570               0.000000000              -0.000732840               0.001019129               0.000286288               0.000000000               0.000000000               0.000000000               0.000000000              -0.000781195               0.002936642              -0.000000000              -0.000660027               0.001198880               0.000538853               0.000000000               0.000000000               0.000000000               0.000000000              -0.000461565               0.003427424              -0.000000000              -0.000601513               0.001342967               0.000741454               0.000000000               0.000000000               0.000000000               0.000000000              -0.000176425               0.003834434              -0.000000000              -0.000545462               0.001459953               0.000914490               0.000000000               0.000000000               0.000000000               0.000000000               0.000111001               0.004167701               0.000000000              -0.000479336               0.001548999               0.001069662               0.000000000               0.000000000               0.000000000               0.000000000               0.000421293               0.004427896              -0.000000000              -0.000395501               0.001607784               0.001212283               0.000000000               0.000000000               0.000000000               0.000000000               0.000764390               0.004639002               0.000000000              -0.000293228               0.001644061               0.001350833               0.000000000               0.000000000               0.000000000               0.000000000               0.001148375               0.004808388               0.000000000              -0.000170408               0.001659583               0.001489175               0.000000000               0.000000000               0.000000000               0.000000000               0.001587740               0.004933780               0.000000000              -0.000021320               0.001651684               0.001630363               0.000000000               0.000000000               0.000000000               0.000000000               0.002102632               0.005010124              -0.000000000               0.000162220               0.001615951               0.001778171               0.000000000               0.000000000               0.000000000               0.000000000               0.002718073               0.005024528              -0.000000000               0.000391208               0.001544423               0.001935631               0.000000000               0.000000000               0.000000000               0.000000000               0.003208073               0.005068119               0.000000000               0.000569507               0.001499520               0.002069027               0.000000000               0.000000000               0.000000000               0.000000000               0.000000000               0.000000000               0.000000000               0.000000000               0.000000000               0.000000000               0.000000000               0.000000000               0.000000000               0.000000000               0.000000000               0.000000000               0.000000000               0.000000000               0.000000000               0.000000000               0.000000000               0.000000000               0.000000000               0.000000000               0.000000000               0.000000000               0.000000000               0.000000000               0.000000000               0.000000000               0.000000000               0.000000000               0.000000000               0.000000000               0.000000000               0.000000000               0.000000000               0.000000000               0.000000000               0.000000000               0.000000000               0.000000000               0.000000000               0.000000000               0.000000000               0.000000000               0.000000000               0.000000000               0.000000000               0.000000000               0.000000000               0.000000000               0.000000000               0.000000000               0.000000000               0.000000000               0.000000000               0.000000000               0.000000000               0.000000000               0.000000000               0.000000000               0.000000000               0.000000000               0.000000000               0.000000000               0.000000000               0.000000000               0.000000000               0.000000000               0.000000000               0.000000000               0.000000000               0.000000000               0.000000000               0.000000000               0.000000000               0.000000000               0.000000000               0.000000000               0.000000000               0.000000000               0.000000000               0.000000000               0.000000000               0.000000000               0.000000000               0.000000000               0.000000000               0.000000000               0.000000000               0.000000000               0.000000000               0.000000000               0.000000000               0.000000000               0.000000000               0.000000000               0.000000000               0.000000000               0.000000000               0.000000000               0.000000000               0.000000000               0.000000000               0.000000000               0.000000000               0.000000000               0.000000000               0.000000000               0.000000000               0.000000000               0.000000000               0.000000000               0.000000000               0.000000000               0.000000000               0.000000000               0.000000000               0.000000000               0.000000000               0.000000000               0.000000000               0.000000000               0.000000000               0.000000000               0.000000000               0.000000000               0.000000000               0.000000000               0.000000000               0.000000000               0.000000000               0.000000000               0.000000000               0.000000000               0.000000000               0.000000000               0.000000000               0.000000000               0.000000000               0.000000000               0.000000000               0.000000000               0.000000000               0.000000000               0.000000000               0.000000000               0.000000000               0.000000000               0.000000000               0.000000000               0.000000000               0.000000000               0.000000000               0.000000000               0.000000000               0.000000000               0.000000000               0.000000000               0.000000000               0.000000000               0.000000000               0.000000000               0.000000000               0.000000000               0.000000000               0.000000000               0.000000000               0.000000000               0.000000000               0.000000000               0.000000000               0.000000000               0.002201075               0.022503073               0.001572937              -0.001987476               0.008163441               0.006175965               0.000000000               0.000000000               0.000000000               0.000000000               0.002077442               0.017678371               0.000788066              -0.001430752               0.006369649               0.004938897               0.000000000               0.000000000               0.000000000               0.000000000               0.002627383               0.013814206               0.000003709              -0.000741505               0.004851858               0.004110352               0.000000000               0.000000000               0.000000000               0.000000000               0.002478027               0.011649396              -0.000328781              -0.000526913               0.004058731               0.003531818               0.000000000               0.000000000               0.000000000               0.000000000               0.002131942               0.010296416              -0.000463839              -0.000487573               0.003594629               0.003107056               0.000000000               0.000000000               0.000000000               0.000000000               0.001759270               0.009368045              -0.000510706              -0.000511278               0.003293076               0.002781798               0.000000000               0.000000000               0.000000000               0.000000000               0.001414973               0.008674629              -0.000515156              -0.000553712               0.003076085               0.002522372               0.000000000               0.000000000               0.000000000               0.000000000               0.001113544               0.008112933              -0.000498684              -0.000596536               0.002903130               0.002306593               0.000000000               0.000000000               0.000000000               0.000000000               0.000863142               0.007625444              -0.000471018              -0.000629501               0.002751623               0.002122122               0.000000000               0.000000000               0.000000000               0.000000000               0.000654713               0.007178589              -0.000440815              -0.000651805               0.002610107               0.001958303               0.000000000               0.000000000               0.000000000               0.000000000               0.000474043               0.006752758              -0.000413072              -0.000666327               0.002473006               0.001806679               0.000000000               0.000000000               0.000000000               0.000000000               0.000321122               0.006335459              -0.000383326              -0.000671510               0.002335635               0.001664125               0.000000000               0.000000000               0.000000000               0.000000000               0.000194877               0.005914425              -0.000347715              -0.000666223               0.002193530               0.001527307               0.000000000               0.000000000               0.000000000               0.000000000               0.000096888               0.005475901              -0.000298078              -0.000648153               0.002041333               0.001393180               0.000000000               0.000000000               0.000000000               0.000000000               0.000030829               0.005002166              -0.000229248              -0.000613708               0.001871942               0.001258233               0.000000000               0.000000000               0.000000000               0.000000000               0.000002276               0.004479461              -0.000131960              -0.000559078               0.001679498               0.001120420               0.000000000               0.000000000               0.000000000               0.000000000              -0.000042767               0.004088821              -0.000081821              -0.000527139               0.001538640               0.001011501               0.000000000               0.000000000               0.000000000               0.000000000               0.002396706               0.021183607               0.002920149              -0.001749183               0.007644192               0.005895009               0.000000000               0.000000000               0.000000000               0.000000000               0.001953753               0.016834794               0.001461461              -0.001371689               0.006068771               0.004697082               0.000000000               0.000000000               0.000000000               0.000000000               0.002164404               0.013473903               0.000019572              -0.000872584               0.004782118               0.003909533               0.000000000               0.000000000               0.000000000               0.000000000               0.001892622               0.011564429              -0.000569132              -0.000735819               0.004100044               0.003364225               0.000000000               0.000000000               0.000000000               0.000000000               0.001529338               0.010341058              -0.000796545              -0.000719129               0.003686695               0.002967566               0.000000000               0.000000000               0.000000000               0.000000000               0.001184357               0.009471123              -0.000867281              -0.000739755               0.003403594               0.002663839               0.000000000               0.000000000               0.000000000               0.000000000               0.000889384               0.008800322              -0.000866019              -0.000766519               0.003188918               0.002422398               0.000000000               0.000000000               0.000000000               0.000000000               0.000645909               0.008244189              -0.000829421              -0.000788306               0.003010804               0.002222498               0.000000000               0.000000000               0.000000000               0.000000000               0.000447791               0.007751453              -0.000778484              -0.000801008               0.002850795               0.002049786               0.000000000               0.000000000               0.000000000               0.000000000               0.000293909               0.007302026              -0.000726324              -0.000802536               0.002701496               0.001898961               0.000000000               0.000000000               0.000000000               0.000000000               0.000171215               0.006875577              -0.000676089              -0.000795240               0.002556916               0.001761676               0.000000000               0.000000000               0.000000000               0.000000000               0.000073589               0.006461676              -0.000623303              -0.000780112               0.002413908               0.001633796               0.000000000               0.000000000               0.000000000               0.000000000               0.000004937               0.006057442              -0.000560528              -0.000755327               0.002270903               0.001515576               0.000000000               0.000000000               0.000000000               0.000000000              -0.000036934               0.005652869              -0.000472997              -0.000720457               0.002124423               0.001403966               0.000000000               0.000000000               0.000000000               0.000000000              -0.000051092               0.005240053              -0.000353076              -0.000674164               0.001971388               0.001297224               0.000000000               0.000000000               0.000000000               0.000000000              -0.000034085               0.004820762              -0.000195686              -0.000615376               0.001812030               0.001196654               0.000000000               0.000000000               0.000000000               0.000000000              -0.000048404               0.004531792              -0.000118204              -0.000584624               0.001705457               0.001120833               0.000000000               0.000000000               0.000000000               0.000000000               0.002594178               0.019167985               0.003895262              -0.001423180               0.006863657               0.005440477               0.000000000               0.000000000               0.000000000               0.000000000               0.001704721               0.015560317               0.001958444              -0.001305767               0.005621976               0.004316209               0.000000000               0.000000000               0.000000000               0.000000000               0.001443135               0.012944163               0.000071707              -0.001076842               0.004673625               0.003596783               0.000000000               0.000000000               0.000000000               0.000000000               0.001027663               0.011389943              -0.000656245              -0.001038367               0.004142732               0.003104365               0.000000000               0.000000000               0.000000000               0.000000000               0.000663118               0.010334166              -0.000919602              -0.001043099               0.003792387               0.002749288               0.000000000               0.000000000               0.000000000               0.000000000               0.000380649               0.009538228              -0.000991372              -0.001049533               0.003529222               0.002479689               0.000000000               0.000000000               0.000000000               0.000000000               0.000170061               0.008892066              -0.000981971              -0.001047733               0.003313237               0.002265504               0.000000000               0.000000000               0.000000000               0.000000000               0.000019601               0.008336138              -0.000932766              -0.001034665               0.003123573               0.002088908               0.000000000               0.000000000               0.000000000               0.000000000              -0.000085948               0.007839572              -0.000868601              -0.001012175               0.002950556               0.001938381               0.000000000               0.000000000               0.000000000               0.000000000              -0.000158419               0.007382959              -0.000803894              -0.000982275               0.002788387               0.001806112               0.000000000               0.000000000               0.000000000               0.000000000              -0.000202892               0.006954517              -0.000741365              -0.000945397               0.002633281               0.001687884               0.000000000               0.000000000               0.000000000               0.000000000              -0.000219117               0.006551107              -0.000679257              -0.000901055               0.002484032               0.001582977               0.000000000               0.000000000               0.000000000               0.000000000              -0.000209982               0.006169516              -0.000605474              -0.000849931               0.002339795               0.001489864               0.000000000               0.000000000               0.000000000               0.000000000              -0.000179860               0.005803552              -0.000501785              -0.000792890               0.002198794               0.001405905               0.000000000               0.000000000               0.000000000               0.000000000              -0.000130051               0.005460147              -0.000364365              -0.000731286               0.002063793               0.001332507               0.000000000               0.000000000               0.000000000               0.000000000              -0.000065859               0.005155324              -0.000196513              -0.000669111               0.001941461               0.001272350               0.000000000               0.000000000               0.000000000               0.000000000              -0.000051753               0.004969783              -0.000115938              -0.000640629               0.001870121               0.001229492               0.000000000               0.000000000               0.000000000               0.000000000               0.002665988               0.016694797               0.004406100              -0.001087105               0.005927244               0.004840139               0.000000000               0.000000000               0.000000000               0.000000000               0.001303176               0.014019272               0.002247794              -0.001263716               0.005094282               0.003830566               0.000000000               0.000000000               0.000000000               0.000000000               0.000542851               0.012290316               0.000183200              -0.001332717               0.004540970               0.003208253               0.000000000               0.000000000               0.000000000               0.000000000               0.000029761               0.011120994              -0.000562397              -0.001378961               0.004166615               0.002787654               0.000000000               0.000000000               0.000000000               0.000000000              -0.000285761               0.010231511              -0.000816394              -0.001386096               0.003872501               0.002486406               0.000000000               0.000000000               0.000000000               0.000000000              -0.000466135               0.009502991              -0.000877579              -0.001362671               0.003621856               0.002259184               0.000000000               0.000000000               0.000000000               0.000000000              -0.000560532               0.008873541              -0.000863139              -0.001319389               0.003397614               0.002078225               0.000000000               0.000000000               0.000000000               0.000000000              -0.000598738               0.008310971              -0.000815812              -0.001263395               0.003191428               0.001928032               0.000000000               0.000000000               0.000000000               0.000000000              -0.000601901               0.007804176              -0.000756589              -0.001201232               0.003001777               0.001800545               0.000000000               0.000000000               0.000000000               0.000000000              -0.000575691               0.007344666              -0.000696974              -0.001133965               0.002826186               0.001692221               0.000000000               0.000000000               0.000000000               0.000000000              -0.000525310               0.006923453              -0.000640480              -0.001062420               0.002661935               0.001599514               0.000000000               0.000000000               0.000000000               0.000000000              -0.000454982               0.006534270              -0.000583581              -0.000987399               0.002507201               0.001519802               0.000000000               0.000000000               0.000000000               0.000000000              -0.000365640               0.006173344              -0.000512337              -0.000908781               0.002360688               0.001451907               0.000000000               0.000000000               0.000000000               0.000000000              -0.000264988               0.005845113              -0.000412969              -0.000830008               0.002225021               0.001395013               0.000000000               0.000000000               0.000000000               0.000000000              -0.000163845               0.005565530              -0.000289717              -0.000757131               0.002107535               0.001350404               0.000000000               0.000000000               0.000000000               0.000000000              -0.000075542               0.005352069              -0.000150390              -0.000697335               0.002016450               0.001319115               0.000000000               0.000000000               0.000000000               0.000000000              -0.000047964               0.005243501              -0.000084599              -0.000673422               0.001972290               0.001298868               0.000000000               0.000000000               0.000000000               0.000000000               0.002482069               0.014007548               0.004453652              -0.000820170               0.004942525               0.004122355               0.000000000               0.000000000               0.000000000               0.000000000               0.000741197               0.012377259               0.002357393              -0.001269207               0.004548780               0.003279573               0.000000000               0.000000000               0.000000000               0.000000000              -0.000430585               0.011569247               0.000376871              -0.001607621               0.004392251               0.002784629               0.000000000               0.000000000               0.000000000               0.000000000              -0.000951241               0.010755057              -0.000298217              -0.001701093               0.004152014               0.002450921               0.000000000               0.000000000               0.000000000               0.000000000              -0.001157645               0.010005162              -0.000520503              -0.001684758               0.003896606               0.002211849               0.000000000               0.000000000               0.000000000               0.000000000              -0.001202766               0.009328628              -0.000575527              -0.001617112               0.003648549               0.002031437               0.000000000               0.000000000               0.000000000               0.000000000              -0.001161615               0.008711583              -0.000570209              -0.001524550               0.003412015               0.001887465               0.000000000               0.000000000               0.000000000               0.000000000              -0.001076117               0.008149441              -0.000543271              -0.001422220               0.003190527               0.001768306               0.000000000               0.000000000               0.000000000               0.000000000              -0.000967707               0.007643099              -0.000512511              -0.001318274               0.002987099               0.001668825               0.000000000               0.000000000               0.000000000               0.000000000              -0.000843337               0.007192794              -0.000479999              -0.001215347               0.002802690               0.001587342               0.000000000               0.000000000               0.000000000               0.000000000              -0.000709350               0.006788166              -0.000442939              -0.001114524               0.002634207               0.001519683               0.000000000               0.000000000               0.000000000               0.000000000              -0.000569214               0.006416340              -0.000399370              -0.001015495               0.002477257               0.001461762               0.000000000               0.000000000               0.000000000               0.000000000              -0.000422119               0.006075808              -0.000342496              -0.000917769               0.002331172               0.001413403               0.000000000               0.000000000               0.000000000               0.000000000              -0.000277088               0.005782919              -0.000266447              -0.000826771               0.002203211               0.001376440               0.000000000               0.000000000               0.000000000               0.000000000              -0.000154002               0.005553695              -0.000176684              -0.000751961               0.002101867               0.001349906               0.000000000               0.000000000               0.000000000               0.000000000              -0.000064347               0.005397897              -0.000086643              -0.000698866               0.002032236               0.001333371               0.000000000               0.000000000               0.000000000               0.000000000              -0.000035366               0.005328980              -0.000047968              -0.000679383               0.002002770               0.001323387               0.000000000               0.000000000               0.000000000               0.000000000               0.001978038               0.011331636               0.004116191              -0.000674693               0.004002071               0.003327378               0.000000000               0.000000000               0.000000000               0.000000000               0.000053887               0.010767335               0.002340324              -0.001325707               0.004030978               0.002705270               0.000000000               0.000000000               0.000000000               0.000000000              -0.001364699               0.010803050               0.000657607              -0.001862139               0.004221694               0.002359555               0.000000000               0.000000000               0.000000000               0.000000000              -0.001791982               0.010278320               0.000098641              -0.001956779               0.004078332               0.002121553               0.000000000               0.000000000               0.000000000               0.000000000              -0.001840712               0.009641717              -0.000100055              -0.001895477               0.003845699               0.001950222               0.000000000               0.000000000               0.000000000               0.000000000              -0.001733216               0.009010813              -0.000171346              -0.001776303               0.003595675               0.001819372               0.000000000               0.000000000               0.000000000               0.000000000              -0.001556765               0.008420016              -0.000196344              -0.001636285               0.003352072               0.001715787               0.000000000               0.000000000               0.000000000               0.000000000              -0.001351846               0.007877877              -0.000208210              -0.001491673               0.003123157               0.001631484               0.000000000               0.000000000               0.000000000               0.000000000              -0.001143670               0.007389253              -0.000218276              -0.001352530               0.002913903               0.001561373               0.000000000               0.000000000               0.000000000               0.000000000              -0.000937744               0.006954802              -0.000224090              -0.001221001               0.002725245               0.001504243               0.000000000               0.000000000               0.000000000               0.000000000              -0.000736473               0.006565819              -0.000216365              -0.001096902               0.002554218               0.001457316               0.000000000               0.000000000               0.000000000               0.000000000              -0.000547575               0.006209212              -0.000193739              -0.000981490               0.002396880               0.001415390               0.000000000               0.000000000               0.000000000               0.000000000              -0.000373508               0.005893232              -0.000160380              -0.000876717               0.002256630               0.001379913               0.000000000               0.000000000               0.000000000               0.000000000              -0.000224507               0.005636804              -0.000117444              -0.000788789               0.002141845               0.001353057               0.000000000               0.000000000               0.000000000               0.000000000              -0.000113857               0.005448409              -0.000070413              -0.000723746               0.002057367               0.001333621               0.000000000               0.000000000               0.000000000               0.000000000              -0.000043199               0.005325506              -0.000030480              -0.000681886               0.002002446               0.001320560               0.000000000               0.000000000               0.000000000               0.000000000              -0.000023958               0.005269740              -0.000017537              -0.000667700               0.001979129               0.001311429               0.000000000               0.000000000               0.000000000               0.000000000               0.001184025               0.008845756               0.003488292              -0.000661712               0.003169125               0.002507414               0.000000000               0.000000000               0.000000000               0.000000000              -0.000719376               0.009277862               0.002243343              -0.001429497               0.003569088               0.002139592               0.000000000               0.000000000               0.000000000               0.000000000              -0.002169565               0.009998446               0.001019436              -0.002063388               0.004020578               0.001957190               0.000000000               0.000000000               0.000000000               0.000000000              -0.002407406               0.009701419               0.000569048              -0.002115450               0.003938924               0.001823474               0.000000000               0.000000000               0.000000000               0.000000000              -0.002273937               0.009163237               0.000363573              -0.001998126               0.003720424               0.001722298               0.000000000               0.000000000               0.000000000               0.000000000              -0.002016829               0.008588320               0.000250152              -0.001829846               0.003472693               0.001642847               0.000000000               0.000000000               0.000000000               0.000000000              -0.001723048               0.008040648               0.000175163              -0.001651220               0.003230596               0.001579376               0.000000000               0.000000000               0.000000000               0.000000000              -0.001425110               0.007533936               0.000117936              -0.001476155               0.003003338               0.001527184               0.000000000               0.000000000               0.000000000               0.000000000              -0.001142565               0.007071796               0.000064101              -0.001312433               0.002794719               0.001482286               0.000000000               0.000000000               0.000000000               0.000000000              -0.000880523               0.006652196               0.000016454              -0.001161718               0.002604616               0.001442898               0.000000000               0.000000000               0.000000000               0.000000000              -0.000639653               0.006271015              -0.000011588              -0.001023744               0.002431566               0.001407821               0.000000000               0.000000000               0.000000000               0.000000000              -0.000429806               0.005932571              -0.000018692              -0.000902746               0.002278419               0.001375673               0.000000000               0.000000000               0.000000000               0.000000000              -0.000261235               0.005652339              -0.000015801              -0.000804504               0.002152262               0.001347758               0.000000000               0.000000000               0.000000000               0.000000000              -0.000138003               0.005438679              -0.000009082              -0.000731584               0.002056736               0.001325152               0.000000000               0.000000000               0.000000000               0.000000000              -0.000060061               0.005288390               0.000000022              -0.000683570               0.001990636               0.001307066               0.000000000               0.000000000               0.000000000               0.000000000              -0.000020535               0.005188546               0.000003564              -0.000656267               0.001948254               0.001291986               0.000000000               0.000000000               0.000000000               0.000000000              -0.000014670               0.005139973              -0.000001050              -0.000647996               0.001929306               0.001281310               0.000000000               0.000000000               0.000000000               0.000000000               0.000213052               0.006727539               0.002689968              -0.000761048               0.002496172               0.001735124               0.000000000               0.000000000               0.000000000               0.000000000              -0.001469483               0.007932502               0.002119433              -0.001542616               0.003158346               0.001615730               0.000000000               0.000000000               0.000000000               0.000000000              -0.002785689               0.009200112               0.001449187              -0.002194642               0.003798220               0.001603578               0.000000000               0.000000000               0.000000000               0.000000000              -0.002821050               0.009142942               0.001067556              -0.002200756               0.003781202               0.001580446               0.000000000               0.000000000               0.000000000               0.000000000              -0.002537302               0.008732843               0.000829171              -0.002043088               0.003591948               0.001548859               0.000000000               0.000000000               0.000000000               0.000000000              -0.002159849               0.008247146               0.000659401              -0.001840832               0.003362632               0.001521800               0.000000000               0.000000000               0.000000000               0.000000000              -0.001775258               0.007759323               0.000529759              -0.001635633               0.003131626               0.001495993               0.000000000               0.000000000               0.000000000               0.000000000              -0.001408814               0.007295740               0.000428510              -0.001440269               0.002911979               0.001471710               0.000000000               0.000000000               0.000000000               0.000000000              -0.001073017               0.006864696               0.000336413              -0.001260465               0.002708364               0.001447899               0.000000000               0.000000000               0.000000000               0.000000000              -0.000774788               0.006464792               0.000251868              -0.001098642               0.002521123               0.001422481               0.000000000               0.000000000               0.000000000               0.000000000              -0.000516182               0.006092096               0.000182391              -0.000955078               0.002349038               0.001393960               0.000000000               0.000000000               0.000000000               0.000000000              -0.000307805               0.005766164               0.000132307              -0.000836195               0.002200767               0.001364572               0.000000000               0.000000000               0.000000000               0.000000000              -0.000156399               0.005506879               0.000094853              -0.000747008               0.002084611               0.001337603               0.000000000               0.000000000               0.000000000               0.000000000              -0.000065501               0.005314282               0.000063129              -0.000688846               0.002001025               0.001312179               0.000000000               0.000000000               0.000000000               0.000000000              -0.000027650               0.005177959               0.000038766              -0.000657612               0.001945173               0.001287561               0.000000000               0.000000000               0.000000000               0.000000000              -0.000023017               0.005090128               0.000019430              -0.000644896               0.001911658               0.001266762               0.000000000               0.000000000               0.000000000               0.000000000              -0.000030004               0.005049307               0.000007252              -0.000642413               0.001897223               0.001254810               0.000000000               0.000000000               0.000000000               0.000000000              -0.000946196               0.004736762               0.001838203              -0.000946918               0.001894544               0.000947626               0.000000000               0.000000000               0.000000000               0.000000000              -0.002083673               0.006370334               0.001977223              -0.001577666               0.002649311               0.001071646               0.000000000               0.000000000               0.000000000               0.000000000              -0.003124713               0.008037214               0.001906111              -0.002176414               0.003404515               0.001228101               0.000000000               0.000000000               0.000000000               0.000000000              -0.003055451               0.008342790               0.001601494              -0.002188638               0.003510448               0.001321810               0.000000000               0.000000000               0.000000000               0.000000000              -0.002716876               0.008187061               0.001328077              -0.002042206               0.003409728               0.001367522               0.000000000               0.000000000               0.000000000               0.000000000              -0.002307979               0.007882368               0.001104631              -0.001850784               0.003244357               0.001393574               0.000000000               0.000000000               0.000000000               0.000000000              -0.001892885               0.007528931               0.000925296              -0.001650944               0.003059933               0.001408989               0.000000000               0.000000000               0.000000000               0.000000000              -0.001502096               0.007158605               0.000780163              -0.001458108               0.002872214               0.001414106               0.000000000               0.000000000               0.000000000               0.000000000              -0.001146125               0.006795547               0.000649848              -0.001279237               0.002691572               0.001412335               0.000000000               0.000000000               0.000000000               0.000000000              -0.000832884               0.006452426               0.000528591              -0.001118882               0.002523748               0.001404866               0.000000000               0.000000000               0.000000000               0.000000000              -0.000563609               0.006125677               0.000416842              -0.000977061               0.002367559               0.001390498               0.000000000               0.000000000               0.000000000               0.000000000              -0.000343690               0.005821640               0.000317921              -0.000856587               0.002226056               0.001369469               0.000000000               0.000000000               0.000000000               0.000000000              -0.000181773               0.005558549               0.000229816              -0.000762982               0.002107159               0.001344177               0.000000000               0.000000000               0.000000000               0.000000000              -0.000081310               0.005345247               0.000150865              -0.000698645               0.002014613               0.001315968               0.000000000               0.000000000               0.000000000               0.000000000              -0.000040317               0.005184663               0.000085170              -0.000663200               0.001949270               0.001286070               0.000000000               0.000000000               0.000000000               0.000000000              -0.000045224               0.005074911               0.000034400              -0.000651321               0.001908727               0.001257406               0.000000000               0.000000000               0.000000000               0.000000000              -0.000062946               0.005023203               0.000010512              -0.000651504               0.001891552               0.001240049               0.000000000               0.000000000               0.000000000               0.000000000              -0.002442475               0.002924871               0.000988354              -0.001281534               0.001402124               0.000120590               0.000000000               0.000000000               0.000000000               0.000000000              -0.002773061               0.004801404               0.001761391              -0.001640070               0.002147142               0.000507071               0.000000000               0.000000000               0.000000000               0.000000000              -0.003357725               0.006687149               0.002267868              -0.002095036               0.002927372               0.000832336               0.000000000               0.000000000               0.000000000               0.000000000              -0.003196387               0.007344350               0.002109285              -0.002116684               0.003153653               0.001036969               0.000000000               0.000000000               0.000000000               0.000000000              -0.002830570               0.007486976               0.001838508              -0.001997331               0.003161410               0.001164079               0.000000000               0.000000000               0.000000000               0.000000000              -0.002419791               0.007401190               0.001582139              -0.001832566               0.003077894               0.001245327               0.000000000               0.000000000               0.000000000               0.000000000              -0.002003145               0.007215626               0.001364019              -0.001653129               0.002956227               0.001303098               0.000000000               0.000000000               0.000000000               0.000000000              -0.001608525               0.006974475               0.001178886              -0.001475003               0.002816469               0.001341466               0.000000000               0.000000000               0.000000000               0.000000000              -0.001241914               0.006708644               0.001014049              -0.001304295               0.002670957               0.001366662               0.000000000               0.000000000               0.000000000               0.000000000              -0.000911345               0.006440100               0.000861026              -0.001146764               0.002528933               0.001382169               0.000000000               0.000000000               0.000000000               0.000000000              -0.000621908               0.006174362               0.000717651              -0.001005009               0.002393103               0.001388094               0.000000000               0.000000000               0.000000000               0.000000000              -0.000376477               0.005910356               0.000578918              -0.000879971               0.002263423               0.001383451               0.000000000               0.000000000               0.000000000               0.000000000              -0.000184998               0.005661018               0.000444606              -0.000777000               0.002145987               0.001368987               0.000000000               0.000000000               0.000000000               0.000000000              -0.000054136               0.005436484               0.000314465              -0.000699860               0.002045430               0.001345570               0.000000000               0.000000000               0.000000000               0.000000000               0.000008633               0.005252338               0.000191416              -0.000653303               0.001968529               0.001315226               0.000000000               0.000000000               0.000000000               0.000000000               0.000002258               0.005109126               0.000084473              -0.000637792               0.001915622               0.001277830               0.000000000               0.000000000               0.000000000               0.000000000              -0.000029771               0.005038183               0.000032421              -0.000640935               0.001893023               0.001252087               0.000000000               0.000000000               0.000000000               0.000000000              -0.004171364               0.001437826               0.000208657              -0.001743987               0.001060597              -0.000683390               0.000000000               0.000000000               0.000000000               0.000000000              -0.003590506               0.003319173               0.001448243              -0.001761333               0.001693490              -0.000067843               0.000000000               0.000000000               0.000000000               0.000000000              -0.003527976               0.005163952               0.002417788              -0.001968481               0.002377459               0.000408979               0.000000000               0.000000000               0.000000000               0.000000000              -0.003194210               0.006068080               0.002446122              -0.001956335               0.002674784               0.000718449               0.000000000               0.000000000               0.000000000               0.000000000              -0.002786390               0.006482858               0.002229113              -0.001855250               0.002779347               0.000924097               0.000000000               0.000000000               0.000000000               0.000000000              -0.002377677               0.006632565               0.001976268              -0.001720696               0.002784398               0.001063702               0.000000000               0.000000000               0.000000000               0.000000000              -0.001976604               0.006638191               0.001742911              -0.001570997               0.002736373               0.001165376               0.000000000               0.000000000               0.000000000               0.000000000              -0.001593724               0.006556005               0.001535255              -0.001417144               0.002657694               0.001240550               0.000000000               0.000000000               0.000000000               0.000000000              -0.001233063               0.006416969               0.001348146              -0.001264517               0.002560474               0.001295957               0.000000000               0.000000000               0.000000000               0.000000000              -0.000896771               0.006250499               0.001175662              -0.001117599               0.002456012               0.001338413               0.000000000               0.000000000               0.000000000               0.000000000              -0.000591087               0.006069204               0.001014527              -0.000980306               0.002349816               0.001369510               0.000000000               0.000000000               0.000000000               0.000000000              -0.000321615               0.005873639               0.000855578              -0.000854809               0.002242796               0.001387987               0.000000000               0.000000000               0.000000000               0.000000000              -0.000093437               0.005672288               0.000693426              -0.000744073               0.002138768               0.001394695               0.000000000               0.000000000               0.000000000               0.000000000               0.000078298               0.005473127               0.000522349              -0.000654778               0.002042616               0.001387839               0.000000000               0.000000000               0.000000000               0.000000000               0.000179738               0.005289953               0.000342293              -0.000593841               0.001961247               0.001367406               0.000000000               0.000000000               0.000000000               0.000000000               0.000197862               0.005132629               0.000165084              -0.000567379               0.001899986               0.001332607               0.000000000               0.000000000               0.000000000               0.000000000               0.000167626               0.005052696               0.000074338              -0.000568726               0.001873791               0.001305065               0.000000000               0.000000000               0.000000000               0.000000000              -0.006013650               0.000346336              -0.000391246              -0.002298409               0.000881576              -0.001416833               0.000000000               0.000000000               0.000000000               0.000000000              -0.004483088               0.002004101               0.001080226              -0.001931668               0.001311913              -0.000619754               0.000000000               0.000000000               0.000000000               0.000000000              -0.003661839               0.003592865               0.002323805              -0.001822294               0.001805040              -0.000017255               0.000000000               0.000000000               0.000000000               0.000000000              -0.003076248               0.004611561               0.002525519              -0.001730035               0.002113849               0.000383814               0.000000000               0.000000000               0.000000000               0.000000000              -0.002592497               0.005241338               0.002393147              -0.001627350               0.002289544               0.000662194               0.000000000               0.000000000               0.000000000               0.000000000              -0.002172545               0.005614833               0.002177546              -0.001516556               0.002377110               0.000860554               0.000000000               0.000000000               0.000000000               0.000000000              -0.001791729               0.005813192               0.001959194              -0.001398545               0.002403892               0.001005347               0.000000000               0.000000000               0.000000000               0.000000000              -0.001429496               0.005898608               0.001755111              -0.001273385               0.002390644               0.001117259               0.000000000               0.000000000               0.000000000               0.000000000              -0.001083534               0.005908216               0.001564912              -0.001144850               0.002351002               0.001206152               0.000000000               0.000000000               0.000000000               0.000000000              -0.000751993               0.005866966               0.001389609              -0.001015366               0.002294091               0.001278725               0.000000000               0.000000000               0.000000000               0.000000000              -0.000438511               0.005791041               0.001225633              -0.000888320               0.002226434               0.001338114               0.000000000               0.000000000               0.000000000               0.000000000              -0.000145412               0.005690393               0.001065494              -0.000765827               0.002152054               0.001386227               0.000000000               0.000000000               0.000000000               0.000000000               0.000120751               0.005563819               0.000898423              -0.000650195               0.002071319               0.001421125               0.000000000               0.000000000               0.000000000               0.000000000               0.000348595               0.005419417               0.000710322              -0.000546703               0.001988689               0.001441986               0.000000000               0.000000000               0.000000000               0.000000000               0.000521249               0.005271590               0.000496004              -0.000463479               0.001911672               0.001448193               0.000000000               0.000000000               0.000000000               0.000000000               0.000615062               0.005132483               0.000257157              -0.000410911               0.001847781               0.001436870               0.000000000               0.000000000               0.000000000               0.000000000               0.000632306               0.005063747               0.000130531              -0.000395853               0.001819850               0.001423997               0.000000000               0.000000000               0.000000000               0.000000000              -0.007786397              -0.000365929              -0.000716066              -0.002874156               0.000836070              -0.002038086               0.000000000               0.000000000               0.000000000               0.000000000              -0.005375289               0.000931360               0.000716197              -0.002132151               0.001021163              -0.001110988               0.000000000               0.000000000               0.000000000               0.000000000              -0.003779158               0.002137664               0.001987097              -0.001684390               0.001274008              -0.000410381               0.000000000               0.000000000               0.000000000               0.000000000              -0.002896677               0.003155061               0.002293752              -0.001480634               0.001545220               0.000064586               0.000000000               0.000000000               0.000000000               0.000000000              -0.002305351               0.003918866               0.002248777              -0.001354363               0.001757729               0.000403366               0.000000000               0.000000000               0.000000000               0.000000000              -0.001855453               0.004468752               0.002090523              -0.001254387               0.001907697               0.000653310               0.000000000               0.000000000               0.000000000               0.000000000              -0.001484383               0.004840762               0.001911460              -0.001161737               0.002000816               0.000839079               0.000000000               0.000000000               0.000000000               0.000000000              -0.001147167               0.005084629               0.001736406              -0.001065765               0.002050114               0.000984349               0.000000000               0.000000000               0.000000000               0.000000000              -0.000820205               0.005242908               0.001568779              -0.000962939               0.002068598               0.001105659               0.000000000               0.000000000               0.000000000               0.000000000              -0.000497233               0.005336799               0.001411753              -0.000853561               0.002063435               0.001209874               0.000000000               0.000000000               0.000000000               0.000000000              -0.000179754               0.005379714               0.001264824              -0.000739871               0.002039843               0.001299973               0.000000000               0.000000000               0.000000000               0.000000000               0.000132828               0.005386098               0.001121882              -0.000623451               0.002003165               0.001379714               0.000000000               0.000000000               0.000000000               0.000000000               0.000437404               0.005356329               0.000970875              -0.000505514               0.001953930               0.001448416               0.000000000               0.000000000               0.000000000               0.000000000               0.000730962               0.005296250               0.000795429              -0.000387920               0.001894705               0.001506786               0.000000000               0.000000000               0.000000000               0.000000000               0.001000828               0.005211960               0.000579690              -0.000276184               0.001829364               0.001553180               0.000000000               0.000000000               0.000000000               0.000000000               0.001224896               0.005110831               0.000313583              -0.000179518               0.001763433               0.001583915               0.000000000               0.000000000               0.000000000               0.000000000               0.001350283               0.005068873               0.000172544              -0.000127253               0.001732025               0.001604772               0.000000000               0.000000000               0.000000000               0.000000000              -0.009267252              -0.000752469              -0.000721980              -0.003381159               0.000876224              -0.002504935               0.000000000               0.000000000               0.000000000               0.000000000              -0.006155335               0.000163375               0.000407441              -0.002328670               0.000830676              -0.001497994               0.000000000               0.000000000               0.000000000               0.000000000              -0.003889450               0.000965789               0.001444964              -0.001579266               0.000848345              -0.000730921               0.000000000               0.000000000               0.000000000               0.000000000              -0.002718728               0.001903150               0.001747399              -0.001257415               0.001053514              -0.000203901               0.000000000               0.000000000               0.000000000               0.000000000              -0.002010883               0.002724410               0.001759557              -0.001094630               0.001273003               0.000178373               0.000000000               0.000000000               0.000000000               0.000000000              -0.001517822               0.003388512               0.001663951              -0.000992746               0.001460407               0.000467662               0.000000000               0.000000000               0.000000000               0.000000000              -0.001142959               0.003893230               0.001539896              -0.000915262               0.001602817               0.000687555               0.000000000               0.000000000               0.000000000               0.000000000              -0.000823099               0.004268618               0.001414912              -0.000842238               0.001703604               0.000861366               0.000000000               0.000000000               0.000000000               0.000000000              -0.000513561               0.004557534               0.001292283              -0.000762276               0.001773255               0.001010979               0.000000000               0.000000000               0.000000000               0.000000000              -0.000202702               0.004774255               0.001174145              -0.000672794               0.001815667               0.001142873               0.000000000               0.000000000               0.000000000               0.000000000               0.000112237               0.004928651               0.001061870              -0.000573992               0.001834198               0.001260206               0.000000000               0.000000000               0.000000000               0.000000000               0.000438582               0.005036561               0.000953584              -0.000465101               0.001833871               0.001368769               0.000000000               0.000000000               0.000000000               0.000000000               0.000780871               0.005104254               0.000840000              -0.000345205               0.001816469               0.001471264               0.000000000               0.000000000               0.000000000               0.000000000               0.001141612               0.005136627               0.000703200              -0.000213974               0.001783517               0.001569543               0.000000000               0.000000000               0.000000000               0.000000000               0.001521763               0.005130090               0.000524960              -0.000070600               0.001733546               0.001662946               0.000000000               0.000000000               0.000000000               0.000000000               0.001917043               0.005080052               0.000290158               0.000083884               0.001665373               0.001749256               0.000000000               0.000000000               0.000000000               0.000000000               0.002199252               0.005074327               0.000167507               0.000190427               0.001627950               0.001818377               0.000000000               0.000000000               0.000000000               0.000000000              -0.010252843              -0.000921514              -0.000441761              -0.003729624               0.000936030              -0.002793594               0.000000000               0.000000000               0.000000000               0.000000000              -0.006689900              -0.000290240               0.000176171              -0.002472431               0.000727392              -0.001745039               0.000000000               0.000000000               0.000000000               0.000000000              -0.003972023               0.000204990               0.000755889              -0.001515131               0.000573369              -0.000941761               0.000000000               0.000000000               0.000000000               0.000000000              -0.002590605               0.001052364               0.000942786              -0.001103021               0.000718456              -0.000384564               0.000000000               0.000000000               0.000000000               0.000000000              -0.001794164               0.001887013               0.000967232              -0.000908686               0.000931893               0.000023206               0.000000000               0.000000000               0.000000000               0.000000000              -0.001267968               0.002608918               0.000924904              -0.000801601               0.001136831               0.000335229               0.000000000               0.000000000               0.000000000               0.000000000              -0.000879223               0.003195071               0.000862076              -0.000729091               0.001308043               0.000578952               0.000000000               0.000000000               0.000000000               0.000000000              -0.000562369               0.003656726               0.000799929              -0.000667978               0.001441555               0.000773578               0.000000000               0.000000000               0.000000000               0.000000000              -0.000269380               0.004031665               0.000737169              -0.000604974               0.001545533               0.000940559               0.000000000               0.000000000               0.000000000               0.000000000               0.000026549               0.004334609               0.000672406              -0.000531869               0.001622145               0.001090276               0.000000000               0.000000000               0.000000000               0.000000000               0.000337247               0.004567918               0.000610437              -0.000444521               0.001670798               0.001226277               0.000000000               0.000000000               0.000000000               0.000000000               0.000675625               0.004751998               0.000552557              -0.000340640               0.001697530               0.001356890               0.000000000               0.000000000               0.000000000               0.000000000               0.001048713               0.004895417               0.000491039              -0.000218660               0.001704676               0.001486016               0.000000000               0.000000000               0.000000000               0.000000000               0.001465213               0.004995229               0.000415143              -0.000074949               0.001690043               0.001615094               0.000000000               0.000000000               0.000000000               0.000000000               0.001941077               0.005048332               0.000313333               0.000096861               0.001650473               0.001747335               0.000000000               0.000000000               0.000000000               0.000000000               0.002492303               0.005043725               0.000174130               0.000304145               0.001579843               0.001883988               0.000000000               0.000000000               0.000000000               0.000000000               0.002921550               0.005071930               0.000102730               0.000461585               0.001536765               0.001998350               0.000000000               0.000000000               0.000000000               0.000000000              -0.010599371              -0.000971450               0.000000000              -0.003853330               0.000960620              -0.002892710               0.000000000               0.000000000               0.000000000               0.000000000              -0.006879399              -0.000444476               0.000000000              -0.002524214               0.000693241              -0.001830972               0.000000000               0.000000000               0.000000000               0.000000000              -0.004002518              -0.000059756              -0.000000000              -0.001493474               0.000477903              -0.001015571               0.000000000               0.000000000               0.000000000               0.000000000              -0.002543790               0.000753339               0.000000000              -0.001048087               0.000600471              -0.000447616               0.000000000               0.000000000               0.000000000               0.000000000              -0.001715084               0.001587359               0.000000000              -0.000841575               0.000809639              -0.000031936               0.000000000               0.000000000               0.000000000               0.000000000              -0.001179389               0.002324570               0.000000000              -0.000732840               0.001019129               0.000286288               0.000000000               0.000000000               0.000000000               0.000000000              -0.000781195               0.002936642               0.000000000              -0.000660027               0.001198880               0.000538853               0.000000000               0.000000000               0.000000000               0.000000000              -0.000461565               0.003427424              -0.000000000              -0.000601513               0.001342967               0.000741454               0.000000000               0.000000000               0.000000000               0.000000000              -0.000176425               0.003834434               0.000000000              -0.000545462               0.001459953               0.000914490               0.000000000               0.000000000               0.000000000               0.000000000               0.000111001               0.004167701               0.000000000              -0.000479336               0.001548999               0.001069662               0.000000000               0.000000000               0.000000000               0.000000000               0.000421293               0.004427896              -0.000000000              -0.000395501               0.001607784               0.001212283               0.000000000               0.000000000               0.000000000               0.000000000               0.000764390               0.004639002              -0.000000000              -0.000293228               0.001644061               0.001350833               0.000000000               0.000000000               0.000000000               0.000000000               0.001148375               0.004808388              -0.000000000              -0.000170408               0.001659583               0.001489175               0.000000000               0.000000000               0.000000000               0.000000000               0.001587740               0.004933780              -0.000000000              -0.000021320               0.001651684               0.001630363               0.000000000               0.000000000               0.000000000               0.000000000               0.002102632               0.005010124              -0.000000000               0.000162220               0.001615951               0.001778171               0.000000000               0.000000000               0.000000000               0.000000000               0.002718073               0.005024528              -0.000000000               0.000391208               0.001544423               0.001935631               0.000000000               0.000000000               0.000000000               0.000000000               0.003208073               0.005068119              -0.000000000               0.000569507               0.001499520               0.002069027               0.000000000               0.000000000               0.000000000               0.000000000               0.002118872               0.022961906              -0.000000000              -0.002075656               0.008345777               0.006270121               0.000000000               0.000000000               0.000000000               0.000000000               0.002111621               0.017974170              -0.000000000              -0.001454910               0.006476300               0.005021390               0.000000000               0.000000000               0.000000000               0.000000000               0.002782964               0.013928904               0.000000000              -0.000697500               0.004875422               0.004177922               0.000000000               0.000000000               0.000000000               0.000000000               0.002681728               0.011671078               0.000000000              -0.000453235               0.004041399               0.003588164               0.000000000               0.000000000               0.000000000               0.000000000               0.002346788               0.010269503               0.000000000              -0.000403642               0.003557681               0.003154039               0.000000000               0.000000000               0.000000000               0.000000000               0.001964070               0.009318010              -0.000000000              -0.000428224               0.003248714               0.002820490               0.000000000               0.000000000               0.000000000               0.000000000               0.001601860               0.008614346              -0.000000000              -0.000476094               0.003030118               0.002554024               0.000000000               0.000000000               0.000000000               0.000000000               0.001285047               0.008050812              -0.000000000              -0.000524457               0.002858396               0.002333939               0.000000000               0.000000000               0.000000000               0.000000000               0.001020590               0.007566501              -0.000000000              -0.000563090               0.002709838               0.002146748               0.000000000               0.000000000               0.000000000               0.000000000               0.000796818               0.007121917               0.000000000              -0.000591431               0.002571092               0.001979661               0.000000000               0.000000000               0.000000000               0.000000000               0.000597054               0.006697245               0.000000000              -0.000613259               0.002436812               0.001823554               0.000000000               0.000000000               0.000000000               0.000000000               0.000417561               0.006279074              -0.000000000              -0.000628297               0.002302436               0.001674139               0.000000000               0.000000000               0.000000000               0.000000000               0.000263853               0.005851360               0.000000000              -0.000632473               0.002161258               0.001528785               0.000000000               0.000000000               0.000000000               0.000000000               0.000141648               0.005398226              -0.000000000              -0.000621659               0.002006610               0.001384951               0.000000000               0.000000000               0.000000000               0.000000000               0.000054676               0.004897335              -0.000000000              -0.000591662               0.001829649               0.001237987               0.000000000               0.000000000               0.000000000               0.000000000               0.000014752               0.004331244              -0.000000000              -0.000535872               0.001622357               0.001086485               0.000000000               0.000000000               0.000000000               0.000000000              -0.000038724               0.003895522              -0.000000000              -0.000501461               0.001465648               0.000964187               0.000000000               0.000000000               0.000000000               0.000000000               0.002201075               0.022503073              -0.001572937              -0.001987476               0.008163441               0.006175965               0.000000000               0.000000000               0.000000000               0.000000000               0.002077442               0.017678371              -0.000788066              -0.001430752               0.006369649               0.004938897               0.000000000               0.000000000               0.000000000               0.000000000               0.002627383               0.013814206              -0.000003709              -0.000741505               0.004851858               0.004110352               0.000000000               0.000000000               0.000000000               0.000000000               0.002478027               0.011649396               0.000328781              -0.000526913               0.004058731               0.003531818               0.000000000               0.000000000               0.000000000               0.000000000               0.002131942               0.010296416               0.000463839              -0.000487573               0.003594629               0.003107056               0.000000000               0.000000000               0.000000000               0.000000000               0.001759270               0.009368045               0.000510706              -0.000511278               0.003293076               0.002781798               0.000000000               0.000000000               0.000000000               0.000000000               0.001414973               0.008674629               0.000515156              -0.000553712               0.003076085               0.002522372               0.000000000               0.000000000               0.000000000               0.000000000               0.001113544               0.008112933               0.000498684              -0.000596536               0.002903130               0.002306593               0.000000000               0.000000000               0.000000000               0.000000000               0.000863142               0.007625444               0.000471018              -0.000629501               0.002751623               0.002122122               0.000000000               0.000000000               0.000000000               0.000000000               0.000654713               0.007178589               0.000440815              -0.000651805               0.002610107               0.001958303               0.000000000               0.000000000               0.000000000               0.000000000               0.000474043               0.006752758               0.000413072              -0.000666327               0.002473006               0.001806679               0.000000000               0.000000000               0.000000000               0.000000000               0.000321122               0.006335459               0.000383326              -0.000671510               0.002335635               0.001664125               0.000000000               0.000000000               0.000000000               0.000000000               0.000194877               0.005914425               0.000347715              -0.000666223               0.002193530               0.001527307               0.000000000               0.000000000               0.000000000               0.000000000               0.000096888               0.005475901               0.000298078              -0.000648153               0.002041333               0.001393180               0.000000000               0.000000000               0.000000000               0.000000000               0.000030829               0.005002166               0.000229248              -0.000613708               0.001871942               0.001258233               0.000000000               0.000000000               0.000000000               0.000000000               0.000002276               0.004479461               0.000131960              -0.000559078               0.001679498               0.001120420               0.000000000               0.000000000               0.000000000               0.000000000              -0.000042767               0.004088821               0.000081821              -0.000527139               0.001538640               0.001011501               0.000000000               0.000000000               0.000000000               0.000000000               0.002396706               0.021183607              -0.002920149              -0.001749183               0.007644192               0.005895009               0.000000000               0.000000000               0.000000000               0.000000000               0.001953753               0.016834794              -0.001461461              -0.001371689               0.006068771               0.004697082               0.000000000               0.000000000               0.000000000               0.000000000               0.002164404               0.013473903              -0.000019572              -0.000872584               0.004782118               0.003909533               0.000000000               0.000000000               0.000000000               0.000000000               0.001892622               0.011564429               0.000569132              -0.000735819               0.004100044               0.003364225               0.000000000               0.000000000               0.000000000               0.000000000               0.001529338               0.010341058               0.000796545              -0.000719129               0.003686695               0.002967566               0.000000000               0.000000000               0.000000000               0.000000000               0.001184357               0.009471123               0.000867281              -0.000739755               0.003403594               0.002663839               0.000000000               0.000000000               0.000000000               0.000000000               0.000889384               0.008800322               0.000866019              -0.000766519               0.003188918               0.002422398               0.000000000               0.000000000               0.000000000               0.000000000               0.000645909               0.008244189               0.000829421              -0.000788306               0.003010804               0.002222498               0.000000000               0.000000000               0.000000000               0.000000000               0.000447791               0.007751453               0.000778484              -0.000801008               0.002850795               0.002049786               0.000000000               0.000000000               0.000000000               0.000000000               0.000293909               0.007302026               0.000726324              -0.000802536               0.002701496               0.001898961               0.000000000               0.000000000               0.000000000               0.000000000               0.000171215               0.006875577               0.000676089              -0.000795240               0.002556916               0.001761676               0.000000000               0.000000000               0.000000000               0.000000000               0.000073589               0.006461676               0.000623303              -0.000780112               0.002413908               0.001633796               0.000000000               0.000000000               0.000000000               0.000000000               0.000004937               0.006057442               0.000560528              -0.000755327               0.002270903               0.001515576               0.000000000               0.000000000               0.000000000               0.000000000              -0.000036934               0.005652869               0.000472997              -0.000720457               0.002124423               0.001403966               0.000000000               0.000000000               0.000000000               0.000000000              -0.000051092               0.005240053               0.000353076              -0.000674164               0.001971388               0.001297224               0.000000000               0.000000000               0.000000000               0.000000000              -0.000034085               0.004820762               0.000195686              -0.000615376               0.001812030               0.001196654               0.000000000               0.000000000               0.000000000               0.000000000              -0.000048404               0.004531792               0.000118204              -0.000584624               0.001705457               0.001120833               0.000000000               0.000000000               0.000000000               0.000000000               0.002594178               0.019167985              -0.003895262              -0.001423180               0.006863657               0.005440477               0.000000000               0.000000000               0.000000000               0.000000000               0.001704721               0.015560317              -0.001958444              -0.001305767               0.005621976               0.004316209               0.000000000               0.000000000               0.000000000               0.000000000               0.001443135               0.012944163              -0.000071707              -0.001076842               0.004673625               0.003596783               0.000000000               0.000000000               0.000000000               0.000000000               0.001027663               0.011389943               0.000656245              -0.001038367               0.004142732               0.003104365               0.000000000               0.000000000               0.000000000               0.000000000               0.000663118               0.010334166               0.000919602              -0.001043099               0.003792387               0.002749288               0.000000000               0.000000000               0.000000000               0.000000000               0.000380649               0.009538228               0.000991372              -0.001049533               0.003529222               0.002479689               0.000000000               0.000000000               0.000000000               0.000000000               0.000170061               0.008892066               0.000981971              -0.001047733               0.003313237               0.002265504               0.000000000               0.000000000               0.000000000               0.000000000               0.000019601               0.008336138               0.000932766              -0.001034665               0.003123573               0.002088908               0.000000000               0.000000000               0.000000000               0.000000000              -0.000085948               0.007839572               0.000868601              -0.001012175               0.002950556               0.001938381               0.000000000               0.000000000               0.000000000               0.000000000              -0.000158419               0.007382959               0.000803894              -0.000982275               0.002788387               0.001806112               0.000000000               0.000000000               0.000000000               0.000000000              -0.000202892               0.006954517               0.000741365              -0.000945397               0.002633281               0.001687884               0.000000000               0.000000000               0.000000000               0.000000000              -0.000219117               0.006551107               0.000679257              -0.000901055               0.002484032               0.001582977               0.000000000               0.000000000               0.000000000               0.000000000              -0.000209982               0.006169516               0.000605474              -0.000849931               0.002339795               0.001489864               0.000000000               0.000000000               0.000000000               0.000000000              -0.000179860               0.005803552               0.000501785              -0.000792890               0.002198794               0.001405905               0.000000000               0.000000000               0.000000000               0.000000000              -0.000130051               0.005460147               0.000364365              -0.000731286               0.002063793               0.001332507               0.000000000               0.000000000               0.000000000               0.000000000              -0.000065859               0.005155324               0.000196513              -0.000669111               0.001941461               0.001272350               0.000000000               0.000000000               0.000000000               0.000000000              -0.000051753               0.004969783               0.000115938              -0.000640629               0.001870121               0.001229492               0.000000000               0.000000000               0.000000000               0.000000000               0.002665988               0.016694797              -0.004406100              -0.001087105               0.005927244               0.004840139               0.000000000               0.000000000               0.000000000               0.000000000               0.001303176               0.014019272              -0.002247794              -0.001263716               0.005094282               0.003830566               0.000000000               0.000000000               0.000000000               0.000000000               0.000542851               0.012290316              -0.000183200              -0.001332717               0.004540970               0.003208253               0.000000000               0.000000000               0.000000000               0.000000000               0.000029761               0.011120994               0.000562397              -0.001378961               0.004166615               0.002787654               0.000000000               0.000000000               0.000000000               0.000000000              -0.000285761               0.010231511               0.000816394              -0.001386096               0.003872501               0.002486406               0.000000000               0.000000000               0.000000000               0.000000000              -0.000466135               0.009502991               0.000877579              -0.001362671               0.003621856               0.002259184               0.000000000               0.000000000               0.000000000               0.000000000              -0.000560532               0.008873541               0.000863139              -0.001319389               0.003397614               0.002078225               0.000000000               0.000000000               0.000000000               0.000000000              -0.000598738               0.008310971               0.000815812              -0.001263395               0.003191428               0.001928032               0.000000000               0.000000000               0.000000000               0.000000000              -0.000601901               0.007804176               0.000756589              -0.001201232               0.003001777               0.001800545               0.000000000               0.000000000               0.000000000               0.000000000              -0.000575691               0.007344666               0.000696974              -0.001133965               0.002826186               0.001692221               0.000000000               0.000000000               0.000000000               0.000000000              -0.000525310               0.006923453               0.000640480              -0.001062420               0.002661935               0.001599514               0.000000000               0.000000000               0.000000000               0.000000000              -0.000454982               0.006534270               0.000583581              -0.000987399               0.002507201               0.001519802               0.000000000               0.000000000               0.000000000               0.000000000              -0.000365640               0.006173344               0.000512337              -0.000908781               0.002360688               0.001451907               0.000000000               0.000000000               0.000000000               0.000000000              -0.000264988               0.005845113               0.000412969              -0.000830008               0.002225021               0.001395013               0.000000000               0.000000000               0.000000000               0.000000000              -0.000163845               0.005565530               0.000289717              -0.000757131               0.002107535               0.001350404               0.000000000               0.000000000               0.000000000               0.000000000              -0.000075542               0.005352069               0.000150390              -0.000697335               0.002016450               0.001319115               0.000000000               0.000000000               0.000000000               0.000000000              -0.000047964               0.005243501               0.000084599              -0.000673422               0.001972290               0.001298868               0.000000000               0.000000000               0.000000000               0.000000000               0.002482069               0.014007548              -0.004453652              -0.000820170               0.004942525               0.004122355               0.000000000               0.000000000               0.000000000               0.000000000               0.000741197               0.012377259              -0.002357393              -0.001269207               0.004548780               0.003279573               0.000000000               0.000000000               0.000000000               0.000000000              -0.000430585               0.011569247              -0.000376871              -0.001607621               0.004392251               0.002784629               0.000000000               0.000000000               0.000000000               0.000000000              -0.000951241               0.010755057               0.000298217              -0.001701093               0.004152014               0.002450921               0.000000000               0.000000000               0.000000000               0.000000000              -0.001157645               0.010005162               0.000520503              -0.001684758               0.003896606               0.002211849               0.000000000               0.000000000               0.000000000               0.000000000              -0.001202766               0.009328628               0.000575527              -0.001617112               0.003648549               0.002031437               0.000000000               0.000000000               0.000000000               0.000000000              -0.001161615               0.008711583               0.000570209              -0.001524550               0.003412015               0.001887465               0.000000000               0.000000000               0.000000000               0.000000000              -0.001076117               0.008149441               0.000543271              -0.001422220               0.003190527               0.001768306               0.000000000               0.000000000               0.000000000               0.000000000              -0.000967707               0.007643099               0.000512511              -0.001318274               0.002987099               0.001668825               0.000000000               0.000000000               0.000000000               0.000000000              -0.000843337               0.007192794               0.000479999              -0.001215347               0.002802690               0.001587342               0.000000000               0.000000000               0.000000000               0.000000000              -0.000709350               0.006788166               0.000442939              -0.001114524               0.002634207               0.001519683               0.000000000               0.000000000               0.000000000               0.000000000              -0.000569214               0.006416340               0.000399370              -0.001015495               0.002477257               0.001461762               0.000000000               0.000000000               0.000000000               0.000000000              -0.000422119               0.006075808               0.000342496              -0.000917769               0.002331172               0.001413403               0.000000000               0.000000000               0.000000000               0.000000000              -0.000277088               0.005782919               0.000266447              -0.000826771               0.002203211               0.001376440               0.000000000               0.000000000               0.000000000               0.000000000              -0.000154002               0.005553695               0.000176684              -0.000751961               0.002101867               0.001349906               0.000000000               0.000000000               0.000000000               0.000000000              -0.000064347               0.005397897               0.000086643              -0.000698866               0.002032236               0.001333371               0.000000000               0.000000000               0.000000000               0.000000000              -0.000035366               0.005328980               0.000047968              -0.000679383               0.002002770               0.001323387               0.000000000               0.000000000               0.000000000               0.000000000               0.001978038               0.011331636              -0.004116191              -0.000674693               0.004002071               0.003327378               0.000000000               0.000000000               0.000000000               0.000000000               0.000053887               0.010767335              -0.002340324              -0.001325707               0.004030978               0.002705270               0.000000000               0.000000000               0.000000000               0.000000000              -0.001364699               0.010803050              -0.000657607              -0.001862139               0.004221694               0.002359555               0.000000000               0.000000000               0.000000000               0.000000000              -0.001791982               0.010278320              -0.000098641              -0.001956779               0.004078332               0.002121553               0.000000000               0.000000000               0.000000000               0.000000000              -0.001840712               0.009641717               0.000100055              -0.001895477               0.003845699               0.001950222               0.000000000               0.000000000               0.000000000               0.000000000              -0.001733216               0.009010813               0.000171346              -0.001776303               0.003595675               0.001819372               0.000000000               0.000000000               0.000000000               0.000000000              -0.001556765               0.008420016               0.000196344              -0.001636285               0.003352072               0.001715787               0.000000000               0.000000000               0.000000000               0.000000000              -0.001351846               0.007877877               0.000208210              -0.001491673               0.003123157               0.001631484               0.000000000               0.000000000               0.000000000               0.000000000              -0.001143670               0.007389253               0.000218276              -0.001352530               0.002913903               0.001561373               0.000000000               0.000000000               0.000000000               0.000000000              -0.000937744               0.006954802               0.000224090              -0.001221001               0.002725245               0.001504243               0.000000000               0.000000000               0.000000000               0.000000000              -0.000736473               0.006565819               0.000216365              -0.001096902               0.002554218               0.001457316               0.000000000               0.000000000               0.000000000               0.000000000              -0.000547575               0.006209212               0.000193739              -0.000981490               0.002396880               0.001415390               0.000000000               0.000000000               0.000000000               0.000000000              -0.000373508               0.005893232               0.000160380              -0.000876717               0.002256630               0.001379913               0.000000000               0.000000000               0.000000000               0.000000000              -0.000224507               0.005636804               0.000117444              -0.000788789               0.002141845               0.001353057               0.000000000               0.000000000               0.000000000               0.000000000              -0.000113857               0.005448409               0.000070413              -0.000723746               0.002057367               0.001333621               0.000000000               0.000000000               0.000000000               0.000000000              -0.000043199               0.005325506               0.000030480              -0.000681886               0.002002446               0.001320560               0.000000000               0.000000000               0.000000000               0.000000000              -0.000023958               0.005269740               0.000017537              -0.000667700               0.001979129               0.001311429               0.000000000               0.000000000               0.000000000               0.000000000               0.001184025               0.008845756              -0.003488292              -0.000661712               0.003169125               0.002507414               0.000000000               0.000000000               0.000000000               0.000000000              -0.000719376               0.009277862              -0.002243343              -0.001429497               0.003569088               0.002139592               0.000000000               0.000000000               0.000000000               0.000000000              -0.002169565               0.009998446              -0.001019436              -0.002063388               0.004020578               0.001957190               0.000000000               0.000000000               0.000000000               0.000000000              -0.002407406               0.009701419              -0.000569048              -0.002115450               0.003938924               0.001823474               0.000000000               0.000000000               0.000000000               0.000000000              -0.002273937               0.009163237              -0.000363573              -0.001998126               0.003720424               0.001722298               0.000000000               0.000000000               0.000000000               0.000000000              -0.002016829               0.008588320              -0.000250152              -0.001829846               0.003472693               0.001642847               0.000000000               0.000000000               0.000000000               0.000000000              -0.001723048               0.008040648              -0.000175163              -0.001651220               0.003230596               0.001579376               0.000000000               0.000000000               0.000000000               0.000000000              -0.001425110               0.007533936              -0.000117936              -0.001476155               0.003003338               0.001527184               0.000000000               0.000000000               0.000000000               0.000000000              -0.001142565               0.007071796              -0.000064101              -0.001312433               0.002794719               0.001482286               0.000000000               0.000000000               0.000000000               0.000000000              -0.000880523               0.006652196              -0.000016454              -0.001161718               0.002604616               0.001442898               0.000000000               0.000000000               0.000000000               0.000000000              -0.000639653               0.006271015               0.000011588              -0.001023744               0.002431566               0.001407821               0.000000000               0.000000000               0.000000000               0.000000000              -0.000429806               0.005932571               0.000018692              -0.000902746               0.002278419               0.001375673               0.000000000               0.000000000               0.000000000               0.000000000              -0.000261235               0.005652339               0.000015801              -0.000804504               0.002152262               0.001347758               0.000000000               0.000000000               0.000000000               0.000000000              -0.000138003               0.005438679               0.000009082              -0.000731584               0.002056736               0.001325152               0.000000000               0.000000000               0.000000000               0.000000000              -0.000060061               0.005288390              -0.000000022              -0.000683570               0.001990636               0.001307066               0.000000000               0.000000000               0.000000000               0.000000000              -0.000020535               0.005188546              -0.000003564              -0.000656267               0.001948254               0.001291986               0.000000000               0.000000000               0.000000000               0.000000000              -0.000014670               0.005139973               0.000001050              -0.000647996               0.001929306               0.001281310               0.000000000               0.000000000               0.000000000               0.000000000               0.000213052               0.006727539              -0.002689968              -0.000761048               0.002496172               0.001735124               0.000000000               0.000000000               0.000000000               0.000000000              -0.001469483               0.007932502              -0.002119433              -0.001542616               0.003158346               0.001615730               0.000000000               0.000000000               0.000000000               0.000000000              -0.002785689               0.009200112              -0.001449187              -0.002194642               0.003798220               0.001603578               0.000000000               0.000000000               0.000000000               0.000000000              -0.002821050               0.009142942              -0.001067556              -0.002200756               0.003781202               0.001580446               0.000000000               0.000000000               0.000000000               0.000000000              -0.002537302               0.008732843              -0.000829171              -0.002043088               0.003591948               0.001548859               0.000000000               0.000000000               0.000000000               0.000000000              -0.002159849               0.008247146              -0.000659401              -0.001840832               0.003362632               0.001521800               0.000000000               0.000000000               0.000000000               0.000000000              -0.001775258               0.007759323              -0.000529759              -0.001635633               0.003131626               0.001495993               0.000000000               0.000000000               0.000000000               0.000000000              -0.001408814               0.007295740              -0.000428510              -0.001440269               0.002911979               0.001471710               0.000000000               0.000000000               0.000000000               0.000000000              -0.001073017               0.006864696              -0.000336413              -0.001260465               0.002708364               0.001447899               0.000000000               0.000000000               0.000000000               0.000000000              -0.000774788               0.006464792              -0.000251868              -0.001098642               0.002521123               0.001422481               0.000000000               0.000000000               0.000000000               0.000000000              -0.000516182               0.006092096              -0.000182391              -0.000955078               0.002349038               0.001393960               0.000000000               0.000000000               0.000000000               0.000000000              -0.000307805               0.005766164              -0.000132307              -0.000836195               0.002200767               0.001364572               0.000000000               0.000000000               0.000000000               0.000000000              -0.000156399               0.005506879              -0.000094853              -0.000747008               0.002084611               0.001337603               0.000000000               0.000000000               0.000000000               0.000000000              -0.000065501               0.005314282              -0.000063129              -0.000688846               0.002001025               0.001312179               0.000000000               0.000000000               0.000000000               0.000000000              -0.000027650               0.005177959              -0.000038766              -0.000657612               0.001945173               0.001287561               0.000000000               0.000000000               0.000000000               0.000000000              -0.000023017               0.005090128              -0.000019430              -0.000644896               0.001911658               0.001266762               0.000000000               0.000000000               0.000000000               0.000000000              -0.000030004               0.005049307              -0.000007252              -0.000642413               0.001897223               0.001254810               0.000000000               0.000000000               0.000000000               0.000000000              -0.000946196               0.004736762              -0.001838203              -0.000946918               0.001894544               0.000947626               0.000000000               0.000000000               0.000000000               0.000000000              -0.002083673               0.006370334              -0.001977223              -0.001577666               0.002649311               0.001071646               0.000000000               0.000000000               0.000000000               0.000000000              -0.003124713               0.008037214              -0.001906111              -0.002176414               0.003404515               0.001228101               0.000000000               0.000000000               0.000000000               0.000000000              -0.003055451               0.008342790              -0.001601494              -0.002188638               0.003510448               0.001321810               0.000000000               0.000000000               0.000000000               0.000000000              -0.002716876               0.008187061              -0.001328077              -0.002042206               0.003409728               0.001367522               0.000000000               0.000000000               0.000000000               0.000000000              -0.002307979               0.007882368              -0.001104631              -0.001850784               0.003244357               0.001393574               0.000000000               0.000000000               0.000000000               0.000000000              -0.001892885               0.007528931              -0.000925296              -0.001650944               0.003059933               0.001408989               0.000000000               0.000000000               0.000000000               0.000000000              -0.001502096               0.007158605              -0.000780163              -0.001458108               0.002872214               0.001414106               0.000000000               0.000000000               0.000000000               0.000000000              -0.001146125               0.006795547              -0.000649848              -0.001279237               0.002691572               0.001412335               0.000000000               0.000000000               0.000000000               0.000000000              -0.000832884               0.006452426              -0.000528591              -0.001118882               0.002523748               0.001404866               0.000000000               0.000000000               0.000000000               0.000000000              -0.000563609               0.006125677              -0.000416842              -0.000977061               0.002367559               0.001390498               0.000000000               0.000000000               0.000000000               0.000000000              -0.000343690               0.005821640              -0.000317921              -0.000856587               0.002226056               0.001369469               0.000000000               0.000000000               0.000000000               0.000000000              -0.000181773               0.005558549              -0.000229816              -0.000762982               0.002107159               0.001344177               0.000000000               0.000000000               0.000000000               0.000000000              -0.000081310               0.005345247              -0.000150865              -0.000698645               0.002014613               0.001315968               0.000000000               0.000000000               0.000000000               0.000000000              -0.000040317               0.005184663              -0.000085170              -0.000663200               0.001949270               0.001286070               0.000000000               0.000000000               0.000000000               0.000000000              -0.000045224               0.005074911              -0.000034400              -0.000651321               0.001908727               0.001257406               0.000000000               0.000000000               0.000000000               0.000000000              -0.000062946               0.005023203              -0.000010512              -0.000651504               0.001891552               0.001240049               0.000000000               0.000000000               0.000000000               0.000000000              -0.002442475               0.002924871              -0.000988354              -0.001281534               0.001402124               0.000120590               0.000000000               0.000000000               0.000000000               0.000000000              -0.002773061               0.004801404              -0.001761391              -0.001640070               0.002147142               0.000507071               0.000000000               0.000000000               0.000000000               0.000000000              -0.003357725               0.006687149              -0.002267868              -0.002095036               0.002927372               0.000832336               0.000000000               0.000000000               0.000000000               0.000000000              -0.003196387               0.007344350              -0.002109285              -0.002116684               0.003153653               0.001036969               0.000000000               0.000000000               0.000000000               0.000000000              -0.002830570               0.007486976              -0.001838508              -0.001997331               0.003161410               0.001164079               0.000000000               0.000000000               0.000000000               0.000000000              -0.002419791               0.007401190              -0.001582139              -0.001832566               0.003077894               0.001245327               0.000000000               0.000000000               0.000000000               0.000000000              -0.002003145               0.007215626              -0.001364019              -0.001653129               0.002956227               0.001303098               0.000000000               0.000000000               0.000000000               0.000000000              -0.001608525               0.006974475              -0.001178886              -0.001475003               0.002816469               0.001341466               0.000000000               0.000000000               0.000000000               0.000000000              -0.001241914               0.006708644              -0.001014049              -0.001304295               0.002670957               0.001366662               0.000000000               0.000000000               0.000000000               0.000000000              -0.000911345               0.006440100              -0.000861026              -0.001146764               0.002528933               0.001382169               0.000000000               0.000000000               0.000000000               0.000000000              -0.000621908               0.006174362              -0.000717651              -0.001005009               0.002393103               0.001388094               0.000000000               0.000000000               0.000000000               0.000000000              -0.000376477               0.005910356              -0.000578918              -0.000879971               0.002263423               0.001383451               0.000000000               0.000000000               0.000000000               0.000000000              -0.000184998               0.005661018              -0.000444606              -0.000777000               0.002145987               0.001368987               0.000000000               0.000000000               0.000000000               0.000000000              -0.000054136               0.005436484              -0.000314465              -0.000699860               0.002045430               0.001345570               0.000000000               0.000000000               0.000000000               0.000000000               0.000008633               0.005252338              -0.000191416              -0.000653303               0.001968529               0.001315226               0.000000000               0.000000000               0.000000000               0.000000000               0.000002258               0.005109126              -0.000084473              -0.000637792               0.001915622               0.001277830               0.000000000               0.000000000               0.000000000               0.000000000              -0.000029771               0.005038183              -0.000032421              -0.000640935               0.001893023               0.001252087               0.000000000               0.000000000               0.000000000               0.000000000              -0.004171364               0.001437826              -0.000208657              -0.001743987               0.001060597              -0.000683390               0.000000000               0.000000000               0.000000000               0.000000000              -0.003590506               0.003319173              -0.001448243              -0.001761333               0.001693490              -0.000067843               0.000000000               0.000000000               0.000000000               0.000000000              -0.003527976               0.005163952              -0.002417788              -0.001968481               0.002377459               0.000408979               0.000000000               0.000000000               0.000000000               0.000000000              -0.003194210               0.006068080              -0.002446122              -0.001956335               0.002674784               0.000718449               0.000000000               0.000000000               0.000000000               0.000000000              -0.002786390               0.006482858              -0.002229113              -0.001855250               0.002779347               0.000924097               0.000000000               0.000000000               0.000000000               0.000000000              -0.002377677               0.006632565              -0.001976268              -0.001720696               0.002784398               0.001063702               0.000000000               0.000000000               0.000000000               0.000000000              -0.001976604               0.006638191              -0.001742911              -0.001570997               0.002736373               0.001165376               0.000000000               0.000000000               0.000000000               0.000000000              -0.001593724               0.006556005              -0.001535255              -0.001417144               0.002657694               0.001240550               0.000000000               0.000000000               0.000000000               0.000000000              -0.001233063               0.006416969              -0.001348146              -0.001264517               0.002560474               0.001295957               0.000000000               0.000000000               0.000000000               0.000000000              -0.000896771               0.006250499              -0.001175662              -0.001117599               0.002456012               0.001338413               0.000000000               0.000000000               0.000000000               0.000000000              -0.000591087               0.006069204              -0.001014527              -0.000980306               0.002349816               0.001369510               0.000000000               0.000000000               0.000000000               0.000000000              -0.000321615               0.005873639              -0.000855578              -0.000854809               0.002242796               0.001387987               0.000000000               0.000000000               0.000000000               0.000000000              -0.000093437               0.005672288              -0.000693426              -0.000744073               0.002138768               0.001394695               0.000000000               0.000000000               0.000000000               0.000000000               0.000078298               0.005473127              -0.000522349              -0.000654778               0.002042616               0.001387839               0.000000000               0.000000000               0.000000000               0.000000000               0.000179738               0.005289953              -0.000342293              -0.000593841               0.001961247               0.001367406               0.000000000               0.000000000               0.000000000               0.000000000               0.000197862               0.005132629              -0.000165084              -0.000567379               0.001899986               0.001332607               0.000000000               0.000000000               0.000000000               0.000000000               0.000167626               0.005052696              -0.000074338              -0.000568726               0.001873791               0.001305065               0.000000000               0.000000000               0.000000000               0.000000000              -0.006013650               0.000346336               0.000391246              -0.002298409               0.000881576              -0.001416833               0.000000000               0.000000000               0.000000000               0.000000000              -0.004483088               0.002004101              -0.001080226              -0.001931668               0.001311913              -0.000619754               0.000000000               0.000000000               0.000000000               0.000000000              -0.003661839               0.003592865              -0.002323805              -0.001822294               0.001805040              -0.000017255               0.000000000               0.000000000               0.000000000               0.000000000              -0.003076248               0.004611561              -0.002525519              -0.001730035               0.002113849               0.000383814               0.000000000               0.000000000               0.000000000               0.000000000              -0.002592497               0.005241338              -0.002393147              -0.001627350               0.002289544               0.000662194               0.000000000               0.000000000               0.000000000               0.000000000              -0.002172545               0.005614833              -0.002177546              -0.001516556               0.002377110               0.000860554               0.000000000               0.000000000               0.000000000               0.000000000              -0.001791729               0.005813192              -0.001959194              -0.001398545               0.002403892               0.001005347               0.000000000               0.000000000               0.000000000               0.000000000              -0.001429496               0.005898608              -0.001755111              -0.001273385               0.002390644               0.001117259               0.000000000               0.000000000               0.000000000               0.000000000              -0.001083534               0.005908216              -0.001564912              -0.001144850               0.002351002               0.001206152               0.000000000               0.000000000               0.000000000               0.000000000              -0.000751993               0.005866966              -0.001389609              -0.001015366               0.002294091               0.001278725               0.000000000               0.000000000               0.000000000               0.000000000              -0.000438511               0.005791041              -0.001225633              -0.000888320               0.002226434               0.001338114               0.000000000               0.000000000               0.000000000               0.000000000              -0.000145412               0.005690393              -0.001065494              -0.000765827               0.002152054               0.001386227               0.000000000               0.000000000               0.000000000               0.000000000               0.000120751               0.005563819              -0.000898423              -0.000650195               0.002071319               0.001421125               0.000000000               0.000000000               0.000000000               0.000000000               0.000348595               0.005419417              -0.000710322              -0.000546703               0.001988689               0.001441986               0.000000000               0.000000000               0.000000000               0.000000000               0.000521249               0.005271590              -0.000496004              -0.000463479               0.001911672               0.001448193               0.000000000               0.000000000               0.000000000               0.000000000               0.000615062               0.005132483              -0.000257157              -0.000410911               0.001847781               0.001436870               0.000000000               0.000000000               0.000000000               0.000000000               0.000632306               0.005063747              -0.000130531              -0.000395853               0.001819850               0.001423997               0.000000000               0.000000000               0.000000000               0.000000000              -0.007786397              -0.000365929               0.000716066              -0.002874156               0.000836070              -0.002038086               0.000000000               0.000000000               0.000000000               0.000000000              -0.005375289               0.000931360              -0.000716197              -0.002132151               0.001021163              -0.001110988               0.000000000               0.000000000               0.000000000               0.000000000              -0.003779158               0.002137664              -0.001987097              -0.001684390               0.001274008              -0.000410381               0.000000000               0.000000000               0.000000000               0.000000000              -0.002896677               0.003155061              -0.002293752              -0.001480634               0.001545220               0.000064586               0.000000000               0.000000000               0.000000000               0.000000000              -0.002305351               0.003918866              -0.002248777              -0.001354363               0.001757729               0.000403366               0.000000000               0.000000000               0.000000000               0.000000000              -0.001855453               0.004468752              -0.002090523              -0.001254387               0.001907697               0.000653310               0.000000000               0.000000000               0.000000000               0.000000000              -0.001484383               0.004840762              -0.001911460              -0.001161737               0.002000816               0.000839079               0.000000000               0.000000000               0.000000000               0.000000000              -0.001147167               0.005084629              -0.001736406              -0.001065765               0.002050114               0.000984349               0.000000000               0.000000000               0.000000000               0.000000000              -0.000820205               0.005242908              -0.001568779              -0.000962939               0.002068598               0.001105659               0.000000000               0.000000000               0.000000000               0.000000000              -0.000497233               0.005336799              -0.001411753              -0.000853561               0.002063435               0.001209874               0.000000000               0.000000000               0.000000000               0.000000000              -0.000179754               0.005379714              -0.001264824              -0.000739871               0.002039843               0.001299973               0.000000000               0.000000000               0.000000000               0.000000000               0.000132828               0.005386098              -0.001121882              -0.000623451               0.002003165               0.001379714               0.000000000               0.000000000               0.000000000               0.000000000               0.000437404               0.005356329              -0.000970875              -0.000505514               0.001953930               0.001448416               0.000000000               0.000000000               0.000000000               0.000000000               0.000730962               0.005296250              -0.000795429              -0.000387920               0.001894705               0.001506786               0.000000000               0.000000000               0.000000000               0.000000000               0.001000828               0.005211960              -0.000579690              -0.000276184               0.001829364               0.001553180               0.000000000               0.000000000               0.000000000               0.000000000               0.001224896               0.005110831              -0.000313583              -0.000179518               0.001763433               0.001583915               0.000000000               0.000000000               0.000000000               0.000000000               0.001350283               0.005068873              -0.000172544              -0.000127253               0.001732025               0.001604772               0.000000000               0.000000000               0.000000000               0.000000000              -0.009267252              -0.000752469               0.000721980              -0.003381159               0.000876224              -0.002504935               0.000000000               0.000000000               0.000000000               0.000000000              -0.006155335               0.000163375              -0.000407441              -0.002328670               0.000830676              -0.001497994               0.000000000               0.000000000               0.000000000               0.000000000              -0.003889450               0.000965789              -0.001444964              -0.001579266               0.000848345              -0.000730921               0.000000000               0.000000000               0.000000000               0.000000000              -0.002718728               0.001903150              -0.001747399              -0.001257415               0.001053514              -0.000203901               0.000000000               0.000000000               0.000000000               0.000000000              -0.002010883               0.002724410              -0.001759557              -0.001094630               0.001273003               0.000178373               0.000000000               0.000000000               0.000000000               0.000000000              -0.001517822               0.003388512              -0.001663951              -0.000992746               0.001460407               0.000467662               0.000000000               0.000000000               0.000000000               0.000000000              -0.001142959               0.003893230              -0.001539896              -0.000915262               0.001602817               0.000687555               0.000000000               0.000000000               0.000000000               0.000000000              -0.000823099               0.004268618              -0.001414912              -0.000842238               0.001703604               0.000861366               0.000000000               0.000000000               0.000000000               0.000000000              -0.000513561               0.004557534              -0.001292283              -0.000762276               0.001773255               0.001010979               0.000000000               0.000000000               0.000000000               0.000000000              -0.000202702               0.004774255              -0.001174145              -0.000672794               0.001815667               0.001142873               0.000000000               0.000000000               0.000000000               0.000000000               0.000112237               0.004928651              -0.001061870              -0.000573992               0.001834198               0.001260206               0.000000000               0.000000000               0.000000000               0.000000000               0.000438582               0.005036561              -0.000953584              -0.000465101               0.001833871               0.001368769               0.000000000               0.000000000               0.000000000               0.000000000               0.000780871               0.005104254              -0.000840000              -0.000345205               0.001816469               0.001471264               0.000000000               0.000000000               0.000000000               0.000000000               0.001141612               0.005136627              -0.000703200              -0.000213974               0.001783517               0.001569543               0.000000000               0.000000000               0.000000000               0.000000000               0.001521763               0.005130090              -0.000524960              -0.000070600               0.001733546               0.001662946               0.000000000               0.000000000               0.000000000               0.000000000               0.001917043               0.005080052              -0.000290158               0.000083884               0.001665373               0.001749256               0.000000000               0.000000000               0.000000000               0.000000000               0.002199252               0.005074327              -0.000167507               0.000190427               0.001627950               0.001818377               0.000000000               0.000000000               0.000000000               0.000000000              -0.010252843              -0.000921514               0.000441761              -0.003729624               0.000936030              -0.002793594               0.000000000               0.000000000               0.000000000               0.000000000              -0.006689900              -0.000290240              -0.000176171              -0.002472431               0.000727392              -0.001745039               0.000000000               0.000000000               0.000000000               0.000000000              -0.003972023               0.000204990              -0.000755889              -0.001515131               0.000573369              -0.000941761               0.000000000               0.000000000               0.000000000               0.000000000              -0.002590605               0.001052364              -0.000942786              -0.001103021               0.000718456              -0.000384564               0.000000000               0.000000000               0.000000000               0.000000000              -0.001794164               0.001887013              -0.000967232              -0.000908686               0.000931893               0.000023206               0.000000000               0.000000000               0.000000000               0.000000000              -0.001267968               0.002608918              -0.000924904              -0.000801601               0.001136831               0.000335229               0.000000000               0.000000000               0.000000000               0.000000000              -0.000879223               0.003195071              -0.000862076              -0.000729091               0.001308043               0.000578952               0.000000000               0.000000000               0.000000000               0.000000000              -0.000562369               0.003656726              -0.000799929              -0.000667978               0.001441555               0.000773578               0.000000000               0.000000000               0.000000000               0.000000000              -0.000269380               0.004031665              -0.000737169              -0.000604974               0.001545533               0.000940559               0.000000000               0.000000000               0.000000000               0.000000000               0.000026549               0.004334609              -0.000672406              -0.000531869               0.001622145               0.001090276               0.000000000               0.000000000               0.000000000               0.000000000               0.000337247               0.004567918              -0.000610437              -0.000444521               0.001670798               0.001226277               0.000000000               0.000000000               0.000000000               0.000000000               0.000675625               0.004751998              -0.000552557              -0.000340640               0.001697530               0.001356890               0.000000000               0.000000000               0.000000000               0.000000000               0.001048713               0.004895417              -0.000491039              -0.000218660               0.001704676               0.001486016               0.000000000               0.000000000               0.000000000               0.000000000               0.001465213               0.004995229              -0.000415143              -0.000074949               0.001690043               0.001615094               0.000000000               0.000000000               0.000000000               0.000000000               0.001941077               0.005048332              -0.000313333               0.000096861               0.001650473               0.001747335               0.000000000               0.000000000               0.000000000               0.000000000               0.002492303               0.005043725              -0.000174130               0.000304145               0.001579843               0.001883988               0.000000000               0.000000000               0.000000000               0.000000000               0.002921550               0.005071930              -0.000102730               0.000461585               0.001536765               0.001998350               0.000000000               0.000000000               0.000000000               0.000000000               0.000000000               0.000000000               0.000000000               0.000000000               0.000000000               0.000000000               0.000000000               0.000000000               0.000000000               0.000000000               0.000000000               0.000000000               0.000000000               0.000000000               0.000000000               0.000000000               0.000000000               0.000000000               0.000000000               0.000000000               0.000000000               0.000000000               0.000000000               0.000000000               0.000000000               0.000000000               0.000000000               0.000000000               0.000000000               0.000000000               0.000000000               0.000000000               0.000000000               0.000000000               0.000000000               0.000000000               0.000000000               0.000000000               0.000000000               0.000000000               0.000000000               0.000000000               0.000000000               0.000000000               0.000000000               0.000000000               0.000000000               0.000000000               0.000000000               0.000000000               0.000000000               0.000000000               0.000000000               0.000000000               0.000000000               0.000000000               0.000000000               0.000000000               0.000000000               0.000000000               0.000000000               0.000000000               0.000000000               0.000000000               0.000000000               0.000000000               0.000000000               0.000000000               0.000000000               0.000000000               0.000000000               0.000000000               0.000000000               0.000000000               0.000000000               0.000000000               0.000000000               0.000000000               0.000000000               0.000000000               0.000000000               0.000000000               0.000000000               0.000000000               0.000000000               0.000000000               0.000000000               0.000000000               0.000000000               0.000000000               0.000000000               0.000000000               0.000000000               0.000000000               0.000000000               0.000000000               0.000000000               0.000000000               0.000000000               0.000000000               0.000000000               0.000000000               0.000000000               0.000000000               0.000000000               0.000000000               0.000000000               0.000000000               0.000000000               0.000000000               0.000000000               0.000000000               0.000000000               0.000000000               0.000000000               0.000000000               0.000000000               0.000000000               0.000000000               0.000000000               0.000000000               0.000000000               0.000000000               0.000000000               0.000000000               0.000000000               0.000000000               0.000000000               0.000000000               0.000000000               0.000000000               0.000000000               0.000000000               0.000000000               0.000000000               0.000000000               0.000000000               0.000000000               0.000000000               0.000000000               0.000000000               0.000000000               0.000000000               0.000000000               0.000000000               0.000000000               0.000000000               0.000000000               0.000000000               0.000000000               0.000000000               0.000000000               0.000000000               0.000000000               0.000000000               0.000000000               0.000000000               0.000000000               0.000000000               0.000000000               0.000000000               0.000000000               0.000000000               0.000000000               0.000000000               0.000000000               0.000000000               0.000000000               0.000000000               0.000000000               0.000000000               0.000000000               0.000000000               0.000000000               0.000000000               0.000000000               0.000000000               0.000000000               0.000000000               0.000000000               0.000000000               0.000000000               0.000000000               0.000000000               0.000000000               0.000000000               0.000000000               0.000000000               0.000000000               0.000000000               0.000000000               0.000000000               0.000000000               0.000000000               0.000000000               0.000000000               0.000000000               0.000000000               0.000000000               0.000000000               0.000000000               0.000000000               0.000000000               0.000000000               0.000000000               0.000000000               0.000000000               0.000000000               0.000000000               0.000000000               0.000000000               0.000000000               0.000000000               0.000000000               0.000000000               0.000000000               0.000000000               0.000000000               0.000000000               0.000000000               0.000000000               0.000000000               0.000000000               0.000000000               0.000000000               0.000000000               0.000000000               0.000000000               0.000000000               0.000000000               0.000000000               0.000000000               0.000000000               0.000000000               0.000000000               0.000000000               0.000000000               0.000000000               0.000000000               0.000000000               0.000000000               0.000000000               0.000000000               0.000000000               0.000000000               0.000000000               0.000000000               0.000000000               0.000000000               0.000000000               0.000000000               0.000000000               0.000000000               0.000000000               0.000000000               0.000000000               0.000000000               0.000000000               0.000000000               0.000000000               0.000000000               0.000000000               0.000000000               0.000000000               0.000000000               0.000000000               0.000000000               0.000000000               0.000000000               0.000000000               0.000000000               0.000000000               0.000000000               0.000000000               0.000000000               0.000000000               0.000000000               0.000000000               0.000000000               0.000000000               0.000000000               0.000000000               0.000000000               0.000000000               0.000000000               0.000000000               0.000000000               0.000000000               0.000000000               0.000000000               0.000000000               0.000000000               0.000000000               0.000000000               0.000000000               0.000000000               0.000000000               0.000000000               0.000000000               0.000000000               0.000000000               0.000000000               0.000000000               0.000000000               0.000000000               0.000000000               0.000000000               0.000000000               0.000000000               0.000000000               0.000000000               0.000000000               0.000000000               0.000000000               0.000000000               0.000000000               0.000000000               0.000000000               0.000000000               0.000000000               0.000000000               0.000000000               0.000000000               0.000000000               0.000000000               0.000000000               0.000000000               0.000000000               0.000000000               0.000000000               0.000000000               0.000000000               0.000000000               0.000000000               0.000000000               0.000000000               0.000000000               0.000000000               0.000000000               0.000000000               0.002201075               0.022503073               0.001572937              -0.001987476               0.008163441               0.006175965               0.000000000               0.000000000               0.000000000               0.000000000               0.002077442               0.017678371               0.000788066              -0.001430752               0.006369649               0.004938897               0.000000000               0.000000000               0.000000000               0.000000000               0.002627383               0.013814206               0.000003709              -0.000741505               0.004851858               0.004110352               0.000000000               0.000000000               0.000000000               0.000000000               0.002478027               0.011649396              -0.000328781              -0.000526913               0.004058731               0.003531818               0.000000000               0.000000000               0.000000000               0.000000000               0.002131942               0.010296416              -0.000463839              -0.000487573               0.003594629               0.003107056               0.000000000               0.000000000               0.000000000               0.000000000               0.001759270               0.009368045              -0.000510706              -0.000511278               0.003293076               0.002781798               0.000000000               0.000000000               0.000000000               0.000000000               0.001414973               0.008674629              -0.000515156              -0.000553712               0.003076085               0.002522372               0.000000000               0.000000000               0.000000000               0.000000000               0.001113544               0.008112933              -0.000498684              -0.000596536               0.002903130               0.002306593               0.000000000               0.000000000               0.000000000               0.000000000               0.000863142               0.007625444              -0.000471018              -0.000629501               0.002751623               0.002122122               0.000000000               0.000000000               0.000000000               0.000000000               0.000654713               0.007178589              -0.000440815              -0.000651805               0.002610107               0.001958303               0.000000000               0.000000000               0.000000000               0.000000000               0.000474043               0.006752758              -0.000413072              -0.000666327               0.002473006               0.001806679               0.000000000               0.000000000               0.000000000               0.000000000               0.000321122               0.006335459              -0.000383326              -0.000671510               0.002335635               0.001664125               0.000000000               0.000000000               0.000000000               0.000000000               0.000194877               0.005914425              -0.000347715              -0.000666223               0.002193530               0.001527307               0.000000000               0.000000000               0.000000000               0.000000000               0.000096888               0.005475901              -0.000298078              -0.000648153               0.002041333               0.001393180               0.000000000               0.000000000               0.000000000               0.000000000               0.000030829               0.005002166              -0.000229248              -0.000613708               0.001871942               0.001258233               0.000000000               0.000000000               0.000000000               0.000000000               0.000002276               0.004479461              -0.000131960              -0.000559078               0.001679498               0.001120420               0.000000000               0.000000000               0.000000000               0.000000000              -0.000042767               0.004088821              -0.000081821              -0.000527139               0.001538640               0.001011501               0.000000000               0.000000000               0.000000000               0.000000000               0.002396706               0.021183607               0.002920149              -0.001749183               0.007644192               0.005895009               0.000000000               0.000000000               0.000000000               0.000000000               0.001953753               0.016834794               0.001461461              -0.001371689               0.006068771               0.004697082               0.000000000               0.000000000               0.000000000               0.000000000               0.002164404               0.013473903               0.000019572              -0.000872584               0.004782118               0.003909533               0.000000000               0.000000000               0.000000000               0.000000000               0.001892622               0.011564429              -0.000569132              -0.000735819               0.004100044               0.003364225               0.000000000               0.000000000               0.000000000               0.000000000               0.001529338               0.010341058              -0.000796545              -0.000719129               0.003686695               0.002967566               0.000000000               0.000000000               0.000000000               0.000000000               0.001184357               0.009471123              -0.000867281              -0.000739755               0.003403594               0.002663839               0.000000000               0.000000000               0.000000000               0.000000000               0.000889384               0.008800322              -0.000866019              -0.000766519               0.003188918               0.002422398               0.000000000               0.000000000               0.000000000               0.000000000               0.000645909               0.008244189              -0.000829421              -0.000788306               0.003010804               0.002222498               0.000000000               0.000000000               0.000000000               0.000000000               0.000447791               0.007751453              -0.000778484              -0.000801008               0.002850795               0.002049786               0.000000000               0.000000000               0.000000000               0.000000000               0.000293909               0.007302026              -0.000726324              -0.000802536               0.002701496               0.001898961               0.000000000               0.000000000               0.000000000               0.000000000               0.000171215               0.006875577              -0.000676089              -0.000795240               0.002556916               0.001761676               0.000000000               0.000000000               0.000000000               0.000000000               0.000073589               0.006461676              -0.000623303              -0.000780112               0.002413908               0.001633796               0.000000000               0.000000000               0.000000000               0.000000000               0.000004937               0.006057442              -0.000560528              -0.000755327               0.002270903               0.001515576               0.000000000               0.000000000               0.000000000               0.000000000              -0.000036934               0.005652869              -0.000472997              -0.000720457               0.002124423               0.001403966               0.000000000               0.000000000               0.000000000               0.000000000              -0.000051092               0.005240053              -0.000353076              -0.000674164               0.001971388               0.001297224               0.000000000               0.000000000               0.000000000               0.000000000              -0.000034085               0.004820762              -0.000195686              -0.000615376               0.001812030               0.001196654               0.000000000               0.000000000               0.000000000               0.000000000              -0.000048404               0.004531792              -0.000118204              -0.000584624               0.001705457               0.001120833               0.000000000               0.000000000               0.000000000               0.000000000               0.002594178               0.019167985               0.003895262              -0.001423180               0.006863657               0.005440477               0.000000000               0.000000000               0.000000000               0.000000000               0.001704721               0.015560317               0.001958444              -0.001305767               0.005621976               0.004316209               0.000000000               0.000000000               0.000000000               0.000000000               0.001443135               0.012944163               0.000071707              -0.001076842               0.004673625               0.003596783               0.000000000               0.000000000               0.000000000               0.000000000               0.001027663               0.011389943              -0.000656245              -0.001038367               0.004142732               0.003104365               0.000000000               0.000000000               0.000000000               0.000000000               0.000663118               0.010334166              -0.000919602              -0.001043099               0.003792387               0.002749288               0.000000000               0.000000000               0.000000000               0.000000000               0.000380649               0.009538228              -0.000991372              -0.001049533               0.003529222               0.002479689               0.000000000               0.000000000               0.000000000               0.000000000               0.000170061               0.008892066              -0.000981971              -0.001047733               0.003313237               0.002265504               0.000000000               0.000000000               0.000000000               0.000000000               0.000019601               0.008336138              -0.000932766              -0.001034665               0.003123573               0.002088908               0.000000000               0.000000000               0.000000000               0.000000000              -0.000085948               0.007839572              -0.000868601              -0.001012175               0.002950556               0.001938381               0.000000000               0.000000000               0.000000000               0.000000000              -0.000158419               0.007382959              -0.000803894              -0.000982275               0.002788387               0.001806112               0.000000000               0.000000000               0.000000000               0.000000000              -0.000202892               0.006954517              -0.000741365              -0.000945397               0.002633281               0.001687884               0.000000000               0.000000000               0.000000000               0.000000000              -0.000219117               0.006551107              -0.000679257              -0.000901055               0.002484032               0.001582977               0.000000000               0.000000000               0.000000000               0.000000000              -0.000209982               0.006169516              -0.000605474              -0.000849931               0.002339795               0.001489864               0.000000000               0.000000000               0.000000000               0.000000000              -0.000179860               0.005803552              -0.000501785              -0.000792890               0.002198794               0.001405905               0.000000000               0.000000000               0.000000000               0.000000000              -0.000130051               0.005460147              -0.000364365              -0.000731286               0.002063793               0.001332507               0.000000000               0.000000000               0.000000000               0.000000000              -0.000065859               0.005155324              -0.000196513              -0.000669111               0.001941461               0.001272350               0.000000000               0.000000000               0.000000000               0.000000000              -0.000051753               0.004969783              -0.000115938              -0.000640629               0.001870121               0.001229492               0.000000000               0.000000000               0.000000000               0.000000000               0.002665988               0.016694797               0.004406100              -0.001087105               0.005927244               0.004840139               0.000000000               0.000000000               0.000000000               0.000000000               0.001303176               0.014019272               0.002247794              -0.001263716               0.005094282               0.003830566               0.000000000               0.000000000               0.000000000               0.000000000               0.000542851               0.012290316               0.000183200              -0.001332717               0.004540970               0.003208253               0.000000000               0.000000000               0.000000000               0.000000000               0.000029761               0.011120994              -0.000562397              -0.001378961               0.004166615               0.002787654               0.000000000               0.000000000               0.000000000               0.000000000              -0.000285761               0.010231511              -0.000816394              -0.001386096               0.003872501               0.002486406               0.000000000               0.000000000               0.000000000               0.000000000              -0.000466135               0.009502991              -0.000877579              -0.001362671               0.003621856               0.002259184               0.000000000               0.000000000               0.000000000               0.000000000              -0.000560532               0.008873541              -0.000863139              -0.001319389               0.003397614               0.002078225               0.000000000               0.000000000               0.000000000               0.000000000              -0.000598738               0.008310971              -0.000815812              -0.001263395               0.003191428               0.001928032               0.000000000               0.000000000               0.000000000               0.000000000              -0.000601901               0.007804176              -0.000756589              -0.001201232               0.003001777               0.001800545               0.000000000               0.000000000               0.000000000               0.000000000              -0.000575691               0.007344666              -0.000696974              -0.001133965               0.002826186               0.001692221               0.000000000               0.000000000               0.000000000               0.000000000              -0.000525310               0.006923453              -0.000640480              -0.001062420               0.002661935               0.001599514               0.000000000               0.000000000               0.000000000               0.000000000              -0.000454982               0.006534270              -0.000583581              -0.000987399               0.002507201               0.001519802               0.000000000               0.000000000               0.000000000               0.000000000              -0.000365640               0.006173344              -0.000512337              -0.000908781               0.002360688               0.001451907               0.000000000               0.000000000               0.000000000               0.000000000              -0.000264988               0.005845113              -0.000412969              -0.000830008               0.002225021               0.001395013               0.000000000               0.000000000               0.000000000               0.000000000              -0.000163845               0.005565530              -0.000289717              -0.000757131               0.002107535               0.001350404               0.000000000               0.000000000               0.000000000               0.000000000              -0.000075542               0.005352069              -0.000150390              -0.000697335               0.002016450               0.001319115               0.000000000               0.000000000               0.000000000               0.000000000              -0.000047964               0.005243501              -0.000084599              -0.000673422               0.001972290               0.001298868               0.000000000               0.000000000               0.000000000               0.000000000               0.002482069               0.014007548               0.004453652              -0.000820170               0.004942525               0.004122355               0.000000000               0.000000000               0.000000000               0.000000000               0.000741197               0.012377259               0.002357393              -0.001269207               0.004548780               0.003279573               0.000000000               0.000000000               0.000000000               0.000000000              -0.000430585               0.011569247               0.000376871              -0.001607621               0.004392251               0.002784629               0.000000000               0.000000000               0.000000000               0.000000000              -0.000951241               0.010755057              -0.000298217              -0.001701093               0.004152014               0.002450921               0.000000000               0.000000000               0.000000000               0.000000000              -0.001157645               0.010005162              -0.000520503              -0.001684758               0.003896606               0.002211849               0.000000000               0.000000000               0.000000000               0.000000000              -0.001202766               0.009328628              -0.000575527              -0.001617112               0.003648549               0.002031437               0.000000000               0.000000000               0.000000000               0.000000000              -0.001161615               0.008711583              -0.000570209              -0.001524550               0.003412015               0.001887465               0.000000000               0.000000000               0.000000000               0.000000000              -0.001076117               0.008149441              -0.000543271              -0.001422220               0.003190527               0.001768306               0.000000000               0.000000000               0.000000000               0.000000000              -0.000967707               0.007643099              -0.000512511              -0.001318274               0.002987099               0.001668825               0.000000000               0.000000000               0.000000000               0.000000000              -0.000843337               0.007192794              -0.000479999              -0.001215347               0.002802690               0.001587342               0.000000000               0.000000000               0.000000000               0.000000000              -0.000709350               0.006788166              -0.000442939              -0.001114524               0.002634207               0.001519683               0.000000000               0.000000000               0.000000000               0.000000000              -0.000569214               0.006416340              -0.000399370              -0.001015495               0.002477257               0.001461762               0.000000000               0.000000000               0.000000000               0.000000000              -0.000422119               0.006075808              -0.000342496              -0.000917769               0.002331172               0.001413403               0.000000000               0.000000000               0.000000000               0.000000000              -0.000277088               0.005782919              -0.000266447              -0.000826771               0.002203211               0.001376440               0.000000000               0.000000000               0.000000000               0.000000000              -0.000154002               0.005553695              -0.000176684              -0.000751961               0.002101867               0.001349906               0.000000000               0.000000000               0.000000000               0.000000000              -0.000064347               0.005397897              -0.000086643              -0.000698866               0.002032236               0.001333371               0.000000000               0.000000000               0.000000000               0.000000000              -0.000035366               0.005328980              -0.000047968              -0.000679383               0.002002770               0.001323387               0.000000000               0.000000000               0.000000000               0.000000000               0.001978038               0.011331636               0.004116191              -0.000674693               0.004002071               0.003327378               0.000000000               0.000000000               0.000000000               0.000000000               0.000053887               0.010767335               0.002340324              -0.001325707               0.004030978               0.002705270               0.000000000               0.000000000               0.000000000               0.000000000              -0.001364699               0.010803050               0.000657607              -0.001862139               0.004221694               0.002359555               0.000000000               0.000000000               0.000000000               0.000000000              -0.001791982               0.010278320               0.000098641              -0.001956779               0.004078332               0.002121553               0.000000000               0.000000000               0.000000000               0.000000000              -0.001840712               0.009641717              -0.000100055              -0.001895477               0.003845699               0.001950222               0.000000000               0.000000000               0.000000000               0.000000000              -0.001733216               0.009010813              -0.000171346              -0.001776303               0.003595675               0.001819372               0.000000000               0.000000000               0.000000000               0.000000000              -0.001556765               0.008420016              -0.000196344              -0.001636285               0.003352072               0.001715787               0.000000000               0.000000000               0.000000000               0.000000000              -0.001351846               0.007877877              -0.000208210              -0.001491673               0.003123157               0.001631484               0.000000000               0.000000000               0.000000000               0.000000000              -0.001143670               0.007389253              -0.000218276              -0.001352530               0.002913903               0.001561373               0.000000000               0.000000000               0.000000000               0.000000000              -0.000937744               0.006954802              -0.000224090              -0.001221001               0.002725245               0.001504243               0.000000000               0.000000000               0.000000000               0.000000000              -0.000736473               0.006565819              -0.000216365              -0.001096902               0.002554218               0.001457316               0.000000000               0.000000000               0.000000000               0.000000000              -0.000547575               0.006209212              -0.000193739              -0.000981490               0.002396880               0.001415390               0.000000000               0.000000000               0.000000000               0.000000000              -0.000373508               0.005893232              -0.000160380              -0.000876717               0.002256630               0.001379913               0.000000000               0.000000000               0.000000000               0.000000000              -0.000224507               0.005636804              -0.000117444              -0.000788789               0.002141845               0.001353057               0.000000000               0.000000000               0.000000000               0.000000000              -0.000113857               0.005448409              -0.000070413              -0.000723746               0.002057367               0.001333621               0.000000000               0.000000000               0.000000000               0.000000000              -0.000043199               0.005325506              -0.000030480              -0.000681886               0.002002446               0.001320560               0.000000000               0.000000000               0.000000000               0.000000000              -0.000023958               0.005269740              -0.000017537              -0.000667700               0.001979129               0.001311429               0.000000000               0.000000000               0.000000000               0.000000000               0.001184025               0.008845756               0.003488292              -0.000661712               0.003169125               0.002507414               0.000000000               0.000000000               0.000000000               0.000000000              -0.000719376               0.009277862               0.002243343              -0.001429497               0.003569088               0.002139592               0.000000000               0.000000000               0.000000000               0.000000000              -0.002169565               0.009998446               0.001019436              -0.002063388               0.004020578               0.001957190               0.000000000               0.000000000               0.000000000               0.000000000              -0.002407406               0.009701419               0.000569048              -0.002115450               0.003938924               0.001823474               0.000000000               0.000000000               0.000000000               0.000000000              -0.002273937               0.009163237               0.000363573              -0.001998126               0.003720424               0.001722298               0.000000000               0.000000000               0.000000000               0.000000000              -0.002016829               0.008588320               0.000250152              -0.001829846               0.003472693               0.001642847               0.000000000               0.000000000               0.000000000               0.000000000              -0.001723048               0.008040648               0.000175163              -0.001651220               0.003230596               0.001579376               0.000000000               0.000000000               0.000000000               0.000000000              -0.001425110               0.007533936               0.000117936              -0.001476155               0.003003338               0.001527184               0.000000000               0.000000000               0.000000000               0.000000000              -0.001142565               0.007071796               0.000064101              -0.001312433               0.002794719               0.001482286               0.000000000               0.000000000               0.000000000               0.000000000              -0.000880523               0.006652196               0.000016454              -0.001161718               0.002604616               0.001442898               0.000000000               0.000000000               0.000000000               0.000000000              -0.000639653               0.006271015              -0.000011588              -0.001023744               0.002431566               0.001407821               0.000000000               0.000000000               0.000000000               0.000000000              -0.000429806               0.005932571              -0.000018692              -0.000902746               0.002278419               0.001375673               0.000000000               0.000000000               0.000000000               0.000000000              -0.000261235               0.005652339              -0.000015801              -0.000804504               0.002152262               0.001347758               0.000000000               0.000000000               0.000000000               0.000000000              -0.000138003               0.005438679              -0.000009082              -0.000731584               0.002056736               0.001325152               0.000000000               0.000000000               0.000000000               0.000000000              -0.000060061               0.005288390               0.000000022              -0.000683570               0.001990636               0.001307066               0.000000000               0.000000000               0.000000000               0.000000000              -0.000020535               0.005188546               0.000003564              -0.000656267               0.001948254               0.001291986               0.000000000               0.000000000               0.000000000               0.000000000              -0.000014670               0.005139973              -0.000001050              -0.000647996               0.001929306               0.001281310               0.000000000               0.000000000               0.000000000               0.000000000               0.000213052               0.006727539               0.002689968              -0.000761048               0.002496172               0.001735124               0.000000000               0.000000000               0.000000000               0.000000000              -0.001469483               0.007932502               0.002119433              -0.001542616               0.003158346               0.001615730               0.000000000               0.000000000               0.000000000               0.000000000              -0.002785689               0.009200112               0.001449187              -0.002194642               0.003798220               0.001603578               0.000000000               0.000000000               0.000000000               0.000000000              -0.002821050               0.009142942               0.001067556              -0.002200756               0.003781202               0.001580446               0.000000000               0.000000000               0.000000000               0.000000000              -0.002537302               0.008732843               0.000829171              -0.002043088               0.003591948               0.001548859               0.000000000               0.000000000               0.000000000               0.000000000              -0.002159849               0.008247146               0.000659401              -0.001840832               0.003362632               0.001521800               0.000000000               0.000000000               0.000000000               0.000000000              -0.001775258               0.007759323               0.000529759              -0.001635633               0.003131626               0.001495993               0.000000000               0.000000000               0.000000000               0.000000000              -0.001408814               0.007295740               0.000428510              -0.001440269               0.002911979               0.001471710               0.000000000               0.000000000               0.000000000               0.000000000              -0.001073017               0.006864696               0.000336413              -0.001260465               0.002708364               0.001447899               0.000000000               0.000000000               0.000000000               0.000000000              -0.000774788               0.006464792               0.000251868              -0.001098642               0.002521123               0.001422481               0.000000000               0.000000000               0.000000000               0.000000000              -0.000516182               0.006092096               0.000182391              -0.000955078               0.002349038               0.001393960               0.000000000               0.000000000               0.000000000               0.000000000              -0.000307805               0.005766164               0.000132307              -0.000836195               0.002200767               0.001364572               0.000000000               0.000000000               0.000000000               0.000000000              -0.000156399               0.005506879               0.000094853              -0.000747008               0.002084611               0.001337603               0.000000000               0.000000000               0.000000000               0.000000000              -0.000065501               0.005314282               0.000063129              -0.000688846               0.002001025               0.001312179               0.000000000               0.000000000               0.000000000               0.000000000              -0.000027650               0.005177959               0.000038766              -0.000657612               0.001945173               0.001287561               0.000000000               0.000000000               0.000000000               0.000000000              -0.000023017               0.005090128               0.000019430              -0.000644896               0.001911658               0.001266762               0.000000000               0.000000000               0.000000000               0.000000000              -0.000030004               0.005049307               0.000007252              -0.000642413               0.001897223               0.001254810               0.000000000               0.000000000               0.000000000               0.000000000              -0.000946196               0.004736762               0.001838203              -0.000946918               0.001894544               0.000947626               0.000000000               0.000000000               0.000000000               0.000000000              -0.002083673               0.006370334               0.001977223              -0.001577666               0.002649311               0.001071646               0.000000000               0.000000000               0.000000000               0.000000000              -0.003124713               0.008037214               0.001906111              -0.002176414               0.003404515               0.001228101               0.000000000               0.000000000               0.000000000               0.000000000              -0.003055451               0.008342790               0.001601494              -0.002188638               0.003510448               0.001321810               0.000000000               0.000000000               0.000000000               0.000000000              -0.002716876               0.008187061               0.001328077              -0.002042206               0.003409728               0.001367522               0.000000000               0.000000000               0.000000000               0.000000000              -0.002307979               0.007882368               0.001104631              -0.001850784               0.003244357               0.001393574               0.000000000               0.000000000               0.000000000               0.000000000              -0.001892885               0.007528931               0.000925296              -0.001650944               0.003059933               0.001408989               0.000000000               0.000000000               0.000000000               0.000000000              -0.001502096               0.007158605               0.000780163              -0.001458108               0.002872214               0.001414106               0.000000000               0.000000000               0.000000000               0.000000000              -0.001146125               0.006795547               0.000649848              -0.001279237               0.002691572               0.001412335               0.000000000               0.000000000               0.000000000               0.000000000              -0.000832884               0.006452426               0.000528591              -0.001118882               0.002523748               0.001404866               0.000000000               0.000000000               0.000000000               0.000000000              -0.000563609               0.006125677               0.000416842              -0.000977061               0.002367559               0.001390498               0.000000000               0.000000000               0.000000000               0.000000000              -0.000343690               0.005821640               0.000317921              -0.000856587               0.002226056               0.001369469               0.000000000               0.000000000               0.000000000               0.000000000              -0.000181773               0.005558549               0.000229816              -0.000762982               0.002107159               0.001344177               0.000000000               0.000000000               0.000000000               0.000000000              -0.000081310               0.005345247               0.000150865              -0.000698645               0.002014613               0.001315968               0.000000000               0.000000000               0.000000000               0.000000000              -0.000040317               0.005184663               0.000085170              -0.000663200               0.001949270               0.001286070               0.000000000               0.000000000               0.000000000               0.000000000              -0.000045224               0.005074911               0.000034400              -0.000651321               0.001908727               0.001257406               0.000000000               0.000000000               0.000000000               0.000000000              -0.000062946               0.005023203               0.000010512              -0.000651504               0.001891552               0.001240049               0.000000000               0.000000000               0.000000000               0.000000000              -0.002442475               0.002924871               0.000988354              -0.001281534               0.001402124               0.000120590               0.000000000               0.000000000               0.000000000               0.000000000              -0.002773061               0.004801404               0.001761391              -0.001640070               0.002147142               0.000507071               0.000000000               0.000000000               0.000000000               0.000000000              -0.003357725               0.006687149               0.002267868              -0.002095036               0.002927372               0.000832336               0.000000000               0.000000000               0.000000000               0.000000000              -0.003196387               0.007344350               0.002109285              -0.002116684               0.003153653               0.001036969               0.000000000               0.000000000               0.000000000               0.000000000              -0.002830570               0.007486976               0.001838508              -0.001997331               0.003161410               0.001164079               0.000000000               0.000000000               0.000000000               0.000000000              -0.002419791               0.007401190               0.001582139              -0.001832566               0.003077894               0.001245327               0.000000000               0.000000000               0.000000000               0.000000000              -0.002003145               0.007215626               0.001364019              -0.001653129               0.002956227               0.001303098               0.000000000               0.000000000               0.000000000               0.000000000              -0.001608525               0.006974475               0.001178886              -0.001475003               0.002816469               0.001341466               0.000000000               0.000000000               0.000000000               0.000000000              -0.001241914               0.006708644               0.001014049              -0.001304295               0.002670957               0.001366662               0.000000000               0.000000000               0.000000000               0.000000000              -0.000911345               0.006440100               0.000861026              -0.001146764               0.002528933               0.001382169               0.000000000               0.000000000               0.000000000               0.000000000              -0.000621908               0.006174362               0.000717651              -0.001005009               0.002393103               0.001388094               0.000000000               0.000000000               0.000000000               0.000000000              -0.000376477               0.005910356               0.000578918              -0.000879971               0.002263423               0.001383451               0.000000000               0.000000000               0.000000000               0.000000000              -0.000184998               0.005661018               0.000444606              -0.000777000               0.002145987               0.001368987               0.000000000               0.000000000               0.000000000               0.000000000              -0.000054136               0.005436484               0.000314465              -0.000699860               0.002045430               0.001345570               0.000000000               0.000000000               0.000000000               0.000000000               0.000008633               0.005252338               0.000191416              -0.000653303               0.001968529               0.001315226               0.000000000               0.000000000               0.000000000               0.000000000               0.000002258               0.005109126               0.000084473              -0.000637792               0.001915622               0.001277830               0.000000000               0.000000000               0.000000000               0.000000000              -0.000029771               0.005038183               0.000032421              -0.000640935               0.001893023               0.001252087               0.000000000               0.000000000               0.000000000               0.000000000              -0.004171364               0.001437826               0.000208657              -0.001743987               0.001060597              -0.000683390               0.000000000               0.000000000               0.000000000               0.000000000              -0.003590506               0.003319173               0.001448243              -0.001761333               0.001693490              -0.000067843               0.000000000               0.000000000               0.000000000               0.000000000              -0.003527976               0.005163952               0.002417788              -0.001968481               0.002377459               0.000408979               0.000000000               0.000000000               0.000000000               0.000000000              -0.003194210               0.006068080               0.002446122              -0.001956335               0.002674784               0.000718449               0.000000000               0.000000000               0.000000000               0.000000000              -0.002786390               0.006482858               0.002229113              -0.001855250               0.002779347               0.000924097               0.000000000               0.000000000               0.000000000               0.000000000              -0.002377677               0.006632565               0.001976268              -0.001720696               0.002784398               0.001063702               0.000000000               0.000000000               0.000000000               0.000000000              -0.001976604               0.006638191               0.001742911              -0.001570997               0.002736373               0.001165376               0.000000000               0.000000000               0.000000000               0.000000000              -0.001593724               0.006556005               0.001535255              -0.001417144               0.002657694               0.001240550               0.000000000               0.000000000               0.000000000               0.000000000              -0.001233063               0.006416969               0.001348146              -0.001264517               0.002560474               0.001295957               0.000000000               0.000000000               0.000000000               0.000000000              -0.000896771               0.006250499               0.001175662              -0.001117599               0.002456012               0.001338413               0.000000000               0.000000000               0.000000000               0.000000000              -0.000591087               0.006069204               0.001014527              -0.000980306               0.002349816               0.001369510               0.000000000               0.000000000               0.000000000               0.000000000              -0.000321615               0.005873639               0.000855578              -0.000854809               0.002242796               0.001387987               0.000000000               0.000000000               0.000000000               0.000000000              -0.000093437               0.005672288               0.000693426              -0.000744073               0.002138768               0.001394695               0.000000000               0.000000000               0.000000000               0.000000000               0.000078298               0.005473127               0.000522349              -0.000654778               0.002042616               0.001387839               0.000000000               0.000000000               0.000000000               0.000000000               0.000179738               0.005289953               0.000342293              -0.000593841               0.001961247               0.001367406               0.000000000               0.000000000               0.000000000               0.000000000               0.000197862               0.005132629               0.000165084              -0.000567379               0.001899986               0.001332607               0.000000000               0.000000000               0.000000000               0.000000000               0.000167626               0.005052696               0.000074338              -0.000568726               0.001873791               0.001305065               0.000000000               0.000000000               0.000000000               0.000000000              -0.006013650               0.000346336              -0.000391246              -0.002298409               0.000881576              -0.001416833               0.000000000               0.000000000               0.000000000               0.000000000              -0.004483088               0.002004101               0.001080226              -0.001931668               0.001311913              -0.000619754               0.000000000               0.000000000               0.000000000               0.000000000              -0.003661839               0.003592865               0.002323805              -0.001822294               0.001805040              -0.000017255               0.000000000               0.000000000               0.000000000               0.000000000              -0.003076248               0.004611561               0.002525519              -0.001730035               0.002113849               0.000383814               0.000000000               0.000000000               0.000000000               0.000000000              -0.002592497               0.005241338               0.002393147              -0.001627350               0.002289544               0.000662194               0.000000000               0.000000000               0.000000000               0.000000000              -0.002172545               0.005614833               0.002177546              -0.001516556               0.002377110               0.000860554               0.000000000               0.000000000               0.000000000               0.000000000              -0.001791729               0.005813192               0.001959194              -0.001398545               0.002403892               0.001005347               0.000000000               0.000000000               0.000000000               0.000000000              -0.001429496               0.005898608               0.001755111              -0.001273385               0.002390644               0.001117259               0.000000000               0.000000000               0.000000000               0.000000000              -0.001083534               0.005908216               0.001564912              -0.001144850               0.002351002               0.001206152               0.000000000               0.000000000               0.000000000               0.000000000              -0.000751993               0.005866966               0.001389609              -0.001015366               0.002294091               0.001278725               0.000000000               0.000000000               0.000000000               0.000000000              -0.000438511               0.005791041               0.001225633              -0.000888320               0.002226434               0.001338114               0.000000000               0.000000000               0.000000000               0.000000000              -0.000145412               0.005690393               0.001065494              -0.000765827               0.002152054               0.001386227               0.000000000               0.000000000               0.000000000               0.000000000               0.000120751               0.005563819               0.000898423              -0.000650195               0.002071319               0.001421125               0.000000000               0.000000000               0.000000000               0.000000000               0.000348595               0.005419417               0.000710322              -0.000546703               0.001988689               0.001441986               0.000000000               0.000000000               0.000000000               0.000000000               0.000521249               0.005271590               0.000496004              -0.000463479               0.001911672               0.001448193               0.000000000               0.000000000               0.000000000               0.000000000               0.000615062               0.005132483               0.000257157              -0.000410911               0.001847781               0.001436870               0.000000000               0.000000000               0.000000000               0.000000000               0.000632306               0.005063747               0.000130531              -0.000395853               0.001819850               0.001423997               0.000000000               0.000000000               0.000000000               0.000000000              -0.007786397              -0.000365929              -0.000716066              -0.002874156               0.000836070              -0.002038086               0.000000000               0.000000000               0.000000000               0.000000000              -0.005375289               0.000931360               0.000716197              -0.002132151               0.001021163              -0.001110988               0.000000000               0.000000000               0.000000000               0.000000000              -0.003779158               0.002137664               0.001987097              -0.001684390               0.001274008              -0.000410381               0.000000000               0.000000000               0.000000000               0.000000000              -0.002896677               0.003155061               0.002293752              -0.001480634               0.001545220               0.000064586               0.000000000               0.000000000               0.000000000               0.000000000              -0.002305351               0.003918866               0.002248777              -0.001354363               0.001757729               0.000403366               0.000000000               0.000000000               0.000000000               0.000000000              -0.001855453               0.004468752               0.002090523              -0.001254387               0.001907697               0.000653310               0.000000000               0.000000000               0.000000000               0.000000000              -0.001484383               0.004840762               0.001911460              -0.001161737               0.002000816               0.000839079               0.000000000               0.000000000               0.000000000               0.000000000              -0.001147167               0.005084629               0.001736406              -0.001065765               0.002050114               0.000984349               0.000000000               0.000000000               0.000000000               0.000000000              -0.000820205               0.005242908               0.001568779              -0.000962939               0.002068598               0.001105659               0.000000000               0.000000000               0.000000000               0.000000000              -0.000497233               0.005336799               0.001411753              -0.000853561               0.002063435               0.001209874               0.000000000               0.000000000               0.000000000               0.000000000              -0.000179754               0.005379714               0.001264824              -0.000739871               0.002039843               0.001299973               0.000000000               0.000000000               0.000000000               0.000000000               0.000132828               0.005386098               0.001121882              -0.000623451               0.002003165               0.001379714               0.000000000               0.000000000               0.000000000               0.000000000               0.000437404               0.005356329               0.000970875              -0.000505514               0.001953930               0.001448416               0.000000000               0.000000000               0.000000000               0.000000000               0.000730962               0.005296250               0.000795429              -0.000387920               0.001894705               0.001506786               0.000000000               0.000000000               0.000000000               0.000000000               0.001000828               0.005211960               0.000579690              -0.000276184               0.001829364               0.001553180               0.000000000               0.000000000               0.000000000               0.000000000               0.001224896               0.005110831               0.000313583              -0.000179518               0.001763433               0.001583915               0.000000000               0.000000000               0.000000000               0.000000000               0.001350283               0.005068873               0.000172544              -0.000127253               0.001732025               0.001604772               0.000000000               0.000000000               0.000000000               0.000000000              -0.009267252              -0.000752469              -0.000721980              -0.003381159               0.000876224              -0.002504935               0.000000000               0.000000000               0.000000000               0.000000000              -0.006155335               0.000163375               0.000407441              -0.002328670               0.000830676              -0.001497994               0.000000000               0.000000000               0.000000000               0.000000000              -0.003889450               0.000965789               0.001444964              -0.001579266               0.000848345              -0.000730921               0.000000000               0.000000000               0.000000000               0.000000000              -0.002718728               0.001903150               0.001747399              -0.001257415               0.001053514              -0.000203901               0.000000000               0.000000000               0.000000000               0.000000000              -0.002010883               0.002724410               0.001759557              -0.001094630               0.001273003               0.000178373               0.000000000               0.000000000               0.000000000               0.000000000              -0.001517822               0.003388512               0.001663951              -0.000992746               0.001460407               0.000467662               0.000000000               0.000000000               0.000000000               0.000000000              -0.001142959               0.003893230               0.001539896              -0.000915262               0.001602817               0.000687555               0.000000000               0.000000000               0.000000000               0.000000000              -0.000823099               0.004268618               0.001414912              -0.000842238               0.001703604               0.000861366               0.000000000               0.000000000               0.000000000               0.000000000              -0.000513561               0.004557534               0.001292283              -0.000762276               0.001773255               0.001010979               0.000000000               0.000000000               0.000000000               0.000000000              -0.000202702               0.004774255               0.001174145              -0.000672794               0.001815667               0.001142873               0.000000000               0.000000000               0.000000000               0.000000000               0.000112237               0.004928651               0.001061870              -0.000573992               0.001834198               0.001260206               0.000000000               0.000000000               0.000000000               0.000000000               0.000438582               0.005036561               0.000953584              -0.000465101               0.001833871               0.001368769               0.000000000               0.000000000               0.000000000               0.000000000               0.000780871               0.005104254               0.000840000              -0.000345205               0.001816469               0.001471264               0.000000000               0.000000000               0.000000000               0.000000000               0.001141612               0.005136627               0.000703200              -0.000213974               0.001783517               0.001569543               0.000000000               0.000000000               0.000000000               0.000000000               0.001521763               0.005130090               0.000524960              -0.000070600               0.001733546               0.001662946               0.000000000               0.000000000               0.000000000               0.000000000               0.001917043               0.005080052               0.000290158               0.000083884               0.001665373               0.001749256               0.000000000               0.000000000               0.000000000               0.000000000               0.002199252               0.005074327               0.000167507               0.000190427               0.001627950               0.001818377               0.000000000               0.000000000               0.000000000               0.000000000              -0.010252843              -0.000921514              -0.000441761              -0.003729624               0.000936030              -0.002793594               0.000000000               0.000000000               0.000000000               0.000000000              -0.006689900              -0.000290240               0.000176171              -0.002472431               0.000727392              -0.001745039               0.000000000               0.000000000               0.000000000               0.000000000              -0.003972023               0.000204990               0.000755889              -0.001515131               0.000573369              -0.000941761               0.000000000               0.000000000               0.000000000               0.000000000              -0.002590605               0.001052364               0.000942786              -0.001103021               0.000718456              -0.000384564               0.000000000               0.000000000               0.000000000               0.000000000              -0.001794164               0.001887013               0.000967232              -0.000908686               0.000931893               0.000023206               0.000000000               0.000000000               0.000000000               0.000000000              -0.001267968               0.002608918               0.000924904              -0.000801601               0.001136831               0.000335229               0.000000000               0.000000000               0.000000000               0.000000000              -0.000879223               0.003195071               0.000862076              -0.000729091               0.001308043               0.000578952               0.000000000               0.000000000               0.000000000               0.000000000              -0.000562369               0.003656726               0.000799929              -0.000667978               0.001441555               0.000773578               0.000000000               0.000000000               0.000000000               0.000000000              -0.000269380               0.004031665               0.000737169              -0.000604974               0.001545533               0.000940559               0.000000000               0.000000000               0.000000000               0.000000000               0.000026549               0.004334609               0.000672406              -0.000531869               0.001622145               0.001090276               0.000000000               0.000000000               0.000000000               0.000000000               0.000337247               0.004567918               0.000610437              -0.000444521               0.001670798               0.001226277               0.000000000               0.000000000               0.000000000               0.000000000               0.000675625               0.004751998               0.000552557              -0.000340640               0.001697530               0.001356890               0.000000000               0.000000000               0.000000000               0.000000000               0.001048713               0.004895417               0.000491039              -0.000218660               0.001704676               0.001486016               0.000000000               0.000000000               0.000000000               0.000000000               0.001465213               0.004995229               0.000415143              -0.000074949               0.001690043               0.001615094               0.000000000               0.000000000               0.000000000               0.000000000               0.001941077               0.005048332               0.000313333               0.000096861               0.001650473               0.001747335               0.000000000               0.000000000               0.000000000               0.000000000               0.002492303               0.005043725               0.000174130               0.000304145               0.001579843               0.001883988               0.000000000               0.000000000               0.000000000               0.000000000               0.002921550               0.005071930               0.000102730               0.000461585               0.001536765               0.001998350               0.000000000               0.000000000               0.000000000               0.000000000               0.000000000               0.000000000               0.000000000               0.000000000               0.000000000               0.000000000               0.000000000               0.000000000               0.000000000               0.000000000               0.000000000               0.000000000               0.000000000               0.000000000               0.000000000               0.000000000               0.000000000               0.000000000               0.000000000               0.000000000               0.000000000               0.000000000               0.000000000               0.000000000               0.000000000               0.000000000               0.000000000               0.000000000               0.000000000               0.000000000               0.000000000               0.000000000               0.000000000               0.000000000               0.000000000               0.000000000               0.000000000               0.000000000               0.000000000               0.000000000               0.000000000               0.000000000               0.000000000               0.000000000               0.000000000               0.000000000               0.000000000               0.000000000               0.000000000               0.000000000               0.000000000               0.000000000               0.000000000               0.000000000               0.000000000               0.000000000               0.000000000               0.000000000               0.000000000               0.000000000               0.000000000               0.000000000               0.000000000               0.000000000               0.000000000               0.000000000               0.000000000               0.000000000               0.000000000               0.000000000               0.000000000               0.000000000               0.000000000               0.000000000               0.000000000               0.000000000               0.000000000               0.000000000               0.000000000               0.000000000               0.000000000               0.000000000               0.000000000               0.000000000               0.000000000               0.000000000               0.000000000               0.000000000               0.000000000               0.000000000               0.000000000               0.000000000               0.000000000               0.000000000               0.000000000               0.000000000               0.000000000               0.000000000               0.000000000               0.000000000               0.000000000               0.000000000               0.000000000               0.000000000               0.000000000               0.000000000               0.000000000               0.000000000               0.000000000               0.000000000               0.000000000               0.000000000               0.000000000               0.000000000               0.000000000               0.000000000               0.000000000               0.000000000               0.000000000               0.000000000               0.000000000               0.000000000               0.000000000               0.000000000               0.000000000               0.000000000               0.000000000               0.000000000               0.000000000               0.000000000               0.000000000               0.000000000               0.000000000               0.000000000               0.000000000               0.000000000               0.000000000               0.000000000               0.000000000               0.000000000               0.000000000               0.000000000               0.000000000               0.000000000               0.000000000               0.000000000               0.000000000               0.000000000               0.000000000               0.000000000               0.000000000               0.000000000               0.000000000               0.000000000               0.000000000               0.000000000               0.000000000               0.000000000               0.000000000               0.000000000               0.000000000               0.000000000               0.000000000               0.000000000               0.000000000               0.000000000               0.000000000               0.000000000               0.000000000               0.000000000 </DataArray>
</PointData>
</Piece>
</UnstructuredGrid> </VTKFile>
