<?xml version="1.0"?>
<VTKFile type="UnstructuredGrid" version="0.1">
<UnstructuredGrid>
<Piece NumberOfPoints="      1156" NumberOfCells="      1024">
<Points>
<DataArray type="Float64"                                    Name="coordinates"                                                      NumberOfComponents=" 3" format="ascii">
              0.133000000               0.000000000               0.000000000               0.155937500               0.000000000               0.000000000               0.178875000               0.000000000               0.000000000               0.201812500               0.000000000               0.000000000               0.224750000               0.000000000               0.000000000               0.247687500               0.000000000               0.000000000               0.270625000               0.000000000               0.000000000               0.293562500               0.000000000               0.000000000               0.316500000               0.000000000               0.000000000               0.339437500               0.000000000               0.000000000               0.362375000               0.000000000               0.000000000               0.385312500               0.000000000               0.000000000               0.408250000               0.000000000               0.000000000               0.431187500               0.000000000               0.000000000               0.454125000               0.000000000               0.000000000               0.477062500               0.000000000               0.000000000               0.500000000               0.000000000               0.000000000               0.132359569               0.013036280               0.000000000               0.155337096               0.016127762               0.000000000               0.178314623               0.019219245               0.000000000               0.201292150               0.022310727               0.000000000               0.224269676               0.025402210               0.000000000               0.247247203               0.028493692               0.000000000               0.270224730               0.031585175               0.000000000               0.293202257               0.034676657               0.000000000               0.316179784               0.037768140               0.000000000               0.339157311               0.040859622               0.000000000               0.362134838               0.043951105               0.000000000               0.385112365               0.047042587               0.000000000               0.408089892               0.050134070               0.000000000               0.431067419               0.053225552               0.000000000               0.454044946               0.056317035               0.000000000               0.477022473               0.059408517               0.000000000               0.500000000               0.062500000               0.000000000               0.130444442               0.025947013               0.000000000               0.153541665               0.032137825               0.000000000               0.176638887               0.038328636               0.000000000               0.199736109               0.044519448               0.000000000               0.222833332               0.050710260               0.000000000               0.245930554               0.056901071               0.000000000               0.269027776               0.063091883               0.000000000               0.292124999               0.069282695               0.000000000               0.315222221               0.075473506               0.000000000               0.338319444               0.081664318               0.000000000               0.361416666               0.087855130               0.000000000               0.384513888               0.094045942               0.000000000               0.407611111               0.100236753               0.000000000               0.430708333               0.106427565               0.000000000               0.453805555               0.112618377               0.000000000               0.476902778               0.118809188               0.000000000               0.500000000               0.125000000               0.000000000               0.127273065               0.038607862               0.000000000               0.150568498               0.047913621               0.000000000               0.173863932               0.057219379               0.000000000               0.197159365               0.066525138               0.000000000               0.220454798               0.075830897               0.000000000               0.243750232               0.085136655               0.000000000               0.267045665               0.094442414               0.000000000               0.290341099               0.103748172               0.000000000               0.313636532               0.113053931               0.000000000               0.336931966               0.122359690               0.000000000               0.360227399               0.131665448               0.000000000               0.383522833               0.140971207               0.000000000               0.406818266               0.150276966               0.000000000               0.430113700               0.159582724               0.000000000               0.453409133               0.168888483               0.000000000               0.476704567               0.178194241               0.000000000               0.500000000               0.187500000               0.000000000               0.122875978               0.050896897               0.000000000               0.146446229               0.063340840               0.000000000               0.170016481               0.075784784               0.000000000               0.193586732               0.088228728               0.000000000               0.217156983               0.100672672               0.000000000               0.240727235               0.113116616               0.000000000               0.264297486               0.125560560               0.000000000               0.287867738               0.138004504               0.000000000               0.311437989               0.150448448               0.000000000               0.335008240               0.162892392               0.000000000               0.358578492               0.175336336               0.000000000               0.382148743               0.187780280               0.000000000               0.405718994               0.200224224               0.000000000               0.429289246               0.212668168               0.000000000               0.452859497               0.225112112               0.000000000               0.476429749               0.237556056               0.000000000               0.500000000               0.250000000               0.000000000               0.117295528               0.062695766               0.000000000               0.141214558               0.078308531               0.000000000               0.165133587               0.093921295               0.000000000               0.189052617               0.109534060               0.000000000               0.212971646               0.125146824               0.000000000               0.236890676               0.140759589               0.000000000               0.260809705               0.156372354               0.000000000               0.284728735               0.171985118               0.000000000               0.308647764               0.187597883               0.000000000               0.332566794               0.203210648               0.000000000               0.356485823               0.218823412               0.000000000               0.380404853               0.234436177               0.000000000               0.404323882               0.250048941               0.000000000               0.428242912               0.265661706               0.000000000               0.452161941               0.281274471               0.000000000               0.476080971               0.296887235               0.000000000               0.500000000               0.312500000               0.000000000               0.110585458               0.073890841               0.000000000               0.134923867               0.092710163               0.000000000               0.159262276               0.111529486               0.000000000               0.183600685               0.130348808               0.000000000               0.207939094               0.149168131               0.000000000               0.232277503               0.167987453               0.000000000               0.256615912               0.186806776               0.000000000               0.280954320               0.205626098               0.000000000               0.305292729               0.224445420               0.000000000               0.329631138               0.243264743               0.000000000               0.353969547               0.262084065               0.000000000               0.378307956               0.280903388               0.000000000               0.402646365               0.299722710               0.000000000               0.426984773               0.318542033               0.000000000               0.451323182               0.337361355               0.000000000               0.475661591               0.356180678               0.000000000               0.500000000               0.375000000               0.000000000               0.102810390               0.084374307               0.000000000               0.127634741               0.106444663               0.000000000               0.152459092               0.128515018               0.000000000               0.177283442               0.150585374               0.000000000               0.202107793               0.172655730               0.000000000               0.226932143               0.194726086               0.000000000               0.251756494               0.216796442               0.000000000               0.276580845               0.238866798               0.000000000               0.301405195               0.260937153               0.000000000               0.326229546               0.283007509               0.000000000               0.351053896               0.305077865               0.000000000               0.375878247               0.327148221               0.000000000               0.400702598               0.349218577               0.000000000               0.425526948               0.371288933               0.000000000               0.450351299               0.393359288               0.000000000               0.475175649               0.415429644               0.000000000               0.500000000               0.437500000               0.000000000               0.094045202               0.094045202               0.000000000               0.119417377               0.119417377               0.000000000               0.144789552               0.144789552               0.000000000               0.170161727               0.170161727               0.000000000               0.195533901               0.195533901               0.000000000               0.220906076               0.220906076               0.000000000               0.246278251               0.246278251               0.000000000               0.271650426               0.271650426               0.000000000               0.297022601               0.297022601               0.000000000               0.322394776               0.322394776               0.000000000               0.347766951               0.347766951               0.000000000               0.373139126               0.373139126               0.000000000               0.398511300               0.398511300               0.000000000               0.423883475               0.423883475               0.000000000               0.449255650               0.449255650               0.000000000               0.474627825               0.474627825               0.000000000               0.500000000               0.500000000               0.000000000               0.084374307               0.102810390               0.000000000               0.106444663               0.127634741               0.000000000               0.128515018               0.152459092               0.000000000               0.150585374               0.177283442               0.000000000               0.172655730               0.202107793               0.000000000               0.194726086               0.226932143               0.000000000               0.216796442               0.251756494               0.000000000               0.238866798               0.276580845               0.000000000               0.260937153               0.301405195               0.000000000               0.283007509               0.326229546               0.000000000               0.305077865               0.351053896               0.000000000               0.327148221               0.375878247               0.000000000               0.349218577               0.400702598               0.000000000               0.371288933               0.425526948               0.000000000               0.393359288               0.450351299               0.000000000               0.415429644               0.475175649               0.000000000               0.437500000               0.500000000               0.000000000               0.073890841               0.110585458               0.000000000               0.092710163               0.134923867               0.000000000               0.111529486               0.159262276               0.000000000               0.130348808               0.183600685               0.000000000               0.149168131               0.207939094               0.000000000               0.167987453               0.232277503               0.000000000               0.186806776               0.256615912               0.000000000               0.205626098               0.280954320               0.000000000               0.224445420               0.305292729               0.000000000               0.243264743               0.329631138               0.000000000               0.262084065               0.353969547               0.000000000               0.280903388               0.378307956               0.000000000               0.299722710               0.402646365               0.000000000               0.318542033               0.426984773               0.000000000               0.337361355               0.451323182               0.000000000               0.356180678               0.475661591               0.000000000               0.375000000               0.500000000               0.000000000               0.062695766               0.117295528               0.000000000               0.078308531               0.141214558               0.000000000               0.093921295               0.165133587               0.000000000               0.109534060               0.189052617               0.000000000               0.125146824               0.212971646               0.000000000               0.140759589               0.236890676               0.000000000               0.156372354               0.260809705               0.000000000               0.171985118               0.284728735               0.000000000               0.187597883               0.308647764               0.000000000               0.203210648               0.332566794               0.000000000               0.218823412               0.356485823               0.000000000               0.234436177               0.380404853               0.000000000               0.250048941               0.404323882               0.000000000               0.265661706               0.428242912               0.000000000               0.281274471               0.452161941               0.000000000               0.296887235               0.476080971               0.000000000               0.312500000               0.500000000               0.000000000               0.050896897               0.122875978               0.000000000               0.063340840               0.146446229               0.000000000               0.075784784               0.170016481               0.000000000               0.088228728               0.193586732               0.000000000               0.100672672               0.217156983               0.000000000               0.113116616               0.240727235               0.000000000               0.125560560               0.264297486               0.000000000               0.138004504               0.287867738               0.000000000               0.150448448               0.311437989               0.000000000               0.162892392               0.335008240               0.000000000               0.175336336               0.358578492               0.000000000               0.187780280               0.382148743               0.000000000               0.200224224               0.405718994               0.000000000               0.212668168               0.429289246               0.000000000               0.225112112               0.452859497               0.000000000               0.237556056               0.476429749               0.000000000               0.250000000               0.500000000               0.000000000               0.038607862               0.127273065               0.000000000               0.047913621               0.150568498               0.000000000               0.057219379               0.173863932               0.000000000               0.066525138               0.197159365               0.000000000               0.075830897               0.220454798               0.000000000               0.085136655               0.243750232               0.000000000               0.094442414               0.267045665               0.000000000               0.103748172               0.290341099               0.000000000               0.113053931               0.313636532               0.000000000               0.122359690               0.336931966               0.000000000               0.131665448               0.360227399               0.000000000               0.140971207               0.383522833               0.000000000               0.150276966               0.406818266               0.000000000               0.159582724               0.430113700               0.000000000               0.168888483               0.453409133               0.000000000               0.178194241               0.476704567               0.000000000               0.187500000               0.500000000               0.000000000               0.025947013               0.130444442               0.000000000               0.032137825               0.153541665               0.000000000               0.038328636               0.176638887               0.000000000               0.044519448               0.199736109               0.000000000               0.050710260               0.222833332               0.000000000               0.056901071               0.245930554               0.000000000               0.063091883               0.269027776               0.000000000               0.069282695               0.292124999               0.000000000               0.075473506               0.315222221               0.000000000               0.081664318               0.338319444               0.000000000               0.087855130               0.361416666               0.000000000               0.094045942               0.384513888               0.000000000               0.100236753               0.407611111               0.000000000               0.106427565               0.430708333               0.000000000               0.112618377               0.453805555               0.000000000               0.118809188               0.476902778               0.000000000               0.125000000               0.500000000               0.000000000               0.013036280               0.132359569               0.000000000               0.016127762               0.155337096               0.000000000               0.019219245               0.178314623               0.000000000               0.022310727               0.201292150               0.000000000               0.025402210               0.224269676               0.000000000               0.028493692               0.247247203               0.000000000               0.031585175               0.270224730               0.000000000               0.034676657               0.293202257               0.000000000               0.037768140               0.316179784               0.000000000               0.040859622               0.339157311               0.000000000               0.043951105               0.362134838               0.000000000               0.047042587               0.385112365               0.000000000               0.050134070               0.408089892               0.000000000               0.053225552               0.431067419               0.000000000               0.056317035               0.454044946               0.000000000               0.059408517               0.477022473               0.000000000               0.062500000               0.500000000               0.000000000               0.000000000               0.133000000               0.000000000               0.000000000               0.155937500               0.000000000               0.000000000               0.178875000               0.000000000               0.000000000               0.201812500               0.000000000               0.000000000               0.224750000               0.000000000               0.000000000               0.247687500               0.000000000               0.000000000               0.270625000               0.000000000               0.000000000               0.293562500               0.000000000               0.000000000               0.316500000               0.000000000               0.000000000               0.339437500               0.000000000               0.000000000               0.362375000               0.000000000               0.000000000               0.385312500               0.000000000               0.000000000               0.408250000               0.000000000               0.000000000               0.431187500               0.000000000               0.000000000               0.454125000               0.000000000               0.000000000               0.477062500               0.000000000               0.000000000               0.500000000               0.000000000               0.133000000               0.000000000               0.000000000               0.155937500               0.000000000               0.000000000               0.178875000               0.000000000               0.000000000               0.201812500               0.000000000               0.000000000               0.224750000               0.000000000               0.000000000               0.247687500               0.000000000               0.000000000               0.270625000               0.000000000               0.000000000               0.293562500               0.000000000               0.000000000               0.316500000               0.000000000               0.000000000               0.339437500               0.000000000               0.000000000               0.362375000               0.000000000               0.000000000               0.385312500               0.000000000               0.000000000               0.408250000               0.000000000               0.000000000               0.431187500               0.000000000               0.000000000               0.454125000               0.000000000               0.000000000               0.477062500               0.000000000               0.000000000               0.500000000               0.000000000               0.000000000               0.132359569              -0.013036280               0.000000000               0.155337096              -0.016127762               0.000000000               0.178314623              -0.019219245               0.000000000               0.201292150              -0.022310727               0.000000000               0.224269676              -0.025402210               0.000000000               0.247247203              -0.028493692               0.000000000               0.270224730              -0.031585175               0.000000000               0.293202257              -0.034676657               0.000000000               0.316179784              -0.037768140               0.000000000               0.339157311              -0.040859622               0.000000000               0.362134838              -0.043951105               0.000000000               0.385112365              -0.047042587               0.000000000               0.408089892              -0.050134070               0.000000000               0.431067419              -0.053225552               0.000000000               0.454044946              -0.056317035               0.000000000               0.477022473              -0.059408517               0.000000000               0.500000000              -0.062500000               0.000000000               0.130444442              -0.025947013               0.000000000               0.153541665              -0.032137825               0.000000000               0.176638887              -0.038328636               0.000000000               0.199736109              -0.044519448               0.000000000               0.222833332              -0.050710260               0.000000000               0.245930554              -0.056901071               0.000000000               0.269027776              -0.063091883               0.000000000               0.292124999              -0.069282695               0.000000000               0.315222221              -0.075473506               0.000000000               0.338319444              -0.081664318               0.000000000               0.361416666              -0.087855130               0.000000000               0.384513888              -0.094045942               0.000000000               0.407611111              -0.100236753               0.000000000               0.430708333              -0.106427565               0.000000000               0.453805555              -0.112618377               0.000000000               0.476902778              -0.118809188               0.000000000               0.500000000              -0.125000000               0.000000000               0.127273065              -0.038607862               0.000000000               0.150568498              -0.047913621               0.000000000               0.173863932              -0.057219379               0.000000000               0.197159365              -0.066525138               0.000000000               0.220454798              -0.075830897               0.000000000               0.243750232              -0.085136655               0.000000000               0.267045665              -0.094442414               0.000000000               0.290341099              -0.103748172               0.000000000               0.313636532              -0.113053931               0.000000000               0.336931966              -0.122359690               0.000000000               0.360227399              -0.131665448               0.000000000               0.383522833              -0.140971207               0.000000000               0.406818266              -0.150276966               0.000000000               0.430113700              -0.159582724               0.000000000               0.453409133              -0.168888483               0.000000000               0.476704567              -0.178194241               0.000000000               0.500000000              -0.187500000               0.000000000               0.122875978              -0.050896897               0.000000000               0.146446229              -0.063340840               0.000000000               0.170016481              -0.075784784               0.000000000               0.193586732              -0.088228728               0.000000000               0.217156983              -0.100672672               0.000000000               0.240727235              -0.113116616               0.000000000               0.264297486              -0.125560560               0.000000000               0.287867738              -0.138004504               0.000000000               0.311437989              -0.150448448               0.000000000               0.335008240              -0.162892392               0.000000000               0.358578492              -0.175336336               0.000000000               0.382148743              -0.187780280               0.000000000               0.405718994              -0.200224224               0.000000000               0.429289246              -0.212668168               0.000000000               0.452859497              -0.225112112               0.000000000               0.476429749              -0.237556056               0.000000000               0.500000000              -0.250000000               0.000000000               0.117295528              -0.062695766               0.000000000               0.141214558              -0.078308531               0.000000000               0.165133587              -0.093921295               0.000000000               0.189052617              -0.109534060               0.000000000               0.212971646              -0.125146824               0.000000000               0.236890676              -0.140759589               0.000000000               0.260809705              -0.156372354               0.000000000               0.284728735              -0.171985118               0.000000000               0.308647764              -0.187597883               0.000000000               0.332566794              -0.203210648               0.000000000               0.356485823              -0.218823412               0.000000000               0.380404853              -0.234436177               0.000000000               0.404323882              -0.250048941               0.000000000               0.428242912              -0.265661706               0.000000000               0.452161941              -0.281274471               0.000000000               0.476080971              -0.296887235               0.000000000               0.500000000              -0.312500000               0.000000000               0.110585458              -0.073890841               0.000000000               0.134923867              -0.092710163               0.000000000               0.159262276              -0.111529486               0.000000000               0.183600685              -0.130348808               0.000000000               0.207939094              -0.149168131               0.000000000               0.232277503              -0.167987453               0.000000000               0.256615912              -0.186806776               0.000000000               0.280954320              -0.205626098               0.000000000               0.305292729              -0.224445420               0.000000000               0.329631138              -0.243264743               0.000000000               0.353969547              -0.262084065               0.000000000               0.378307956              -0.280903388               0.000000000               0.402646365              -0.299722710               0.000000000               0.426984773              -0.318542033               0.000000000               0.451323182              -0.337361355               0.000000000               0.475661591              -0.356180678               0.000000000               0.500000000              -0.375000000               0.000000000               0.102810390              -0.084374307               0.000000000               0.127634741              -0.106444663               0.000000000               0.152459092              -0.128515018               0.000000000               0.177283442              -0.150585374               0.000000000               0.202107793              -0.172655730               0.000000000               0.226932143              -0.194726086               0.000000000               0.251756494              -0.216796442               0.000000000               0.276580845              -0.238866798               0.000000000               0.301405195              -0.260937153               0.000000000               0.326229546              -0.283007509               0.000000000               0.351053896              -0.305077865               0.000000000               0.375878247              -0.327148221               0.000000000               0.400702598              -0.349218577               0.000000000               0.425526948              -0.371288933               0.000000000               0.450351299              -0.393359288               0.000000000               0.475175649              -0.415429644               0.000000000               0.500000000              -0.437500000               0.000000000               0.094045202              -0.094045202               0.000000000               0.119417377              -0.119417377               0.000000000               0.144789552              -0.144789552               0.000000000               0.170161727              -0.170161727               0.000000000               0.195533901              -0.195533901               0.000000000               0.220906076              -0.220906076               0.000000000               0.246278251              -0.246278251               0.000000000               0.271650426              -0.271650426               0.000000000               0.297022601              -0.297022601               0.000000000               0.322394776              -0.322394776               0.000000000               0.347766951              -0.347766951               0.000000000               0.373139126              -0.373139126               0.000000000               0.398511300              -0.398511300               0.000000000               0.423883475              -0.423883475               0.000000000               0.449255650              -0.449255650               0.000000000               0.474627825              -0.474627825               0.000000000               0.500000000              -0.500000000               0.000000000               0.084374307              -0.102810390               0.000000000               0.106444663              -0.127634741               0.000000000               0.128515018              -0.152459092               0.000000000               0.150585374              -0.177283442               0.000000000               0.172655730              -0.202107793               0.000000000               0.194726086              -0.226932143               0.000000000               0.216796442              -0.251756494               0.000000000               0.238866798              -0.276580845               0.000000000               0.260937153              -0.301405195               0.000000000               0.283007509              -0.326229546               0.000000000               0.305077865              -0.351053896               0.000000000               0.327148221              -0.375878247               0.000000000               0.349218577              -0.400702598               0.000000000               0.371288933              -0.425526948               0.000000000               0.393359288              -0.450351299               0.000000000               0.415429644              -0.475175649               0.000000000               0.437500000              -0.500000000               0.000000000               0.073890841              -0.110585458               0.000000000               0.092710163              -0.134923867               0.000000000               0.111529486              -0.159262276               0.000000000               0.130348808              -0.183600685               0.000000000               0.149168131              -0.207939094               0.000000000               0.167987453              -0.232277503               0.000000000               0.186806776              -0.256615912               0.000000000               0.205626098              -0.280954320               0.000000000               0.224445420              -0.305292729               0.000000000               0.243264743              -0.329631138               0.000000000               0.262084065              -0.353969547               0.000000000               0.280903388              -0.378307956               0.000000000               0.299722710              -0.402646365               0.000000000               0.318542033              -0.426984773               0.000000000               0.337361355              -0.451323182               0.000000000               0.356180678              -0.475661591               0.000000000               0.375000000              -0.500000000               0.000000000               0.062695766              -0.117295528               0.000000000               0.078308531              -0.141214558               0.000000000               0.093921295              -0.165133587               0.000000000               0.109534060              -0.189052617               0.000000000               0.125146824              -0.212971646               0.000000000               0.140759589              -0.236890676               0.000000000               0.156372354              -0.260809705               0.000000000               0.171985118              -0.284728735               0.000000000               0.187597883              -0.308647764               0.000000000               0.203210648              -0.332566794               0.000000000               0.218823412              -0.356485823               0.000000000               0.234436177              -0.380404853               0.000000000               0.250048941              -0.404323882               0.000000000               0.265661706              -0.428242912               0.000000000               0.281274471              -0.452161941               0.000000000               0.296887235              -0.476080971               0.000000000               0.312500000              -0.500000000               0.000000000               0.050896897              -0.122875978               0.000000000               0.063340840              -0.146446229               0.000000000               0.075784784              -0.170016481               0.000000000               0.088228728              -0.193586732               0.000000000               0.100672672              -0.217156983               0.000000000               0.113116616              -0.240727235               0.000000000               0.125560560              -0.264297486               0.000000000               0.138004504              -0.287867738               0.000000000               0.150448448              -0.311437989               0.000000000               0.162892392              -0.335008240               0.000000000               0.175336336              -0.358578492               0.000000000               0.187780280              -0.382148743               0.000000000               0.200224224              -0.405718994               0.000000000               0.212668168              -0.429289246               0.000000000               0.225112112              -0.452859497               0.000000000               0.237556056              -0.476429749               0.000000000               0.250000000              -0.500000000               0.000000000               0.038607862              -0.127273065               0.000000000               0.047913621              -0.150568498               0.000000000               0.057219379              -0.173863932               0.000000000               0.066525138              -0.197159365               0.000000000               0.075830897              -0.220454798               0.000000000               0.085136655              -0.243750232               0.000000000               0.094442414              -0.267045665               0.000000000               0.103748172              -0.290341099               0.000000000               0.113053931              -0.313636532               0.000000000               0.122359690              -0.336931966               0.000000000               0.131665448              -0.360227399               0.000000000               0.140971207              -0.383522833               0.000000000               0.150276966              -0.406818266               0.000000000               0.159582724              -0.430113700               0.000000000               0.168888483              -0.453409133               0.000000000               0.178194241              -0.476704567               0.000000000               0.187500000              -0.500000000               0.000000000               0.025947013              -0.130444442               0.000000000               0.032137825              -0.153541665               0.000000000               0.038328636              -0.176638887               0.000000000               0.044519448              -0.199736109               0.000000000               0.050710260              -0.222833332               0.000000000               0.056901071              -0.245930554               0.000000000               0.063091883              -0.269027776               0.000000000               0.069282695              -0.292124999               0.000000000               0.075473506              -0.315222221               0.000000000               0.081664318              -0.338319444               0.000000000               0.087855130              -0.361416666               0.000000000               0.094045942              -0.384513888               0.000000000               0.100236753              -0.407611111               0.000000000               0.106427565              -0.430708333               0.000000000               0.112618377              -0.453805555               0.000000000               0.118809188              -0.476902778               0.000000000               0.125000000              -0.500000000               0.000000000               0.013036280              -0.132359569               0.000000000               0.016127762              -0.155337096               0.000000000               0.019219245              -0.178314623               0.000000000               0.022310727              -0.201292150               0.000000000               0.025402210              -0.224269676               0.000000000               0.028493692              -0.247247203               0.000000000               0.031585175              -0.270224730               0.000000000               0.034676657              -0.293202257               0.000000000               0.037768140              -0.316179784               0.000000000               0.040859622              -0.339157311               0.000000000               0.043951105              -0.362134838               0.000000000               0.047042587              -0.385112365               0.000000000               0.050134070              -0.408089892               0.000000000               0.053225552              -0.431067419               0.000000000               0.056317035              -0.454044946               0.000000000               0.059408517              -0.477022473               0.000000000               0.062500000              -0.500000000               0.000000000               0.000000000              -0.133000000               0.000000000               0.000000000              -0.155937500               0.000000000               0.000000000              -0.178875000               0.000000000               0.000000000              -0.201812500               0.000000000               0.000000000              -0.224750000               0.000000000               0.000000000              -0.247687500               0.000000000               0.000000000              -0.270625000               0.000000000               0.000000000              -0.293562500               0.000000000               0.000000000              -0.316500000               0.000000000               0.000000000              -0.339437500               0.000000000               0.000000000              -0.362375000               0.000000000               0.000000000              -0.385312500               0.000000000               0.000000000              -0.408250000               0.000000000               0.000000000              -0.431187500               0.000000000               0.000000000              -0.454125000               0.000000000               0.000000000              -0.477062500               0.000000000               0.000000000              -0.500000000               0.000000000              -0.133000000               0.000000000               0.000000000              -0.155937500               0.000000000               0.000000000              -0.178875000               0.000000000               0.000000000              -0.201812500               0.000000000               0.000000000              -0.224750000               0.000000000               0.000000000              -0.247687500               0.000000000               0.000000000              -0.270625000               0.000000000               0.000000000              -0.293562500               0.000000000               0.000000000              -0.316500000               0.000000000               0.000000000              -0.339437500               0.000000000               0.000000000              -0.362375000               0.000000000               0.000000000              -0.385312500               0.000000000               0.000000000              -0.408250000               0.000000000               0.000000000              -0.431187500               0.000000000               0.000000000              -0.454125000               0.000000000               0.000000000              -0.477062500               0.000000000               0.000000000              -0.500000000               0.000000000               0.000000000              -0.132359569              -0.013036280               0.000000000              -0.155337096              -0.016127762               0.000000000              -0.178314623              -0.019219245               0.000000000              -0.201292150              -0.022310727               0.000000000              -0.224269676              -0.025402210               0.000000000              -0.247247203              -0.028493692               0.000000000              -0.270224730              -0.031585175               0.000000000              -0.293202257              -0.034676657               0.000000000              -0.316179784              -0.037768140               0.000000000              -0.339157311              -0.040859622               0.000000000              -0.362134838              -0.043951105               0.000000000              -0.385112365              -0.047042587               0.000000000              -0.408089892              -0.050134070               0.000000000              -0.431067419              -0.053225552               0.000000000              -0.454044946              -0.056317035               0.000000000              -0.477022473              -0.059408517               0.000000000              -0.500000000              -0.062500000               0.000000000              -0.130444442              -0.025947013               0.000000000              -0.153541665              -0.032137825               0.000000000              -0.176638887              -0.038328636               0.000000000              -0.199736109              -0.044519448               0.000000000              -0.222833332              -0.050710260               0.000000000              -0.245930554              -0.056901071               0.000000000              -0.269027776              -0.063091883               0.000000000              -0.292124999              -0.069282695               0.000000000              -0.315222221              -0.075473506               0.000000000              -0.338319444              -0.081664318               0.000000000              -0.361416666              -0.087855130               0.000000000              -0.384513888              -0.094045942               0.000000000              -0.407611111              -0.100236753               0.000000000              -0.430708333              -0.106427565               0.000000000              -0.453805555              -0.112618377               0.000000000              -0.476902778              -0.118809188               0.000000000              -0.500000000              -0.125000000               0.000000000              -0.127273065              -0.038607862               0.000000000              -0.150568498              -0.047913621               0.000000000              -0.173863932              -0.057219379               0.000000000              -0.197159365              -0.066525138               0.000000000              -0.220454798              -0.075830897               0.000000000              -0.243750232              -0.085136655               0.000000000              -0.267045665              -0.094442414               0.000000000              -0.290341099              -0.103748172               0.000000000              -0.313636532              -0.113053931               0.000000000              -0.336931966              -0.122359690               0.000000000              -0.360227399              -0.131665448               0.000000000              -0.383522833              -0.140971207               0.000000000              -0.406818266              -0.150276966               0.000000000              -0.430113700              -0.159582724               0.000000000              -0.453409133              -0.168888483               0.000000000              -0.476704567              -0.178194241               0.000000000              -0.500000000              -0.187500000               0.000000000              -0.122875978              -0.050896897               0.000000000              -0.146446229              -0.063340840               0.000000000              -0.170016481              -0.075784784               0.000000000              -0.193586732              -0.088228728               0.000000000              -0.217156983              -0.100672672               0.000000000              -0.240727235              -0.113116616               0.000000000              -0.264297486              -0.125560560               0.000000000              -0.287867738              -0.138004504               0.000000000              -0.311437989              -0.150448448               0.000000000              -0.335008240              -0.162892392               0.000000000              -0.358578492              -0.175336336               0.000000000              -0.382148743              -0.187780280               0.000000000              -0.405718994              -0.200224224               0.000000000              -0.429289246              -0.212668168               0.000000000              -0.452859497              -0.225112112               0.000000000              -0.476429749              -0.237556056               0.000000000              -0.500000000              -0.250000000               0.000000000              -0.117295528              -0.062695766               0.000000000              -0.141214558              -0.078308531               0.000000000              -0.165133587              -0.093921295               0.000000000              -0.189052617              -0.109534060               0.000000000              -0.212971646              -0.125146824               0.000000000              -0.236890676              -0.140759589               0.000000000              -0.260809705              -0.156372354               0.000000000              -0.284728735              -0.171985118               0.000000000              -0.308647764              -0.187597883               0.000000000              -0.332566794              -0.203210648               0.000000000              -0.356485823              -0.218823412               0.000000000              -0.380404853              -0.234436177               0.000000000              -0.404323882              -0.250048941               0.000000000              -0.428242912              -0.265661706               0.000000000              -0.452161941              -0.281274471               0.000000000              -0.476080971              -0.296887235               0.000000000              -0.500000000              -0.312500000               0.000000000              -0.110585458              -0.073890841               0.000000000              -0.134923867              -0.092710163               0.000000000              -0.159262276              -0.111529486               0.000000000              -0.183600685              -0.130348808               0.000000000              -0.207939094              -0.149168131               0.000000000              -0.232277503              -0.167987453               0.000000000              -0.256615912              -0.186806776               0.000000000              -0.280954320              -0.205626098               0.000000000              -0.305292729              -0.224445420               0.000000000              -0.329631138              -0.243264743               0.000000000              -0.353969547              -0.262084065               0.000000000              -0.378307956              -0.280903388               0.000000000              -0.402646365              -0.299722710               0.000000000              -0.426984773              -0.318542033               0.000000000              -0.451323182              -0.337361355               0.000000000              -0.475661591              -0.356180678               0.000000000              -0.500000000              -0.375000000               0.000000000              -0.102810390              -0.084374307               0.000000000              -0.127634741              -0.106444663               0.000000000              -0.152459092              -0.128515018               0.000000000              -0.177283442              -0.150585374               0.000000000              -0.202107793              -0.172655730               0.000000000              -0.226932143              -0.194726086               0.000000000              -0.251756494              -0.216796442               0.000000000              -0.276580845              -0.238866798               0.000000000              -0.301405195              -0.260937153               0.000000000              -0.326229546              -0.283007509               0.000000000              -0.351053896              -0.305077865               0.000000000              -0.375878247              -0.327148221               0.000000000              -0.400702598              -0.349218577               0.000000000              -0.425526948              -0.371288933               0.000000000              -0.450351299              -0.393359288               0.000000000              -0.475175649              -0.415429644               0.000000000              -0.500000000              -0.437500000               0.000000000              -0.094045202              -0.094045202               0.000000000              -0.119417377              -0.119417377               0.000000000              -0.144789552              -0.144789552               0.000000000              -0.170161727              -0.170161727               0.000000000              -0.195533901              -0.195533901               0.000000000              -0.220906076              -0.220906076               0.000000000              -0.246278251              -0.246278251               0.000000000              -0.271650426              -0.271650426               0.000000000              -0.297022601              -0.297022601               0.000000000              -0.322394776              -0.322394776               0.000000000              -0.347766951              -0.347766951               0.000000000              -0.373139126              -0.373139126               0.000000000              -0.398511300              -0.398511300               0.000000000              -0.423883475              -0.423883475               0.000000000              -0.449255650              -0.449255650               0.000000000              -0.474627825              -0.474627825               0.000000000              -0.500000000              -0.500000000               0.000000000              -0.084374307              -0.102810390               0.000000000              -0.106444663              -0.127634741               0.000000000              -0.128515018              -0.152459092               0.000000000              -0.150585374              -0.177283442               0.000000000              -0.172655730              -0.202107793               0.000000000              -0.194726086              -0.226932143               0.000000000              -0.216796442              -0.251756494               0.000000000              -0.238866798              -0.276580845               0.000000000              -0.260937153              -0.301405195               0.000000000              -0.283007509              -0.326229546               0.000000000              -0.305077865              -0.351053896               0.000000000              -0.327148221              -0.375878247               0.000000000              -0.349218577              -0.400702598               0.000000000              -0.371288933              -0.425526948               0.000000000              -0.393359288              -0.450351299               0.000000000              -0.415429644              -0.475175649               0.000000000              -0.437500000              -0.500000000               0.000000000              -0.073890841              -0.110585458               0.000000000              -0.092710163              -0.134923867               0.000000000              -0.111529486              -0.159262276               0.000000000              -0.130348808              -0.183600685               0.000000000              -0.149168131              -0.207939094               0.000000000              -0.167987453              -0.232277503               0.000000000              -0.186806776              -0.256615912               0.000000000              -0.205626098              -0.280954320               0.000000000              -0.224445420              -0.305292729               0.000000000              -0.243264743              -0.329631138               0.000000000              -0.262084065              -0.353969547               0.000000000              -0.280903388              -0.378307956               0.000000000              -0.299722710              -0.402646365               0.000000000              -0.318542033              -0.426984773               0.000000000              -0.337361355              -0.451323182               0.000000000              -0.356180678              -0.475661591               0.000000000              -0.375000000              -0.500000000               0.000000000              -0.062695766              -0.117295528               0.000000000              -0.078308531              -0.141214558               0.000000000              -0.093921295              -0.165133587               0.000000000              -0.109534060              -0.189052617               0.000000000              -0.125146824              -0.212971646               0.000000000              -0.140759589              -0.236890676               0.000000000              -0.156372354              -0.260809705               0.000000000              -0.171985118              -0.284728735               0.000000000              -0.187597883              -0.308647764               0.000000000              -0.203210648              -0.332566794               0.000000000              -0.218823412              -0.356485823               0.000000000              -0.234436177              -0.380404853               0.000000000              -0.250048941              -0.404323882               0.000000000              -0.265661706              -0.428242912               0.000000000              -0.281274471              -0.452161941               0.000000000              -0.296887235              -0.476080971               0.000000000              -0.312500000              -0.500000000               0.000000000              -0.050896897              -0.122875978               0.000000000              -0.063340840              -0.146446229               0.000000000              -0.075784784              -0.170016481               0.000000000              -0.088228728              -0.193586732               0.000000000              -0.100672672              -0.217156983               0.000000000              -0.113116616              -0.240727235               0.000000000              -0.125560560              -0.264297486               0.000000000              -0.138004504              -0.287867738               0.000000000              -0.150448448              -0.311437989               0.000000000              -0.162892392              -0.335008240               0.000000000              -0.175336336              -0.358578492               0.000000000              -0.187780280              -0.382148743               0.000000000              -0.200224224              -0.405718994               0.000000000              -0.212668168              -0.429289246               0.000000000              -0.225112112              -0.452859497               0.000000000              -0.237556056              -0.476429749               0.000000000              -0.250000000              -0.500000000               0.000000000              -0.038607862              -0.127273065               0.000000000              -0.047913621              -0.150568498               0.000000000              -0.057219379              -0.173863932               0.000000000              -0.066525138              -0.197159365               0.000000000              -0.075830897              -0.220454798               0.000000000              -0.085136655              -0.243750232               0.000000000              -0.094442414              -0.267045665               0.000000000              -0.103748172              -0.290341099               0.000000000              -0.113053931              -0.313636532               0.000000000              -0.122359690              -0.336931966               0.000000000              -0.131665448              -0.360227399               0.000000000              -0.140971207              -0.383522833               0.000000000              -0.150276966              -0.406818266               0.000000000              -0.159582724              -0.430113700               0.000000000              -0.168888483              -0.453409133               0.000000000              -0.178194241              -0.476704567               0.000000000              -0.187500000              -0.500000000               0.000000000              -0.025947013              -0.130444442               0.000000000              -0.032137825              -0.153541665               0.000000000              -0.038328636              -0.176638887               0.000000000              -0.044519448              -0.199736109               0.000000000              -0.050710260              -0.222833332               0.000000000              -0.056901071              -0.245930554               0.000000000              -0.063091883              -0.269027776               0.000000000              -0.069282695              -0.292124999               0.000000000              -0.075473506              -0.315222221               0.000000000              -0.081664318              -0.338319444               0.000000000              -0.087855130              -0.361416666               0.000000000              -0.094045942              -0.384513888               0.000000000              -0.100236753              -0.407611111               0.000000000              -0.106427565              -0.430708333               0.000000000              -0.112618377              -0.453805555               0.000000000              -0.118809188              -0.476902778               0.000000000              -0.125000000              -0.500000000               0.000000000              -0.013036280              -0.132359569               0.000000000              -0.016127762              -0.155337096               0.000000000              -0.019219245              -0.178314623               0.000000000              -0.022310727              -0.201292150               0.000000000              -0.025402210              -0.224269676               0.000000000              -0.028493692              -0.247247203               0.000000000              -0.031585175              -0.270224730               0.000000000              -0.034676657              -0.293202257               0.000000000              -0.037768140              -0.316179784               0.000000000              -0.040859622              -0.339157311               0.000000000              -0.043951105              -0.362134838               0.000000000              -0.047042587              -0.385112365               0.000000000              -0.050134070              -0.408089892               0.000000000              -0.053225552              -0.431067419               0.000000000              -0.056317035              -0.454044946               0.000000000              -0.059408517              -0.477022473               0.000000000              -0.062500000              -0.500000000               0.000000000               0.000000000              -0.133000000               0.000000000               0.000000000              -0.155937500               0.000000000               0.000000000              -0.178875000               0.000000000               0.000000000              -0.201812500               0.000000000               0.000000000              -0.224750000               0.000000000               0.000000000              -0.247687500               0.000000000               0.000000000              -0.270625000               0.000000000               0.000000000              -0.293562500               0.000000000               0.000000000              -0.316500000               0.000000000               0.000000000              -0.339437500               0.000000000               0.000000000              -0.362375000               0.000000000               0.000000000              -0.385312500               0.000000000               0.000000000              -0.408250000               0.000000000               0.000000000              -0.431187500               0.000000000               0.000000000              -0.454125000               0.000000000               0.000000000              -0.477062500               0.000000000               0.000000000              -0.500000000               0.000000000              -0.133000000               0.000000000               0.000000000              -0.155937500               0.000000000               0.000000000              -0.178875000               0.000000000               0.000000000              -0.201812500               0.000000000               0.000000000              -0.224750000               0.000000000               0.000000000              -0.247687500               0.000000000               0.000000000              -0.270625000               0.000000000               0.000000000              -0.293562500               0.000000000               0.000000000              -0.316500000               0.000000000               0.000000000              -0.339437500               0.000000000               0.000000000              -0.362375000               0.000000000               0.000000000              -0.385312500               0.000000000               0.000000000              -0.408250000               0.000000000               0.000000000              -0.431187500               0.000000000               0.000000000              -0.454125000               0.000000000               0.000000000              -0.477062500               0.000000000               0.000000000              -0.500000000               0.000000000               0.000000000              -0.132359569               0.013036280               0.000000000              -0.155337096               0.016127762               0.000000000              -0.178314623               0.019219245               0.000000000              -0.201292150               0.022310727               0.000000000              -0.224269676               0.025402210               0.000000000              -0.247247203               0.028493692               0.000000000              -0.270224730               0.031585175               0.000000000              -0.293202257               0.034676657               0.000000000              -0.316179784               0.037768140               0.000000000              -0.339157311               0.040859622               0.000000000              -0.362134838               0.043951105               0.000000000              -0.385112365               0.047042587               0.000000000              -0.408089892               0.050134070               0.000000000              -0.431067419               0.053225552               0.000000000              -0.454044946               0.056317035               0.000000000              -0.477022473               0.059408517               0.000000000              -0.500000000               0.062500000               0.000000000              -0.130444442               0.025947013               0.000000000              -0.153541665               0.032137825               0.000000000              -0.176638887               0.038328636               0.000000000              -0.199736109               0.044519448               0.000000000              -0.222833332               0.050710260               0.000000000              -0.245930554               0.056901071               0.000000000              -0.269027776               0.063091883               0.000000000              -0.292124999               0.069282695               0.000000000              -0.315222221               0.075473506               0.000000000              -0.338319444               0.081664318               0.000000000              -0.361416666               0.087855130               0.000000000              -0.384513888               0.094045942               0.000000000              -0.407611111               0.100236753               0.000000000              -0.430708333               0.106427565               0.000000000              -0.453805555               0.112618377               0.000000000              -0.476902778               0.118809188               0.000000000              -0.500000000               0.125000000               0.000000000              -0.127273065               0.038607862               0.000000000              -0.150568498               0.047913621               0.000000000              -0.173863932               0.057219379               0.000000000              -0.197159365               0.066525138               0.000000000              -0.220454798               0.075830897               0.000000000              -0.243750232               0.085136655               0.000000000              -0.267045665               0.094442414               0.000000000              -0.290341099               0.103748172               0.000000000              -0.313636532               0.113053931               0.000000000              -0.336931966               0.122359690               0.000000000              -0.360227399               0.131665448               0.000000000              -0.383522833               0.140971207               0.000000000              -0.406818266               0.150276966               0.000000000              -0.430113700               0.159582724               0.000000000              -0.453409133               0.168888483               0.000000000              -0.476704567               0.178194241               0.000000000              -0.500000000               0.187500000               0.000000000              -0.122875978               0.050896897               0.000000000              -0.146446229               0.063340840               0.000000000              -0.170016481               0.075784784               0.000000000              -0.193586732               0.088228728               0.000000000              -0.217156983               0.100672672               0.000000000              -0.240727235               0.113116616               0.000000000              -0.264297486               0.125560560               0.000000000              -0.287867738               0.138004504               0.000000000              -0.311437989               0.150448448               0.000000000              -0.335008240               0.162892392               0.000000000              -0.358578492               0.175336336               0.000000000              -0.382148743               0.187780280               0.000000000              -0.405718994               0.200224224               0.000000000              -0.429289246               0.212668168               0.000000000              -0.452859497               0.225112112               0.000000000              -0.476429749               0.237556056               0.000000000              -0.500000000               0.250000000               0.000000000              -0.117295528               0.062695766               0.000000000              -0.141214558               0.078308531               0.000000000              -0.165133587               0.093921295               0.000000000              -0.189052617               0.109534060               0.000000000              -0.212971646               0.125146824               0.000000000              -0.236890676               0.140759589               0.000000000              -0.260809705               0.156372354               0.000000000              -0.284728735               0.171985118               0.000000000              -0.308647764               0.187597883               0.000000000              -0.332566794               0.203210648               0.000000000              -0.356485823               0.218823412               0.000000000              -0.380404853               0.234436177               0.000000000              -0.404323882               0.250048941               0.000000000              -0.428242912               0.265661706               0.000000000              -0.452161941               0.281274471               0.000000000              -0.476080971               0.296887235               0.000000000              -0.500000000               0.312500000               0.000000000              -0.110585458               0.073890841               0.000000000              -0.134923867               0.092710163               0.000000000              -0.159262276               0.111529486               0.000000000              -0.183600685               0.130348808               0.000000000              -0.207939094               0.149168131               0.000000000              -0.232277503               0.167987453               0.000000000              -0.256615912               0.186806776               0.000000000              -0.280954320               0.205626098               0.000000000              -0.305292729               0.224445420               0.000000000              -0.329631138               0.243264743               0.000000000              -0.353969547               0.262084065               0.000000000              -0.378307956               0.280903388               0.000000000              -0.402646365               0.299722710               0.000000000              -0.426984773               0.318542033               0.000000000              -0.451323182               0.337361355               0.000000000              -0.475661591               0.356180678               0.000000000              -0.500000000               0.375000000               0.000000000              -0.102810390               0.084374307               0.000000000              -0.127634741               0.106444663               0.000000000              -0.152459092               0.128515018               0.000000000              -0.177283442               0.150585374               0.000000000              -0.202107793               0.172655730               0.000000000              -0.226932143               0.194726086               0.000000000              -0.251756494               0.216796442               0.000000000              -0.276580845               0.238866798               0.000000000              -0.301405195               0.260937153               0.000000000              -0.326229546               0.283007509               0.000000000              -0.351053896               0.305077865               0.000000000              -0.375878247               0.327148221               0.000000000              -0.400702598               0.349218577               0.000000000              -0.425526948               0.371288933               0.000000000              -0.450351299               0.393359288               0.000000000              -0.475175649               0.415429644               0.000000000              -0.500000000               0.437500000               0.000000000              -0.094045202               0.094045202               0.000000000              -0.119417377               0.119417377               0.000000000              -0.144789552               0.144789552               0.000000000              -0.170161727               0.170161727               0.000000000              -0.195533901               0.195533901               0.000000000              -0.220906076               0.220906076               0.000000000              -0.246278251               0.246278251               0.000000000              -0.271650426               0.271650426               0.000000000              -0.297022601               0.297022601               0.000000000              -0.322394776               0.322394776               0.000000000              -0.347766951               0.347766951               0.000000000              -0.373139126               0.373139126               0.000000000              -0.398511300               0.398511300               0.000000000              -0.423883475               0.423883475               0.000000000              -0.449255650               0.449255650               0.000000000              -0.474627825               0.474627825               0.000000000              -0.500000000               0.500000000               0.000000000              -0.084374307               0.102810390               0.000000000              -0.106444663               0.127634741               0.000000000              -0.128515018               0.152459092               0.000000000              -0.150585374               0.177283442               0.000000000              -0.172655730               0.202107793               0.000000000              -0.194726086               0.226932143               0.000000000              -0.216796442               0.251756494               0.000000000              -0.238866798               0.276580845               0.000000000              -0.260937153               0.301405195               0.000000000              -0.283007509               0.326229546               0.000000000              -0.305077865               0.351053896               0.000000000              -0.327148221               0.375878247               0.000000000              -0.349218577               0.400702598               0.000000000              -0.371288933               0.425526948               0.000000000              -0.393359288               0.450351299               0.000000000              -0.415429644               0.475175649               0.000000000              -0.437500000               0.500000000               0.000000000              -0.073890841               0.110585458               0.000000000              -0.092710163               0.134923867               0.000000000              -0.111529486               0.159262276               0.000000000              -0.130348808               0.183600685               0.000000000              -0.149168131               0.207939094               0.000000000              -0.167987453               0.232277503               0.000000000              -0.186806776               0.256615912               0.000000000              -0.205626098               0.280954320               0.000000000              -0.224445420               0.305292729               0.000000000              -0.243264743               0.329631138               0.000000000              -0.262084065               0.353969547               0.000000000              -0.280903388               0.378307956               0.000000000              -0.299722710               0.402646365               0.000000000              -0.318542033               0.426984773               0.000000000              -0.337361355               0.451323182               0.000000000              -0.356180678               0.475661591               0.000000000              -0.375000000               0.500000000               0.000000000              -0.062695766               0.117295528               0.000000000              -0.078308531               0.141214558               0.000000000              -0.093921295               0.165133587               0.000000000              -0.109534060               0.189052617               0.000000000              -0.125146824               0.212971646               0.000000000              -0.140759589               0.236890676               0.000000000              -0.156372354               0.260809705               0.000000000              -0.171985118               0.284728735               0.000000000              -0.187597883               0.308647764               0.000000000              -0.203210648               0.332566794               0.000000000              -0.218823412               0.356485823               0.000000000              -0.234436177               0.380404853               0.000000000              -0.250048941               0.404323882               0.000000000              -0.265661706               0.428242912               0.000000000              -0.281274471               0.452161941               0.000000000              -0.296887235               0.476080971               0.000000000              -0.312500000               0.500000000               0.000000000              -0.050896897               0.122875978               0.000000000              -0.063340840               0.146446229               0.000000000              -0.075784784               0.170016481               0.000000000              -0.088228728               0.193586732               0.000000000              -0.100672672               0.217156983               0.000000000              -0.113116616               0.240727235               0.000000000              -0.125560560               0.264297486               0.000000000              -0.138004504               0.287867738               0.000000000              -0.150448448               0.311437989               0.000000000              -0.162892392               0.335008240               0.000000000              -0.175336336               0.358578492               0.000000000              -0.187780280               0.382148743               0.000000000              -0.200224224               0.405718994               0.000000000              -0.212668168               0.429289246               0.000000000              -0.225112112               0.452859497               0.000000000              -0.237556056               0.476429749               0.000000000              -0.250000000               0.500000000               0.000000000              -0.038607862               0.127273065               0.000000000              -0.047913621               0.150568498               0.000000000              -0.057219379               0.173863932               0.000000000              -0.066525138               0.197159365               0.000000000              -0.075830897               0.220454798               0.000000000              -0.085136655               0.243750232               0.000000000              -0.094442414               0.267045665               0.000000000              -0.103748172               0.290341099               0.000000000              -0.113053931               0.313636532               0.000000000              -0.122359690               0.336931966               0.000000000              -0.131665448               0.360227399               0.000000000              -0.140971207               0.383522833               0.000000000              -0.150276966               0.406818266               0.000000000              -0.159582724               0.430113700               0.000000000              -0.168888483               0.453409133               0.000000000              -0.178194241               0.476704567               0.000000000              -0.187500000               0.500000000               0.000000000              -0.025947013               0.130444442               0.000000000              -0.032137825               0.153541665               0.000000000              -0.038328636               0.176638887               0.000000000              -0.044519448               0.199736109               0.000000000              -0.050710260               0.222833332               0.000000000              -0.056901071               0.245930554               0.000000000              -0.063091883               0.269027776               0.000000000              -0.069282695               0.292124999               0.000000000              -0.075473506               0.315222221               0.000000000              -0.081664318               0.338319444               0.000000000              -0.087855130               0.361416666               0.000000000              -0.094045942               0.384513888               0.000000000              -0.100236753               0.407611111               0.000000000              -0.106427565               0.430708333               0.000000000              -0.112618377               0.453805555               0.000000000              -0.118809188               0.476902778               0.000000000              -0.125000000               0.500000000               0.000000000              -0.013036280               0.132359569               0.000000000              -0.016127762               0.155337096               0.000000000              -0.019219245               0.178314623               0.000000000              -0.022310727               0.201292150               0.000000000              -0.025402210               0.224269676               0.000000000              -0.028493692               0.247247203               0.000000000              -0.031585175               0.270224730               0.000000000              -0.034676657               0.293202257               0.000000000              -0.037768140               0.316179784               0.000000000              -0.040859622               0.339157311               0.000000000              -0.043951105               0.362134838               0.000000000              -0.047042587               0.385112365               0.000000000              -0.050134070               0.408089892               0.000000000              -0.053225552               0.431067419               0.000000000              -0.056317035               0.454044946               0.000000000              -0.059408517               0.477022473               0.000000000              -0.062500000               0.500000000               0.000000000               0.000000000               0.133000000               0.000000000               0.000000000               0.155937500               0.000000000               0.000000000               0.178875000               0.000000000               0.000000000               0.201812500               0.000000000               0.000000000               0.224750000               0.000000000               0.000000000               0.247687500               0.000000000               0.000000000               0.270625000               0.000000000               0.000000000               0.293562500               0.000000000               0.000000000               0.316500000               0.000000000               0.000000000               0.339437500               0.000000000               0.000000000               0.362375000               0.000000000               0.000000000               0.385312500               0.000000000               0.000000000               0.408250000               0.000000000               0.000000000               0.431187500               0.000000000               0.000000000               0.454125000               0.000000000               0.000000000               0.477062500               0.000000000               0.000000000               0.500000000               0.000000000 </DataArray>
</Points>
<Cells>
<DataArray type="Int32"                                    Name="connectivity"                                                      NumberOfComponents=" 1" format="ascii">
         0          1         18         17          1          2         19         18          2          3         20         19          3          4         21         20          4          5         22         21          5          6         23         22          6          7         24         23          7          8         25         24          8          9         26         25          9         10         27         26         10         11         28         27         11         12         29         28         12         13         30         29         13         14         31         30         14         15         32         31         15         16         33         32         17         18         35         34         18         19         36         35         19         20         37         36         20         21         38         37         21         22         39         38         22         23         40         39         23         24         41         40         24         25         42         41         25         26         43         42         26         27         44         43         27         28         45         44         28         29         46         45         29         30         47         46         30         31         48         47         31         32         49         48         32         33         50         49         34         35         52         51         35         36         53         52         36         37         54         53         37         38         55         54         38         39         56         55         39         40         57         56         40         41         58         57         41         42         59         58         42         43         60         59         43         44         61         60         44         45         62         61         45         46         63         62         46         47         64         63         47         48         65         64         48         49         66         65         49         50         67         66         51         52         69         68         52         53         70         69         53         54         71         70         54         55         72         71         55         56         73         72         56         57         74         73         57         58         75         74         58         59         76         75         59         60         77         76         60         61         78         77         61         62         79         78         62         63         80         79         63         64         81         80         64         65         82         81         65         66         83         82         66         67         84         83         68         69         86         85         69         70         87         86         70         71         88         87         71         72         89         88         72         73         90         89         73         74         91         90         74         75         92         91         75         76         93         92         76         77         94         93         77         78         95         94         78         79         96         95         79         80         97         96         80         81         98         97         81         82         99         98         82         83        100         99         83         84        101        100         85         86        103        102         86         87        104        103         87         88        105        104         88         89        106        105         89         90        107        106         90         91        108        107         91         92        109        108         92         93        110        109         93         94        111        110         94         95        112        111         95         96        113        112         96         97        114        113         97         98        115        114         98         99        116        115         99        100        117        116        100        101        118        117        102        103        120        119        103        104        121        120        104        105        122        121        105        106        123        122        106        107        124        123        107        108        125        124        108        109        126        125        109        110        127        126        110        111        128        127        111        112        129        128        112        113        130        129        113        114        131        130        114        115        132        131        115        116        133        132        116        117        134        133        117        118        135        134        119        120        137        136        120        121        138        137        121        122        139        138        122        123        140        139        123        124        141        140        124        125        142        141        125        126        143        142        126        127        144        143        127        128        145        144        128        129        146        145        129        130        147        146        130        131        148        147        131        132        149        148        132        133        150        149        133        134        151        150        134        135        152        151        136        137        154        153        137        138        155        154        138        139        156        155        139        140        157        156        140        141        158        157        141        142        159        158        142        143        160        159        143        144        161        160        144        145        162        161        145        146        163        162        146        147        164        163        147        148        165        164        148        149        166        165        149        150        167        166        150        151        168        167        151        152        169        168        153        154        171        170        154        155        172        171        155        156        173        172        156        157        174        173        157        158        175        174        158        159        176        175        159        160        177        176        160        161        178        177        161        162        179        178        162        163        180        179        163        164        181        180        164        165        182        181        165        166        183        182        166        167        184        183        167        168        185        184        168        169        186        185        170        171        188        187        171        172        189        188        172        173        190        189        173        174        191        190        174        175        192        191        175        176        193        192        176        177        194        193        177        178        195        194        178        179        196        195        179        180        197        196        180        181        198        197        181        182        199        198        182        183        200        199        183        184        201        200        184        185        202        201        185        186        203        202        187        188        205        204        188        189        206        205        189        190        207        206        190        191        208        207        191        192        209        208        192        193        210        209        193        194        211        210        194        195        212        211        195        196        213        212        196        197        214        213        197        198        215        214        198        199        216        215        199        200        217        216        200        201        218        217        201        202        219        218        202        203        220        219        204        205        222        221        205        206        223        222        206        207        224        223        207        208        225        224        208        209        226        225        209        210        227        226        210        211        228        227        211        212        229        228        212        213        230        229        213        214        231        230        214        215        232        231        215        216        233        232        216        217        234        233        217        218        235        234        218        219        236        235        219        220        237        236        221        222        239        238        222        223        240        239        223        224        241        240        224        225        242        241        225        226        243        242        226        227        244        243        227        228        245        244        228        229        246        245        229        230        247        246        230        231        248        247        231        232        249        248        232        233        250        249        233        234        251        250        234        235        252        251        235        236        253        252        236        237        254        253        238        239        256        255        239        240        257        256        240        241        258        257        241        242        259        258        242        243        260        259        243        244        261        260        244        245        262        261        245        246        263        262        246        247        264        263        247        248        265        264        248        249        266        265        249        250        267        266        250        251        268        267        251        252        269        268        252        253        270        269        253        254        271        270        255        256        273        272        256        257        274        273        257        258        275        274        258        259        276        275        259        260        277        276        260        261        278        277        261        262        279        278        262        263        280        279        263        264        281        280        264        265        282        281        265        266        283        282        266        267        284        283        267        268        285        284        268        269        286        285        269        270        287        286        270        271        288        287        306        307          1          0        307        308          2          1        308        309          3          2        309        310          4          3        310        311          5          4        311        312          6          5        312        313          7          6        313        314          8          7        314        315          9          8        315        316         10          9        316        317         11         10        317        318         12         11        318        319         13         12        319        320         14         13        320        321         15         14        321        322         16         15        323        324        307        306        324        325        308        307        325        326        309        308        326        327        310        309        327        328        311        310        328        329        312        311        329        330        313        312        330        331        314        313        331        332        315        314        332        333        316        315        333        334        317        316        334        335        318        317        335        336        319        318        336        337        320        319        337        338        321        320        338        339        322        321        340        341        324        323        341        342        325        324        342        343        326        325        343        344        327        326        344        345        328        327        345        346        329        328        346        347        330        329        347        348        331        330        348        349        332        331        349        350        333        332        350        351        334        333        351        352        335        334        352        353        336        335        353        354        337        336        354        355        338        337        355        356        339        338        357        358        341        340        358        359        342        341        359        360        343        342        360        361        344        343        361        362        345        344        362        363        346        345        363        364        347        346        364        365        348        347        365        366        349        348        366        367        350        349        367        368        351        350        368        369        352        351        369        370        353        352        370        371        354        353        371        372        355        354        372        373        356        355        374        375        358        357        375        376        359        358        376        377        360        359        377        378        361        360        378        379        362        361        379        380        363        362        380        381        364        363        381        382        365        364        382        383        366        365        383        384        367        366        384        385        368        367        385        386        369        368        386        387        370        369        387        388        371        370        388        389        372        371        389        390        373        372        391        392        375        374        392        393        376        375        393        394        377        376        394        395        378        377        395        396        379        378        396        397        380        379        397        398        381        380        398        399        382        381        399        400        383        382        400        401        384        383        401        402        385        384        402        403        386        385        403        404        387        386        404        405        388        387        405        406        389        388        406        407        390        389        408        409        392        391        409        410        393        392        410        411        394        393        411        412        395        394        412        413        396        395        413        414        397        396        414        415        398        397        415        416        399        398        416        417        400        399        417        418        401        400        418        419        402        401        419        420        403        402        420        421        404        403        421        422        405        404        422        423        406        405        423        424        407        406        425        426        409        408        426        427        410        409        427        428        411        410        428        429        412        411        429        430        413        412        430        431        414        413        431        432        415        414        432        433        416        415        433        434        417        416        434        435        418        417        435        436        419        418        436        437        420        419        437        438        421        420        438        439        422        421        439        440        423        422        440        441        424        423        442        443        426        425        443        444        427        426        444        445        428        427        445        446        429        428        446        447        430        429        447        448        431        430        448        449        432        431        449        450        433        432        450        451        434        433        451        452        435        434        452        453        436        435        453        454        437        436        454        455        438        437        455        456        439        438        456        457        440        439        457        458        441        440        459        460        443        442        460        461        444        443        461        462        445        444        462        463        446        445        463        464        447        446        464        465        448        447        465        466        449        448        466        467        450        449        467        468        451        450        468        469        452        451        469        470        453        452        470        471        454        453        471        472        455        454        472        473        456        455        473        474        457        456        474        475        458        457        476        477        460        459        477        478        461        460        478        479        462        461        479        480        463        462        480        481        464        463        481        482        465        464        482        483        466        465        483        484        467        466        484        485        468        467        485        486        469        468        486        487        470        469        487        488        471        470        488        489        472        471        489        490        473        472        490        491        474        473        491        492        475        474        493        494        477        476        494        495        478        477        495        496        479        478        496        497        480        479        497        498        481        480        498        499        482        481        499        500        483        482        500        501        484        483        501        502        485        484        502        503        486        485        503        504        487        486        504        505        488        487        505        506        489        488        506        507        490        489        507        508        491        490        508        509        492        491        510        511        494        493        511        512        495        494        512        513        496        495        513        514        497        496        514        515        498        497        515        516        499        498        516        517        500        499        517        518        501        500        518        519        502        501        519        520        503        502        520        521        504        503        521        522        505        504        522        523        506        505        523        524        507        506        524        525        508        507        525        526        509        508        527        528        511        510        528        529        512        511        529        530        513        512        530        531        514        513        531        532        515        514        532        533        516        515        533        534        517        516        534        535        518        517        535        536        519        518        536        537        520        519        537        538        521        520        538        539        522        521        539        540        523        522        540        541        524        523        541        542        525        524        542        543        526        525        544        545        528        527        545        546        529        528        546        547        530        529        547        548        531        530        548        549        532        531        549        550        533        532        550        551        534        533        551        552        535        534        552        553        536        535        553        554        537        536        554        555        538        537        555        556        539        538        556        557        540        539        557        558        541        540        558        559        542        541        559        560        543        542        561        562        545        544        562        563        546        545        563        564        547        546        564        565        548        547        565        566        549        548        566        567        550        549        567        568        551        550        568        569        552        551        569        570        553        552        570        571        554        553        571        572        555        554        572        573        556        555        573        574        557        556        574        575        558        557        575        576        559        558        576        577        560        559        578        579        596        595        579        580        597        596        580        581        598        597        581        582        599        598        582        583        600        599        583        584        601        600        584        585        602        601        585        586        603        602        586        587        604        603        587        588        605        604        588        589        606        605        589        590        607        606        590        591        608        607        591        592        609        608        592        593        610        609        593        594        611        610        595        596        613        612        596        597        614        613        597        598        615        614        598        599        616        615        599        600        617        616        600        601        618        617        601        602        619        618        602        603        620        619        603        604        621        620        604        605        622        621        605        606        623        622        606        607        624        623        607        608        625        624        608        609        626        625        609        610        627        626        610        611        628        627        612        613        630        629        613        614        631        630        614        615        632        631        615        616        633        632        616        617        634        633        617        618        635        634        618        619        636        635        619        620        637        636        620        621        638        637        621        622        639        638        622        623        640        639        623        624        641        640        624        625        642        641        625        626        643        642        626        627        644        643        627        628        645        644        629        630        647        646        630        631        648        647        631        632        649        648        632        633        650        649        633        634        651        650        634        635        652        651        635        636        653        652        636        637        654        653        637        638        655        654        638        639        656        655        639        640        657        656        640        641        658        657        641        642        659        658        642        643        660        659        643        644        661        660        644        645        662        661        646        647        664        663        647        648        665        664        648        649        666        665        649        650        667        666        650        651        668        667        651        652        669        668        652        653        670        669        653        654        671        670        654        655        672        671        655        656        673        672        656        657        674        673        657        658        675        674        658        659        676        675        659        660        677        676        660        661        678        677        661        662        679        678        663        664        681        680        664        665        682        681        665        666        683        682        666        667        684        683        667        668        685        684        668        669        686        685        669        670        687        686        670        671        688        687        671        672        689        688        672        673        690        689        673        674        691        690        674        675        692        691        675        676        693        692        676        677        694        693        677        678        695        694        678        679        696        695        680        681        698        697        681        682        699        698        682        683        700        699        683        684        701        700        684        685        702        701        685        686        703        702        686        687        704        703        687        688        705        704        688        689        706        705        689        690        707        706        690        691        708        707        691        692        709        708        692        693        710        709        693        694        711        710        694        695        712        711        695        696        713        712        697        698        715        714        698        699        716        715        699        700        717        716        700        701        718        717        701        702        719        718        702        703        720        719        703        704        721        720        704        705        722        721        705        706        723        722        706        707        724        723        707        708        725        724        708        709        726        725        709        710        727        726        710        711        728        727        711        712        729        728        712        713        730        729        714        715        732        731        715        716        733        732        716        717        734        733        717        718        735        734        718        719        736        735        719        720        737        736        720        721        738        737        721        722        739        738        722        723        740        739        723        724        741        740        724        725        742        741        725        726        743        742        726        727        744        743        727        728        745        744        728        729        746        745        729        730        747        746        731        732        749        748        732        733        750        749        733        734        751        750        734        735        752        751        735        736        753        752        736        737        754        753        737        738        755        754        738        739        756        755        739        740        757        756        740        741        758        757        741        742        759        758        742        743        760        759        743        744        761        760        744        745        762        761        745        746        763        762        746        747        764        763        748        749        766        765        749        750        767        766        750        751        768        767        751        752        769        768        752        753        770        769        753        754        771        770        754        755        772        771        755        756        773        772        756        757        774        773        757        758        775        774        758        759        776        775        759        760        777        776        760        761        778        777        761        762        779        778        762        763        780        779        763        764        781        780        765        766        783        782        766        767        784        783        767        768        785        784        768        769        786        785        769        770        787        786        770        771        788        787        771        772        789        788        772        773        790        789        773        774        791        790        774        775        792        791        775        776        793        792        776        777        794        793        777        778        795        794        778        779        796        795        779        780        797        796        780        781        798        797        782        783        800        799        783        784        801        800        784        785        802        801        785        786        803        802        786        787        804        803        787        788        805        804        788        789        806        805        789        790        807        806        790        791        808        807        791        792        809        808        792        793        810        809        793        794        811        810        794        795        812        811        795        796        813        812        796        797        814        813        797        798        815        814        799        800        817        816        800        801        818        817        801        802        819        818        802        803        820        819        803        804        821        820        804        805        822        821        805        806        823        822        806        807        824        823        807        808        825        824        808        809        826        825        809        810        827        826        810        811        828        827        811        812        829        828        812        813        830        829        813        814        831        830        814        815        832        831        816        817        834        833        817        818        835        834        818        819        836        835        819        820        837        836        820        821        838        837        821        822        839        838        822        823        840        839        823        824        841        840        824        825        842        841        825        826        843        842        826        827        844        843        827        828        845        844        828        829        846        845        829        830        847        846        830        831        848        847        831        832        849        848        833        834        562        561        834        835        563        562        835        836        564        563        836        837        565        564        837        838        566        565        838        839        567        566        839        840        568        567        840        841        569        568        841        842        570        569        842        843        571        570        843        844        572        571        844        845        573        572        845        846        574        573        846        847        575        574        847        848        576        575        848        849        577        576        884        885        579        578        885        886        580        579        886        887        581        580        887        888        582        581        888        889        583        582        889        890        584        583        890        891        585        584        891        892        586        585        892        893        587        586        893        894        588        587        894        895        589        588        895        896        590        589        896        897        591        590        897        898        592        591        898        899        593        592        899        900        594        593        901        902        885        884        902        903        886        885        903        904        887        886        904        905        888        887        905        906        889        888        906        907        890        889        907        908        891        890        908        909        892        891        909        910        893        892        910        911        894        893        911        912        895        894        912        913        896        895        913        914        897        896        914        915        898        897        915        916        899        898        916        917        900        899        918        919        902        901        919        920        903        902        920        921        904        903        921        922        905        904        922        923        906        905        923        924        907        906        924        925        908        907        925        926        909        908        926        927        910        909        927        928        911        910        928        929        912        911        929        930        913        912        930        931        914        913        931        932        915        914        932        933        916        915        933        934        917        916        935        936        919        918        936        937        920        919        937        938        921        920        938        939        922        921        939        940        923        922        940        941        924        923        941        942        925        924        942        943        926        925        943        944        927        926        944        945        928        927        945        946        929        928        946        947        930        929        947        948        931        930        948        949        932        931        949        950        933        932        950        951        934        933        952        953        936        935        953        954        937        936        954        955        938        937        955        956        939        938        956        957        940        939        957        958        941        940        958        959        942        941        959        960        943        942        960        961        944        943        961        962        945        944        962        963        946        945        963        964        947        946        964        965        948        947        965        966        949        948        966        967        950        949        967        968        951        950        969        970        953        952        970        971        954        953        971        972        955        954        972        973        956        955        973        974        957        956        974        975        958        957        975        976        959        958        976        977        960        959        977        978        961        960        978        979        962        961        979        980        963        962        980        981        964        963        981        982        965        964        982        983        966        965        983        984        967        966        984        985        968        967        986        987        970        969        987        988        971        970        988        989        972        971        989        990        973        972        990        991        974        973        991        992        975        974        992        993        976        975        993        994        977        976        994        995        978        977        995        996        979        978        996        997        980        979        997        998        981        980        998        999        982        981        999       1000        983        982       1000       1001        984        983       1001       1002        985        984       1003       1004        987        986       1004       1005        988        987       1005       1006        989        988       1006       1007        990        989       1007       1008        991        990       1008       1009        992        991       1009       1010        993        992       1010       1011        994        993       1011       1012        995        994       1012       1013        996        995       1013       1014        997        996       1014       1015        998        997       1015       1016        999        998       1016       1017       1000        999       1017       1018       1001       1000       1018       1019       1002       1001       1020       1021       1004       1003       1021       1022       1005       1004       1022       1023       1006       1005       1023       1024       1007       1006       1024       1025       1008       1007       1025       1026       1009       1008       1026       1027       1010       1009       1027       1028       1011       1010       1028       1029       1012       1011       1029       1030       1013       1012       1030       1031       1014       1013       1031       1032       1015       1014       1032       1033       1016       1015       1033       1034       1017       1016       1034       1035       1018       1017       1035       1036       1019       1018       1037       1038       1021       1020       1038       1039       1022       1021       1039       1040       1023       1022       1040       1041       1024       1023       1041       1042       1025       1024       1042       1043       1026       1025       1043       1044       1027       1026       1044       1045       1028       1027       1045       1046       1029       1028       1046       1047       1030       1029       1047       1048       1031       1030       1048       1049       1032       1031       1049       1050       1033       1032       1050       1051       1034       1033       1051       1052       1035       1034       1052       1053       1036       1035       1054       1055       1038       1037       1055       1056       1039       1038       1056       1057       1040       1039       1057       1058       1041       1040       1058       1059       1042       1041       1059       1060       1043       1042       1060       1061       1044       1043       1061       1062       1045       1044       1062       1063       1046       1045       1063       1064       1047       1046       1064       1065       1048       1047       1065       1066       1049       1048       1066       1067       1050       1049       1067       1068       1051       1050       1068       1069       1052       1051       1069       1070       1053       1052       1071       1072       1055       1054       1072       1073       1056       1055       1073       1074       1057       1056       1074       1075       1058       1057       1075       1076       1059       1058       1076       1077       1060       1059       1077       1078       1061       1060       1078       1079       1062       1061       1079       1080       1063       1062       1080       1081       1064       1063       1081       1082       1065       1064       1082       1083       1066       1065       1083       1084       1067       1066       1084       1085       1068       1067       1085       1086       1069       1068       1086       1087       1070       1069       1088       1089       1072       1071       1089       1090       1073       1072       1090       1091       1074       1073       1091       1092       1075       1074       1092       1093       1076       1075       1093       1094       1077       1076       1094       1095       1078       1077       1095       1096       1079       1078       1096       1097       1080       1079       1097       1098       1081       1080       1098       1099       1082       1081       1099       1100       1083       1082       1100       1101       1084       1083       1101       1102       1085       1084       1102       1103       1086       1085       1103       1104       1087       1086       1105       1106       1089       1088       1106       1107       1090       1089       1107       1108       1091       1090       1108       1109       1092       1091       1109       1110       1093       1092       1110       1111       1094       1093       1111       1112       1095       1094       1112       1113       1096       1095       1113       1114       1097       1096       1114       1115       1098       1097       1115       1116       1099       1098       1116       1117       1100       1099       1117       1118       1101       1100       1118       1119       1102       1101       1119       1120       1103       1102       1120       1121       1104       1103       1122       1123       1106       1105       1123       1124       1107       1106       1124       1125       1108       1107       1125       1126       1109       1108       1126       1127       1110       1109       1127       1128       1111       1110       1128       1129       1112       1111       1129       1130       1113       1112       1130       1131       1114       1113       1131       1132       1115       1114       1132       1133       1116       1115       1133       1134       1117       1116       1134       1135       1118       1117       1135       1136       1119       1118       1136       1137       1120       1119       1137       1138       1121       1120        272        273       1123       1122        273        274       1124       1123        274        275       1125       1124        275        276       1126       1125        276        277       1127       1126        277        278       1128       1127        278        279       1129       1128        279        280       1130       1129        280        281       1131       1130        281        282       1132       1131        282        283       1133       1132        283        284       1134       1133        284        285       1135       1134        285        286       1136       1135        286        287       1137       1136        287        288       1138       1137 </DataArray>
<DataArray type="Int32"                                    Name="offsets"                                                      NumberOfComponents=" 1" format="ascii">
         4          8         12         16         20         24         28         32         36         40         44         48         52         56         60         64         68         72         76         80         84         88         92         96        100        104        108        112        116        120        124        128        132        136        140        144        148        152        156        160        164        168        172        176        180        184        188        192        196        200        204        208        212        216        220        224        228        232        236        240        244        248        252        256        260        264        268        272        276        280        284        288        292        296        300        304        308        312        316        320        324        328        332        336        340        344        348        352        356        360        364        368        372        376        380        384        388        392        396        400        404        408        412        416        420        424        428        432        436        440        444        448        452        456        460        464        468        472        476        480        484        488        492        496        500        504        508        512        516        520        524        528        532        536        540        544        548        552        556        560        564        568        572        576        580        584        588        592        596        600        604        608        612        616        620        624        628        632        636        640        644        648        652        656        660        664        668        672        676        680        684        688        692        696        700        704        708        712        716        720        724        728        732        736        740        744        748        752        756        760        764        768        772        776        780        784        788        792        796        800        804        808        812        816        820        824        828        832        836        840        844        848        852        856        860        864        868        872        876        880        884        888        892        896        900        904        908        912        916        920        924        928        932        936        940        944        948        952        956        960        964        968        972        976        980        984        988        992        996       1000       1004       1008       1012       1016       1020       1024       1028       1032       1036       1040       1044       1048       1052       1056       1060       1064       1068       1072       1076       1080       1084       1088       1092       1096       1100       1104       1108       1112       1116       1120       1124       1128       1132       1136       1140       1144       1148       1152       1156       1160       1164       1168       1172       1176       1180       1184       1188       1192       1196       1200       1204       1208       1212       1216       1220       1224       1228       1232       1236       1240       1244       1248       1252       1256       1260       1264       1268       1272       1276       1280       1284       1288       1292       1296       1300       1304       1308       1312       1316       1320       1324       1328       1332       1336       1340       1344       1348       1352       1356       1360       1364       1368       1372       1376       1380       1384       1388       1392       1396       1400       1404       1408       1412       1416       1420       1424       1428       1432       1436       1440       1444       1448       1452       1456       1460       1464       1468       1472       1476       1480       1484       1488       1492       1496       1500       1504       1508       1512       1516       1520       1524       1528       1532       1536       1540       1544       1548       1552       1556       1560       1564       1568       1572       1576       1580       1584       1588       1592       1596       1600       1604       1608       1612       1616       1620       1624       1628       1632       1636       1640       1644       1648       1652       1656       1660       1664       1668       1672       1676       1680       1684       1688       1692       1696       1700       1704       1708       1712       1716       1720       1724       1728       1732       1736       1740       1744       1748       1752       1756       1760       1764       1768       1772       1776       1780       1784       1788       1792       1796       1800       1804       1808       1812       1816       1820       1824       1828       1832       1836       1840       1844       1848       1852       1856       1860       1864       1868       1872       1876       1880       1884       1888       1892       1896       1900       1904       1908       1912       1916       1920       1924       1928       1932       1936       1940       1944       1948       1952       1956       1960       1964       1968       1972       1976       1980       1984       1988       1992       1996       2000       2004       2008       2012       2016       2020       2024       2028       2032       2036       2040       2044       2048       2052       2056       2060       2064       2068       2072       2076       2080       2084       2088       2092       2096       2100       2104       2108       2112       2116       2120       2124       2128       2132       2136       2140       2144       2148       2152       2156       2160       2164       2168       2172       2176       2180       2184       2188       2192       2196       2200       2204       2208       2212       2216       2220       2224       2228       2232       2236       2240       2244       2248       2252       2256       2260       2264       2268       2272       2276       2280       2284       2288       2292       2296       2300       2304       2308       2312       2316       2320       2324       2328       2332       2336       2340       2344       2348       2352       2356       2360       2364       2368       2372       2376       2380       2384       2388       2392       2396       2400       2404       2408       2412       2416       2420       2424       2428       2432       2436       2440       2444       2448       2452       2456       2460       2464       2468       2472       2476       2480       2484       2488       2492       2496       2500       2504       2508       2512       2516       2520       2524       2528       2532       2536       2540       2544       2548       2552       2556       2560       2564       2568       2572       2576       2580       2584       2588       2592       2596       2600       2604       2608       2612       2616       2620       2624       2628       2632       2636       2640       2644       2648       2652       2656       2660       2664       2668       2672       2676       2680       2684       2688       2692       2696       2700       2704       2708       2712       2716       2720       2724       2728       2732       2736       2740       2744       2748       2752       2756       2760       2764       2768       2772       2776       2780       2784       2788       2792       2796       2800       2804       2808       2812       2816       2820       2824       2828       2832       2836       2840       2844       2848       2852       2856       2860       2864       2868       2872       2876       2880       2884       2888       2892       2896       2900       2904       2908       2912       2916       2920       2924       2928       2932       2936       2940       2944       2948       2952       2956       2960       2964       2968       2972       2976       2980       2984       2988       2992       2996       3000       3004       3008       3012       3016       3020       3024       3028       3032       3036       3040       3044       3048       3052       3056       3060       3064       3068       3072       3076       3080       3084       3088       3092       3096       3100       3104       3108       3112       3116       3120       3124       3128       3132       3136       3140       3144       3148       3152       3156       3160       3164       3168       3172       3176       3180       3184       3188       3192       3196       3200       3204       3208       3212       3216       3220       3224       3228       3232       3236       3240       3244       3248       3252       3256       3260       3264       3268       3272       3276       3280       3284       3288       3292       3296       3300       3304       3308       3312       3316       3320       3324       3328       3332       3336       3340       3344       3348       3352       3356       3360       3364       3368       3372       3376       3380       3384       3388       3392       3396       3400       3404       3408       3412       3416       3420       3424       3428       3432       3436       3440       3444       3448       3452       3456       3460       3464       3468       3472       3476       3480       3484       3488       3492       3496       3500       3504       3508       3512       3516       3520       3524       3528       3532       3536       3540       3544       3548       3552       3556       3560       3564       3568       3572       3576       3580       3584       3588       3592       3596       3600       3604       3608       3612       3616       3620       3624       3628       3632       3636       3640       3644       3648       3652       3656       3660       3664       3668       3672       3676       3680       3684       3688       3692       3696       3700       3704       3708       3712       3716       3720       3724       3728       3732       3736       3740       3744       3748       3752       3756       3760       3764       3768       3772       3776       3780       3784       3788       3792       3796       3800       3804       3808       3812       3816       3820       3824       3828       3832       3836       3840       3844       3848       3852       3856       3860       3864       3868       3872       3876       3880       3884       3888       3892       3896       3900       3904       3908       3912       3916       3920       3924       3928       3932       3936       3940       3944       3948       3952       3956       3960       3964       3968       3972       3976       3980       3984       3988       3992       3996       4000       4004       4008       4012       4016       4020       4024       4028       4032       4036       4040       4044       4048       4052       4056       4060       4064       4068       4072       4076       4080       4084       4088       4092       4096 </DataArray>
<DataArray type="UInt8"                                    Name="types"                                                      NumberOfComponents=" 1" format="ascii">
         9          9          9          9          9          9          9          9          9          9          9          9          9          9          9          9          9          9          9          9          9          9          9          9          9          9          9          9          9          9          9          9          9          9          9          9          9          9          9          9          9          9          9          9          9          9          9          9          9          9          9          9          9          9          9          9          9          9          9          9          9          9          9          9          9          9          9          9          9          9          9          9          9          9          9          9          9          9          9          9          9          9          9          9          9          9          9          9          9          9          9          9          9          9          9          9          9          9          9          9          9          9          9          9          9          9          9          9          9          9          9          9          9          9          9          9          9          9          9          9          9          9          9          9          9          9          9          9          9          9          9          9          9          9          9          9          9          9          9          9          9          9          9          9          9          9          9          9          9          9          9          9          9          9          9          9          9          9          9          9          9          9          9          9          9          9          9          9          9          9          9          9          9          9          9          9          9          9          9          9          9          9          9          9          9          9          9          9          9          9          9          9          9          9          9          9          9          9          9          9          9          9          9          9          9          9          9          9          9          9          9          9          9          9          9          9          9          9          9          9          9          9          9          9          9          9          9          9          9          9          9          9          9          9          9          9          9          9          9          9          9          9          9          9          9          9          9          9          9          9          9          9          9          9          9          9          9          9          9          9          9          9          9          9          9          9          9          9          9          9          9          9          9          9          9          9          9          9          9          9          9          9          9          9          9          9          9          9          9          9          9          9          9          9          9          9          9          9          9          9          9          9          9          9          9          9          9          9          9          9          9          9          9          9          9          9          9          9          9          9          9          9          9          9          9          9          9          9          9          9          9          9          9          9          9          9          9          9          9          9          9          9          9          9          9          9          9          9          9          9          9          9          9          9          9          9          9          9          9          9          9          9          9          9          9          9          9          9          9          9          9          9          9          9          9          9          9          9          9          9          9          9          9          9          9          9          9          9          9          9          9          9          9          9          9          9          9          9          9          9          9          9          9          9          9          9          9          9          9          9          9          9          9          9          9          9          9          9          9          9          9          9          9          9          9          9          9          9          9          9          9          9          9          9          9          9          9          9          9          9          9          9          9          9          9          9          9          9          9          9          9          9          9          9          9          9          9          9          9          9          9          9          9          9          9          9          9          9          9          9          9          9          9          9          9          9          9          9          9          9          9          9          9          9          9          9          9          9          9          9          9          9          9          9          9          9          9          9          9          9          9          9          9          9          9          9          9          9          9          9          9          9          9          9          9          9          9          9          9          9          9          9          9          9          9          9          9          9          9          9          9          9          9          9          9          9          9          9          9          9          9          9          9          9          9          9          9          9          9          9          9          9          9          9          9          9          9          9          9          9          9          9          9          9          9          9          9          9          9          9          9          9          9          9          9          9          9          9          9          9          9          9          9          9          9          9          9          9          9          9          9          9          9          9          9          9          9          9          9          9          9          9          9          9          9          9          9          9          9          9          9          9          9          9          9          9          9          9          9          9          9          9          9          9          9          9          9          9          9          9          9          9          9          9          9          9          9          9          9          9          9          9          9          9          9          9          9          9          9          9          9          9          9          9          9          9          9          9          9          9          9          9          9          9          9          9          9          9          9          9          9          9          9          9          9          9          9          9          9          9          9          9          9          9          9          9          9          9          9          9          9          9          9          9          9          9          9          9          9          9          9          9          9          9          9          9          9          9          9          9          9          9          9          9          9          9          9          9          9          9          9          9          9          9          9          9          9          9          9          9          9          9          9          9          9          9          9          9          9          9          9          9          9          9          9          9          9          9          9          9          9          9          9          9          9          9          9          9          9          9          9          9          9          9          9          9          9          9          9          9          9          9          9          9          9          9          9          9          9          9          9          9          9          9          9          9          9          9          9          9          9          9          9          9          9          9          9          9          9          9          9          9          9          9          9          9          9          9          9          9          9          9          9          9          9          9          9          9          9          9          9          9          9          9          9          9          9          9          9          9          9          9          9          9          9          9          9          9          9          9          9          9          9          9          9          9          9          9          9          9          9          9          9          9          9          9          9          9          9          9          9          9          9          9          9          9          9          9          9          9          9          9          9          9          9          9          9          9          9          9          9          9          9          9          9          9          9          9          9          9          9          9          9          9          9          9          9          9          9          9          9          9          9          9          9          9          9          9          9          9          9          9          9          9          9          9          9          9          9          9          9          9          9          9          9          9          9          9          9          9          9          9          9          9          9          9          9          9          9          9          9          9          9          9          9          9          9          9          9          9          9          9          9          9          9          9          9          9          9          9          9          9          9          9          9          9          9          9          9          9          9          9          9          9          9          9          9          9          9          9          9          9          9          9          9          9          9          9          9          9          9          9          9          9          9          9          9          9          9          9          9          9          9          9          9          9          9          9          9          9          9          9          9          9          9          9          9          9          9          9          9          9          9          9 </DataArray>
</Cells>
<CellData>
<DataArray type="Int32"                                    Name="material"                                                      NumberOfComponents=" 1" format="ascii">
         1          1          1          1          1          1          1          1          1          1          1          1          1          1          1          1          1          1          1          1          1          1          1          1          1          1          1          1          1          1          1          1          1          1          1          1          1          1          1          1          1          1          1          1          1          1          1          1          1          1          1          1          1          1          1          1          1          1          1          1          1          1          1          1          1          1          1          1          1          1          1          1          1          1          1          1          1          1          1          1          1          1          1          1          1          1          1          1          1          1          1          1          1          1          1          1          1          1          1          1          1          1          1          1          1          1          1          1          1          1          1          1          1          1          1          1          1          1          1          1          1          1          1          1          1          1          1          1          1          1          1          1          1          1          1          1          1          1          1          1          1          1          1          1          1          1          1          1          1          1          1          1          1          1          1          1          1          1          1          1          1          1          1          1          1          1          1          1          1          1          1          1          1          1          1          1          1          1          1          1          1          1          1          1          1          1          1          1          1          1          1          1          1          1          1          1          1          1          1          1          1          1          1          1          1          1          1          1          1          1          1          1          1          1          1          1          1          1          1          1          1          1          1          1          1          1          1          1          1          1          1          1          1          1          1          1          1          1          1          1          1          1          1          1          1          1          1          1          1          1          1          1          1          1          1          1          1          1          1          1          1          1          1          1          1          1          1          1          1          1          1          1          1          1          1          1          1          1          1          1          1          1          1          1          1          1          1          1          1          1          1          1          1          1          1          1          1          1          1          1          1          1          1          1          1          1          1          1          1          1          1          1          1          1          1          1          1          1          1          1          1          1          1          1          1          1          1          1          1          1          1          1          1          1          1          1          1          1          1          1          1          1          1          1          1          1          1          1          1          1          1          1          1          1          1          1          1          1          1          1          1          1          1          1          1          1          1          1          1          1          1          1          1          1          1          1          1          1          1          1          1          1          1          1          1          1          1          1          1          1          1          1          1          1          1          1          1          1          1          1          1          1          1          1          1          1          1          1          1          1          1          1          1          1          1          1          1          1          1          1          1          1          1          1          1          1          1          1          1          1          1          1          1          1          1          1          1          1          1          1          1          1          1          1          1          1          1          1          1          1          1          1          1          1          1          1          1          1          1          1          1          1          1          1          1          1          1          1          1          1          1          1          1          1          1          1          1          1          1          1          1          1          1          1          1          1          1          1          1          1          1          1          1          1          1          1          1          1          1          1          1          1          1          1          1          1          1          1          1          1          1          1          1          1          1          1          1          1          1          1          1          1          1          1          1          1          1          1          1          1          1          1          1          1          1          1          1          1          1          1          1          1          1          1          1          1          1          1          1          1          1          1          1          1          1          1          1          1          1          1          1          1          1          1          1          1          1          1          1          1          1          1          1          1          1          1          1          1          1          1          1          1          1          1          1          1          1          1          1          1          1          1          1          1          1          1          1          1          1          1          1          1          1          1          1          1          1          1          1          1          1          1          1          1          1          1          1          1          1          1          1          1          1          1          1          1          1          1          1          1          1          1          1          1          1          1          1          1          1          1          1          1          1          1          1          1          1          1          1          1          1          1          1          1          1          1          1          1          1          1          1          1          1          1          1          1          1          1          1          1          1          1          1          1          1          1          1          1          1          1          1          1          1          1          1          1          1          1          1          1          1          1          1          1          1          1          1          1          1          1          1          1          1          1          1          1          1          1          1          1          1          1          1          1          1          1          1          1          1          1          1          1          1          1          1          1          1          1          1          1          1          1          1          1          1          1          1          1          1          1          1          1          1          1          1          1          1          1          1          1          1          1          1          1          1          1          1          1          1          1          1          1          1          1          1          1          1          1          1          1          1          1          1          1          1          1          1          1          1          1          1          1          1          1          1          1          1          1          1          1          1          1          1          1          1          1          1          1          1          1          1          1          1          1          1          1          1          1          1          1          1          1          1          1          1          1          1          1          1          1          1          1          1          1          1          1          1          1          1          1          1          1          1          1          1          1          1          1          1          1          1          1          1          1          1          1          1          1          1          1          1          1          1          1          1          1          1          1          1          1          1          1          1          1          1          1          1          1          1          1          1          1          1          1          1          1          1          1          1          1          1          1          1          1          1          1          1          1          1          1          1          1          1          1          1          1          1          1          1          1          1          1          1          1          1          1          1          1          1          1          1          1          1          1          1          1          1          1          1          1          1          1          1          1          1          1          1          1          1          1          1          1          1          1          1          1          1          1          1          1          1          1          1          1          1          1          1          1          1          1          1          1          1          1          1          1          1          1          1          1          1          1          1          1          1          1          1          1          1          1          1          1          1          1          1          1          1          1          1          1          1          1          1          1          1          1          1          1          1          1          1          1          1          1          1          1          1          1          1          1          1          1          1          1          1          1          1          1          1          1          1          1          1          1          1          1          1          1          1          1          1          1          1          1 </DataArray>
</CellData>
<PointData>
<DataArray type="Float64"                                    Name="u"                                                      NumberOfComponents=" 3" format="ascii">
             -0.000000051               0.000000000               1.000000000              -0.000000030               0.000000000               1.000000000               0.000000031              -0.000000000               1.000000000               0.000000079              -0.000000000               1.000000000               0.000000079              -0.000000000               1.000000000               0.000000014               0.000000000               1.000000000              -0.000000076               0.000000000               1.000000000              -0.000000141              -0.000000000               1.000000000              -0.000000148              -0.000000000               1.000000000              -0.000000096               0.000000000               1.000000000              -0.000000006               0.000000000               1.000000000               0.000000098              -0.000000000               1.000000000               0.000000179              -0.000000000               1.000000000               0.000000203               0.000000000               1.000000000               0.000000161               0.000000000               1.000000000               0.000000078              -0.000000000               1.000000000              -0.000000001              -0.000000000               1.000000000               0.000000024               0.000000026               1.000000000               0.000000023              -0.000000010               1.000000000              -0.000000009              -0.000000005               1.000000000              -0.000000058              -0.000000022               1.000000000              -0.000000069              -0.000000035               1.000000000              -0.000000031              -0.000000031               1.000000000               0.000000028              -0.000000005               1.000000000               0.000000082               0.000000030               1.000000000               0.000000109               0.000000066               1.000000000               0.000000109               0.000000093               1.000000000               0.000000087               0.000000103               1.000000000               0.000000039               0.000000116               1.000000000              -0.000000028               0.000000147               1.000000000              -0.000000093               0.000000184               1.000000000              -0.000000126               0.000000196               1.000000000              -0.000000108               0.000000159               1.000000000              -0.000000042               0.000000099               1.000000000               0.000000030               0.000000000               1.000000000              -0.000000007              -0.000000005               1.000000000              -0.000000030              -0.000000020               1.000000000               0.000000009              -0.000000015               1.000000000               0.000000036               0.000000007               1.000000000               0.000000043               0.000000050               1.000000000               0.000000048               0.000000075               1.000000000               0.000000042               0.000000073               1.000000000               0.000000016               0.000000034               1.000000000              -0.000000034              -0.000000044               1.000000000              -0.000000114              -0.000000116               1.000000000              -0.000000203              -0.000000171               1.000000000              -0.000000258              -0.000000238               1.000000000              -0.000000238              -0.000000352               1.000000000              -0.000000132              -0.000000527               1.000000000               0.000000026              -0.000000738               1.000000000               0.000000160              -0.000000935               1.000000000              -0.000000035              -0.000000042               1.000000000              -0.000000011              -0.000000011               1.000000000               0.000000035              -0.000000012               1.000000000               0.000000028               0.000000039               1.000000000               0.000000003               0.000000070               1.000000000              -0.000000012               0.000000053               1.000000000              -0.000000044              -0.000000012               1.000000000              -0.000000080              -0.000000114               1.000000000              -0.000000110              -0.000000227               1.000000000              -0.000000132              -0.000000288               1.000000000              -0.000000121              -0.000000292               1.000000000              -0.000000047              -0.000000292               1.000000000               0.000000106              -0.000000325               1.000000000               0.000000312              -0.000000394               1.000000000               0.000000489              -0.000000424               1.000000000               0.000000512              -0.000000287               1.000000000               0.000000245               0.000000170               1.000000000              -0.000000014              -0.000000049               1.000000000               0.000000022               0.000000011               1.000000000              -0.000000003               0.000000043               1.000000000              -0.000000035               0.000000059               1.000000000              -0.000000007               0.000000010               1.000000000              -0.000000006              -0.000000094               1.000000000              -0.000000011              -0.000000205               1.000000000              -0.000000015              -0.000000270               1.000000000              -0.000000008              -0.000000220               1.000000000               0.000000032              -0.000000045               1.000000000               0.000000120               0.000000191               1.000000000               0.000000264               0.000000440               1.000000000               0.000000412               0.000000709               1.000000000               0.000000449               0.000001103               1.000000000               0.000000228               0.000001800               1.000000000              -0.000000383               0.000003002               1.000000000              -0.000001483               0.000004908               1.000000000               0.000000016              -0.000000014               1.000000000              -0.000000009               0.000000049               1.000000000              -0.000000013               0.000000070               1.000000000               0.000000023              -0.000000023               1.000000000              -0.000000006              -0.000000156               1.000000000              -0.000000022              -0.000000233               1.000000000              -0.000000013              -0.000000170               1.000000000               0.000000023               0.000000099               1.000000000               0.000000086               0.000000583               1.000000000               0.000000159               0.000001223               1.000000000               0.000000246               0.000001938               1.000000000               0.000000276               0.000002737               1.000000000               0.000000116               0.000003724               1.000000000              -0.000000384               0.000005103               1.000000000              -0.000001347               0.000007077               1.000000000              -0.000002846               0.000009814               1.000000000              -0.000004893               0.000013431               1.000000000               0.000000009               0.000000066               1.000000000              -0.000000020               0.000000055               1.000000000               0.000000007              -0.000000025               1.000000000               0.000000002              -0.000000186               1.000000000              -0.000000004              -0.000000194               1.000000000               0.000000028               0.000000008               1.000000000               0.000000043               0.000000512               1.000000000               0.000000087               0.000001335               1.000000000               0.000000111               0.000002451               1.000000000               0.000000131               0.000003765               1.000000000               0.000000057               0.000005248               1.000000000              -0.000000239               0.000006991               1.000000000              -0.000000919               0.000009182               1.000000000              -0.000002113               0.000012032               1.000000000              -0.000003888               0.000015674               1.000000000              -0.000006242               0.000020202               1.000000000              -0.000009120               0.000025631               1.000000000               0.000000012               0.000000151               1.000000000              -0.000000003              -0.000000021               1.000000000              -0.000000001              -0.000000157               1.000000000               0.000000004              -0.000000186               1.000000000               0.000000000               0.000000074               1.000000000              -0.000000001               0.000000761               1.000000000               0.000000056               0.000001915               1.000000000               0.000000091               0.000003515               1.000000000               0.000000084               0.000005493               1.000000000              -0.000000025               0.000007752               1.000000000              -0.000000358               0.000010364               1.000000000              -0.000001078               0.000013481               1.000000000              -0.000002336               0.000017330               1.000000000              -0.000004201               0.000022036               1.000000000              -0.000006670               0.000027685               1.000000000              -0.000009694               0.000034243               1.000000000              -0.000013173               0.000041600               1.000000000               0.000000023               0.000000167               1.000000000               0.000000007              -0.000000135               1.000000000              -0.000000017              -0.000000211               1.000000000              -0.000000004               0.000000007               1.000000000              -0.000000009               0.000000766               1.000000000               0.000000035               0.000002167               1.000000000               0.000000061               0.000004133               1.000000000               0.000000031               0.000006693               1.000000000              -0.000000074               0.000009703               1.000000000              -0.000000352               0.000013221               1.000000000              -0.000000978               0.000017333               1.000000000              -0.000002116               0.000022274               1.000000000              -0.000003863               0.000028170               1.000000000              -0.000006211               0.000035142               1.000000000              -0.000009106               0.000043137               1.000000000              -0.000012424               0.000052063               1.000000000              -0.000016052               0.000061676               1.000000000               0.000000007               0.000000089               1.000000000               0.000000024              -0.000000162               1.000000000              -0.000000025              -0.000000207               1.000000000              -0.000000002               0.000000161               1.000000000              -0.000000010               0.000001064               1.000000000              -0.000000007               0.000002514               1.000000000               0.000000039               0.000004626               1.000000000               0.000000045               0.000007265               1.000000000              -0.000000007               0.000010476               1.000000000              -0.000000136               0.000014126               1.000000000              -0.000000416               0.000018330               1.000000000              -0.000000974               0.000023113               1.000000000              -0.000001919               0.000028684               1.000000000              -0.000003282               0.000035078               1.000000000              -0.000005060               0.000042435               1.000000000              -0.000007205               0.000050708               1.000000000              -0.000009642               0.000059933               1.000000000              -0.000000022              -0.000000045               1.000000000               0.000000031              -0.000000147               1.000000000              -0.000000010              -0.000000163               1.000000000              -0.000000022               0.000000323               1.000000000              -0.000000000               0.000001371               1.000000000              -0.000000007               0.000002905               1.000000000               0.000000030               0.000005080               1.000000000               0.000000037               0.000007776               1.000000000               0.000000014               0.000011078               1.000000000              -0.000000039               0.000014854               1.000000000              -0.000000142               0.000019163               1.000000000              -0.000000345               0.000023976               1.000000000              -0.000000743               0.000029422               1.000000000              -0.000001393               0.000035514               1.000000000              -0.000002310               0.000042396               1.000000000              -0.000003487               0.000050033               1.000000000              -0.000004918               0.000058543               1.000000000              -0.000000026              -0.000000166               1.000000000               0.000000012              -0.000000142               1.000000000               0.000000020              -0.000000078               1.000000000              -0.000000022               0.000000516               1.000000000               0.000000004               0.000001632               1.000000000              -0.000000018               0.000003276               1.000000000              -0.000000007               0.000005469               1.000000000               0.000000024               0.000008240               1.000000000               0.000000025               0.000011562               1.000000000               0.000000014               0.000015428               1.000000000              -0.000000013               0.000019817               1.000000000              -0.000000059               0.000024693               1.000000000              -0.000000158               0.000030126               1.000000000              -0.000000365               0.000036114               1.000000000              -0.000000714               0.000042750               1.000000000              -0.000001202               0.000050023               1.000000000              -0.000001816               0.000058019               1.000000000              -0.000000012              -0.000000265               1.000000000              -0.000000014              -0.000000154               1.000000000               0.000000030               0.000000020               1.000000000              -0.000000022               0.000000675               1.000000000               0.000000003               0.000001885               1.000000000               0.000000004               0.000003633               1.000000000              -0.000000010               0.000005854               1.000000000               0.000000010               0.000008636               1.000000000               0.000000019               0.000011950               1.000000000               0.000000019               0.000015822               1.000000000               0.000000020               0.000020229               1.000000000               0.000000025               0.000025157               1.000000000               0.000000034               0.000030593               1.000000000               0.000000029               0.000036554               1.000000000              -0.000000024               0.000043070               1.000000000              -0.000000143               0.000050161               1.000000000              -0.000000323               0.000057853               1.000000000              -0.000000007              -0.000000335               1.000000000              -0.000000018              -0.000000179               1.000000000               0.000000033               0.000000164               1.000000000              -0.000000014               0.000000815               1.000000000              -0.000000012               0.000002065               1.000000000               0.000000010               0.000003875               1.000000000              -0.000000001               0.000006139               1.000000000              -0.000000003               0.000008973               1.000000000               0.000000007               0.000012291               1.000000000               0.000000009               0.000016157               1.000000000               0.000000009               0.000020539               1.000000000               0.000000012               0.000025461               1.000000000               0.000000028               0.000030880               1.000000000               0.000000056               0.000036819               1.000000000               0.000000089               0.000043259               1.000000000               0.000000106               0.000050240               1.000000000               0.000000088               0.000057755               1.000000000              -0.000000001              -0.000000333               1.000000000              -0.000000023              -0.000000210               1.000000000               0.000000025               0.000000240               1.000000000               0.000000000               0.000000966               1.000000000              -0.000000012               0.000002215               1.000000000              -0.000000000               0.000004076               1.000000000              -0.000000008               0.000006368               1.000000000              -0.000000012               0.000009201               1.000000000              -0.000000001               0.000012539               1.000000000               0.000000009               0.000016394               1.000000000               0.000000008               0.000020745               1.000000000               0.000000001               0.000025645               1.000000000              -0.000000002               0.000031040               1.000000000               0.000000006               0.000036966               1.000000000               0.000000025               0.000043375               1.000000000               0.000000053               0.000050304               1.000000000               0.000000075               0.000057726               1.000000000              -0.000000001              -0.000000350               1.000000000              -0.000000036              -0.000000225               1.000000000               0.000000013               0.000000249               1.000000000               0.000000011               0.000001036               1.000000000              -0.000000007               0.000002322               1.000000000               0.000000007               0.000004192               1.000000000               0.000000015               0.000006518               1.000000000               0.000000007               0.000009353               1.000000000              -0.000000008               0.000012702               1.000000000              -0.000000013               0.000016563               1.000000000              -0.000000007               0.000020904               1.000000000              -0.000000001               0.000025782               1.000000000              -0.000000006               0.000031154               1.000000000              -0.000000020               0.000037060               1.000000000              -0.000000033               0.000043453               1.000000000              -0.000000041               0.000050369               1.000000000              -0.000000038               0.000057766               1.000000000               0.000000000              -0.000000395               1.000000000              -0.000000000              -0.000000212               1.000000000              -0.000000000               0.000000327               1.000000000               0.000000000               0.000001079               1.000000000               0.000000000               0.000002327               1.000000000              -0.000000000               0.000004213               1.000000000              -0.000000000               0.000006557               1.000000000              -0.000000000               0.000009379               1.000000000               0.000000000               0.000012728               1.000000000               0.000000000               0.000016609               1.000000000               0.000000000               0.000020970               1.000000000               0.000000000               0.000025850               1.000000000               0.000000000               0.000031201               1.000000000               0.000000000               0.000037078               1.000000000              -0.000000000               0.000043450               1.000000000              -0.000000000               0.000050357               1.000000000              -0.000000000               0.000057756               1.000000000              -0.000000051               0.000000000               1.000000000              -0.000000030               0.000000000               1.000000000               0.000000031              -0.000000000               1.000000000               0.000000079              -0.000000000               1.000000000               0.000000079              -0.000000000               1.000000000               0.000000014               0.000000000               1.000000000              -0.000000076               0.000000000               1.000000000              -0.000000141              -0.000000000               1.000000000              -0.000000148              -0.000000000               1.000000000              -0.000000096               0.000000000               1.000000000              -0.000000006               0.000000000               1.000000000               0.000000098              -0.000000000               1.000000000               0.000000179              -0.000000000               1.000000000               0.000000203               0.000000000               1.000000000               0.000000161               0.000000000               1.000000000               0.000000078              -0.000000000               1.000000000              -0.000000001              -0.000000000               1.000000000               0.000000024              -0.000000026               1.000000000               0.000000023               0.000000010               1.000000000              -0.000000009               0.000000005               1.000000000              -0.000000058               0.000000022               1.000000000              -0.000000069               0.000000035               1.000000000              -0.000000031               0.000000031               1.000000000               0.000000028               0.000000005               1.000000000               0.000000082              -0.000000030               1.000000000               0.000000109              -0.000000066               1.000000000               0.000000109              -0.000000093               1.000000000               0.000000087              -0.000000103               1.000000000               0.000000039              -0.000000116               1.000000000              -0.000000028              -0.000000147               1.000000000              -0.000000093              -0.000000184               1.000000000              -0.000000126              -0.000000196               1.000000000              -0.000000108              -0.000000159               1.000000000              -0.000000042              -0.000000099               1.000000000               0.000000030              -0.000000000               1.000000000              -0.000000007               0.000000005               1.000000000              -0.000000030               0.000000020               1.000000000               0.000000009               0.000000015               1.000000000               0.000000036              -0.000000007               1.000000000               0.000000043              -0.000000050               1.000000000               0.000000048              -0.000000075               1.000000000               0.000000042              -0.000000073               1.000000000               0.000000016              -0.000000034               1.000000000              -0.000000034               0.000000044               1.000000000              -0.000000114               0.000000116               1.000000000              -0.000000203               0.000000171               1.000000000              -0.000000258               0.000000238               1.000000000              -0.000000238               0.000000352               1.000000000              -0.000000132               0.000000527               1.000000000               0.000000026               0.000000738               1.000000000               0.000000160               0.000000935               1.000000000              -0.000000035               0.000000042               1.000000000              -0.000000011               0.000000011               1.000000000               0.000000035               0.000000012               1.000000000               0.000000028              -0.000000039               1.000000000               0.000000003              -0.000000070               1.000000000              -0.000000012              -0.000000053               1.000000000              -0.000000044               0.000000012               1.000000000              -0.000000080               0.000000114               1.000000000              -0.000000110               0.000000227               1.000000000              -0.000000132               0.000000288               1.000000000              -0.000000121               0.000000292               1.000000000              -0.000000047               0.000000292               1.000000000               0.000000106               0.000000325               1.000000000               0.000000312               0.000000394               1.000000000               0.000000489               0.000000424               1.000000000               0.000000512               0.000000287               1.000000000               0.000000245              -0.000000170               1.000000000              -0.000000014               0.000000049               1.000000000               0.000000022              -0.000000011               1.000000000              -0.000000003              -0.000000043               1.000000000              -0.000000035              -0.000000059               1.000000000              -0.000000007              -0.000000010               1.000000000              -0.000000006               0.000000094               1.000000000              -0.000000011               0.000000205               1.000000000              -0.000000015               0.000000270               1.000000000              -0.000000008               0.000000220               1.000000000               0.000000032               0.000000045               1.000000000               0.000000120              -0.000000191               1.000000000               0.000000264              -0.000000440               1.000000000               0.000000412              -0.000000709               1.000000000               0.000000449              -0.000001103               1.000000000               0.000000228              -0.000001800               1.000000000              -0.000000383              -0.000003002               1.000000000              -0.000001483              -0.000004908               1.000000000               0.000000016               0.000000014               1.000000000              -0.000000009              -0.000000049               1.000000000              -0.000000013              -0.000000070               1.000000000               0.000000023               0.000000023               1.000000000              -0.000000006               0.000000156               1.000000000              -0.000000022               0.000000233               1.000000000              -0.000000013               0.000000170               1.000000000               0.000000023              -0.000000099               1.000000000               0.000000086              -0.000000583               1.000000000               0.000000159              -0.000001223               1.000000000               0.000000246              -0.000001938               1.000000000               0.000000276              -0.000002737               1.000000000               0.000000116              -0.000003724               1.000000000              -0.000000384              -0.000005103               1.000000000              -0.000001347              -0.000007077               1.000000000              -0.000002846              -0.000009814               1.000000000              -0.000004893              -0.000013431               1.000000000               0.000000009              -0.000000066               1.000000000              -0.000000020              -0.000000055               1.000000000               0.000000007               0.000000025               1.000000000               0.000000002               0.000000186               1.000000000              -0.000000004               0.000000194               1.000000000               0.000000028              -0.000000008               1.000000000               0.000000043              -0.000000512               1.000000000               0.000000087              -0.000001335               1.000000000               0.000000111              -0.000002451               1.000000000               0.000000131              -0.000003765               1.000000000               0.000000057              -0.000005248               1.000000000              -0.000000239              -0.000006991               1.000000000              -0.000000919              -0.000009182               1.000000000              -0.000002113              -0.000012032               1.000000000              -0.000003888              -0.000015674               1.000000000              -0.000006242              -0.000020202               1.000000000              -0.000009120              -0.000025631               1.000000000               0.000000012              -0.000000151               1.000000000              -0.000000003               0.000000021               1.000000000              -0.000000001               0.000000157               1.000000000               0.000000004               0.000000186               1.000000000               0.000000000              -0.000000074               1.000000000              -0.000000001              -0.000000761               1.000000000               0.000000056              -0.000001915               1.000000000               0.000000091              -0.000003515               1.000000000               0.000000084              -0.000005493               1.000000000              -0.000000025              -0.000007752               1.000000000              -0.000000358              -0.000010364               1.000000000              -0.000001078              -0.000013481               1.000000000              -0.000002336              -0.000017330               1.000000000              -0.000004201              -0.000022036               1.000000000              -0.000006670              -0.000027685               1.000000000              -0.000009694              -0.000034243               1.000000000              -0.000013173              -0.000041600               1.000000000               0.000000023              -0.000000167               1.000000000               0.000000007               0.000000135               1.000000000              -0.000000017               0.000000211               1.000000000              -0.000000004              -0.000000007               1.000000000              -0.000000009              -0.000000766               1.000000000               0.000000035              -0.000002167               1.000000000               0.000000061              -0.000004133               1.000000000               0.000000031              -0.000006693               1.000000000              -0.000000074              -0.000009703               1.000000000              -0.000000352              -0.000013221               1.000000000              -0.000000978              -0.000017333               1.000000000              -0.000002116              -0.000022274               1.000000000              -0.000003863              -0.000028170               1.000000000              -0.000006211              -0.000035142               1.000000000              -0.000009106              -0.000043137               1.000000000              -0.000012424              -0.000052063               1.000000000              -0.000016052              -0.000061676               1.000000000               0.000000007              -0.000000089               1.000000000               0.000000024               0.000000162               1.000000000              -0.000000025               0.000000207               1.000000000              -0.000000002              -0.000000161               1.000000000              -0.000000010              -0.000001064               1.000000000              -0.000000007              -0.000002514               1.000000000               0.000000039              -0.000004626               1.000000000               0.000000045              -0.000007265               1.000000000              -0.000000007              -0.000010476               1.000000000              -0.000000136              -0.000014126               1.000000000              -0.000000416              -0.000018330               1.000000000              -0.000000974              -0.000023113               1.000000000              -0.000001919              -0.000028684               1.000000000              -0.000003282              -0.000035078               1.000000000              -0.000005060              -0.000042435               1.000000000              -0.000007205              -0.000050708               1.000000000              -0.000009642              -0.000059933               1.000000000              -0.000000022               0.000000045               1.000000000               0.000000031               0.000000147               1.000000000              -0.000000010               0.000000163               1.000000000              -0.000000022              -0.000000323               1.000000000              -0.000000000              -0.000001371               1.000000000              -0.000000007              -0.000002905               1.000000000               0.000000030              -0.000005080               1.000000000               0.000000037              -0.000007776               1.000000000               0.000000014              -0.000011078               1.000000000              -0.000000039              -0.000014854               1.000000000              -0.000000142              -0.000019163               1.000000000              -0.000000345              -0.000023976               1.000000000              -0.000000743              -0.000029422               1.000000000              -0.000001393              -0.000035514               1.000000000              -0.000002310              -0.000042396               1.000000000              -0.000003487              -0.000050033               1.000000000              -0.000004918              -0.000058543               1.000000000              -0.000000026               0.000000166               1.000000000               0.000000012               0.000000142               1.000000000               0.000000020               0.000000078               1.000000000              -0.000000022              -0.000000516               1.000000000               0.000000004              -0.000001632               1.000000000              -0.000000018              -0.000003276               1.000000000              -0.000000007              -0.000005469               1.000000000               0.000000024              -0.000008240               1.000000000               0.000000025              -0.000011562               1.000000000               0.000000014              -0.000015428               1.000000000              -0.000000013              -0.000019817               1.000000000              -0.000000059              -0.000024693               1.000000000              -0.000000158              -0.000030126               1.000000000              -0.000000365              -0.000036114               1.000000000              -0.000000714              -0.000042750               1.000000000              -0.000001202              -0.000050023               1.000000000              -0.000001816              -0.000058019               1.000000000              -0.000000012               0.000000265               1.000000000              -0.000000014               0.000000154               1.000000000               0.000000030              -0.000000020               1.000000000              -0.000000022              -0.000000675               1.000000000               0.000000003              -0.000001885               1.000000000               0.000000004              -0.000003633               1.000000000              -0.000000010              -0.000005854               1.000000000               0.000000010              -0.000008636               1.000000000               0.000000019              -0.000011950               1.000000000               0.000000019              -0.000015822               1.000000000               0.000000020              -0.000020229               1.000000000               0.000000025              -0.000025157               1.000000000               0.000000034              -0.000030593               1.000000000               0.000000029              -0.000036554               1.000000000              -0.000000024              -0.000043070               1.000000000              -0.000000143              -0.000050161               1.000000000              -0.000000323              -0.000057853               1.000000000              -0.000000007               0.000000335               1.000000000              -0.000000018               0.000000179               1.000000000               0.000000033              -0.000000164               1.000000000              -0.000000014              -0.000000815               1.000000000              -0.000000012              -0.000002065               1.000000000               0.000000010              -0.000003875               1.000000000              -0.000000001              -0.000006139               1.000000000              -0.000000003              -0.000008973               1.000000000               0.000000007              -0.000012291               1.000000000               0.000000009              -0.000016157               1.000000000               0.000000009              -0.000020539               1.000000000               0.000000012              -0.000025461               1.000000000               0.000000028              -0.000030880               1.000000000               0.000000056              -0.000036819               1.000000000               0.000000089              -0.000043259               1.000000000               0.000000106              -0.000050240               1.000000000               0.000000088              -0.000057755               1.000000000              -0.000000001               0.000000333               1.000000000              -0.000000023               0.000000210               1.000000000               0.000000025              -0.000000240               1.000000000               0.000000000              -0.000000966               1.000000000              -0.000000012              -0.000002215               1.000000000              -0.000000000              -0.000004076               1.000000000              -0.000000008              -0.000006368               1.000000000              -0.000000012              -0.000009201               1.000000000              -0.000000001              -0.000012539               1.000000000               0.000000009              -0.000016394               1.000000000               0.000000008              -0.000020745               1.000000000               0.000000001              -0.000025645               1.000000000              -0.000000002              -0.000031040               1.000000000               0.000000006              -0.000036966               1.000000000               0.000000025              -0.000043375               1.000000000               0.000000053              -0.000050304               1.000000000               0.000000075              -0.000057726               1.000000000              -0.000000001               0.000000350               1.000000000              -0.000000036               0.000000225               1.000000000               0.000000013              -0.000000249               1.000000000               0.000000011              -0.000001036               1.000000000              -0.000000007              -0.000002322               1.000000000               0.000000007              -0.000004192               1.000000000               0.000000015              -0.000006518               1.000000000               0.000000007              -0.000009353               1.000000000              -0.000000008              -0.000012702               1.000000000              -0.000000013              -0.000016563               1.000000000              -0.000000007              -0.000020904               1.000000000              -0.000000001              -0.000025782               1.000000000              -0.000000006              -0.000031154               1.000000000              -0.000000020              -0.000037060               1.000000000              -0.000000033              -0.000043453               1.000000000              -0.000000041              -0.000050369               1.000000000              -0.000000038              -0.000057766               1.000000000              -0.000000000               0.000000395               1.000000000               0.000000000               0.000000212               1.000000000               0.000000000              -0.000000327               1.000000000              -0.000000000              -0.000001079               1.000000000              -0.000000000              -0.000002327               1.000000000               0.000000000              -0.000004213               1.000000000               0.000000000              -0.000006557               1.000000000              -0.000000000              -0.000009379               1.000000000              -0.000000000              -0.000012728               1.000000000              -0.000000000              -0.000016609               1.000000000              -0.000000000              -0.000020970               1.000000000              -0.000000000              -0.000025850               1.000000000              -0.000000000              -0.000031201               1.000000000               0.000000000              -0.000037078               1.000000000               0.000000000              -0.000043450               1.000000000               0.000000000              -0.000050357               1.000000000               0.000000000              -0.000057756               1.000000000               0.000000051               0.000000000               1.000000000               0.000000030              -0.000000000               1.000000000              -0.000000031              -0.000000000               1.000000000              -0.000000079               0.000000000               1.000000000              -0.000000079               0.000000000               1.000000000              -0.000000014              -0.000000000               1.000000000               0.000000076              -0.000000000               1.000000000               0.000000141               0.000000000               1.000000000               0.000000148               0.000000000               1.000000000               0.000000096              -0.000000000               1.000000000               0.000000006               0.000000000               1.000000000              -0.000000098               0.000000000               1.000000000              -0.000000179              -0.000000000               1.000000000              -0.000000203              -0.000000000               1.000000000              -0.000000161              -0.000000000               1.000000000              -0.000000078              -0.000000000               1.000000000               0.000000001              -0.000000000               1.000000000              -0.000000024              -0.000000026               1.000000000              -0.000000023               0.000000010               1.000000000               0.000000009               0.000000005               1.000000000               0.000000058               0.000000022               1.000000000               0.000000069               0.000000035               1.000000000               0.000000031               0.000000031               1.000000000              -0.000000028               0.000000005               1.000000000              -0.000000082              -0.000000030               1.000000000              -0.000000109              -0.000000066               1.000000000              -0.000000109              -0.000000093               1.000000000              -0.000000087              -0.000000103               1.000000000              -0.000000039              -0.000000116               1.000000000               0.000000028              -0.000000147               1.000000000               0.000000093              -0.000000184               1.000000000               0.000000126              -0.000000196               1.000000000               0.000000108              -0.000000159               1.000000000               0.000000042              -0.000000099               1.000000000              -0.000000030              -0.000000000               1.000000000               0.000000007               0.000000005               1.000000000               0.000000030               0.000000020               1.000000000              -0.000000009               0.000000015               1.000000000              -0.000000036              -0.000000007               1.000000000              -0.000000043              -0.000000050               1.000000000              -0.000000048              -0.000000075               1.000000000              -0.000000042              -0.000000073               1.000000000              -0.000000016              -0.000000034               1.000000000               0.000000034               0.000000044               1.000000000               0.000000114               0.000000116               1.000000000               0.000000203               0.000000171               1.000000000               0.000000258               0.000000238               1.000000000               0.000000238               0.000000352               1.000000000               0.000000132               0.000000527               1.000000000              -0.000000026               0.000000738               1.000000000              -0.000000160               0.000000935               1.000000000               0.000000035               0.000000042               1.000000000               0.000000011               0.000000011               1.000000000              -0.000000035               0.000000012               1.000000000              -0.000000028              -0.000000039               1.000000000              -0.000000003              -0.000000070               1.000000000               0.000000012              -0.000000053               1.000000000               0.000000044               0.000000012               1.000000000               0.000000080               0.000000114               1.000000000               0.000000110               0.000000227               1.000000000               0.000000132               0.000000288               1.000000000               0.000000121               0.000000292               1.000000000               0.000000047               0.000000292               1.000000000              -0.000000106               0.000000325               1.000000000              -0.000000312               0.000000394               1.000000000              -0.000000489               0.000000424               1.000000000              -0.000000512               0.000000287               1.000000000              -0.000000245              -0.000000170               1.000000000               0.000000014               0.000000049               1.000000000              -0.000000022              -0.000000011               1.000000000               0.000000003              -0.000000043               1.000000000               0.000000035              -0.000000059               1.000000000               0.000000007              -0.000000010               1.000000000               0.000000006               0.000000094               1.000000000               0.000000011               0.000000205               1.000000000               0.000000015               0.000000270               1.000000000               0.000000008               0.000000220               1.000000000              -0.000000032               0.000000045               1.000000000              -0.000000120              -0.000000191               1.000000000              -0.000000264              -0.000000440               1.000000000              -0.000000412              -0.000000709               1.000000000              -0.000000449              -0.000001103               1.000000000              -0.000000228              -0.000001800               1.000000000               0.000000383              -0.000003002               1.000000000               0.000001483              -0.000004908               1.000000000              -0.000000016               0.000000014               1.000000000               0.000000009              -0.000000049               1.000000000               0.000000013              -0.000000070               1.000000000              -0.000000023               0.000000023               1.000000000               0.000000006               0.000000156               1.000000000               0.000000022               0.000000233               1.000000000               0.000000013               0.000000170               1.000000000              -0.000000023              -0.000000099               1.000000000              -0.000000086              -0.000000583               1.000000000              -0.000000159              -0.000001223               1.000000000              -0.000000246              -0.000001938               1.000000000              -0.000000276              -0.000002737               1.000000000              -0.000000116              -0.000003724               1.000000000               0.000000384              -0.000005103               1.000000000               0.000001347              -0.000007077               1.000000000               0.000002846              -0.000009814               1.000000000               0.000004893              -0.000013431               1.000000000              -0.000000009              -0.000000066               1.000000000               0.000000020              -0.000000055               1.000000000              -0.000000007               0.000000025               1.000000000              -0.000000002               0.000000186               1.000000000               0.000000004               0.000000194               1.000000000              -0.000000028              -0.000000008               1.000000000              -0.000000043              -0.000000512               1.000000000              -0.000000087              -0.000001335               1.000000000              -0.000000111              -0.000002451               1.000000000              -0.000000131              -0.000003765               1.000000000              -0.000000057              -0.000005248               1.000000000               0.000000239              -0.000006991               1.000000000               0.000000919              -0.000009182               1.000000000               0.000002113              -0.000012032               1.000000000               0.000003888              -0.000015674               1.000000000               0.000006242              -0.000020202               1.000000000               0.000009120              -0.000025631               1.000000000              -0.000000012              -0.000000151               1.000000000               0.000000003               0.000000021               1.000000000               0.000000001               0.000000157               1.000000000              -0.000000004               0.000000186               1.000000000              -0.000000000              -0.000000074               1.000000000               0.000000001              -0.000000761               1.000000000              -0.000000056              -0.000001915               1.000000000              -0.000000091              -0.000003515               1.000000000              -0.000000084              -0.000005493               1.000000000               0.000000025              -0.000007752               1.000000000               0.000000358              -0.000010364               1.000000000               0.000001078              -0.000013481               1.000000000               0.000002336              -0.000017330               1.000000000               0.000004201              -0.000022036               1.000000000               0.000006670              -0.000027685               1.000000000               0.000009694              -0.000034243               1.000000000               0.000013173              -0.000041600               1.000000000              -0.000000023              -0.000000167               1.000000000              -0.000000007               0.000000135               1.000000000               0.000000017               0.000000211               1.000000000               0.000000004              -0.000000007               1.000000000               0.000000009              -0.000000766               1.000000000              -0.000000035              -0.000002167               1.000000000              -0.000000061              -0.000004133               1.000000000              -0.000000031              -0.000006693               1.000000000               0.000000074              -0.000009703               1.000000000               0.000000352              -0.000013221               1.000000000               0.000000978              -0.000017333               1.000000000               0.000002116              -0.000022274               1.000000000               0.000003863              -0.000028170               1.000000000               0.000006211              -0.000035142               1.000000000               0.000009106              -0.000043137               1.000000000               0.000012424              -0.000052063               1.000000000               0.000016052              -0.000061676               1.000000000              -0.000000007              -0.000000089               1.000000000              -0.000000024               0.000000162               1.000000000               0.000000025               0.000000207               1.000000000               0.000000002              -0.000000161               1.000000000               0.000000010              -0.000001064               1.000000000               0.000000007              -0.000002514               1.000000000              -0.000000039              -0.000004626               1.000000000              -0.000000045              -0.000007265               1.000000000               0.000000007              -0.000010476               1.000000000               0.000000136              -0.000014126               1.000000000               0.000000416              -0.000018330               1.000000000               0.000000974              -0.000023113               1.000000000               0.000001919              -0.000028684               1.000000000               0.000003282              -0.000035078               1.000000000               0.000005060              -0.000042435               1.000000000               0.000007205              -0.000050708               1.000000000               0.000009642              -0.000059933               1.000000000               0.000000022               0.000000045               1.000000000              -0.000000031               0.000000147               1.000000000               0.000000010               0.000000163               1.000000000               0.000000022              -0.000000323               1.000000000               0.000000000              -0.000001371               1.000000000               0.000000007              -0.000002905               1.000000000              -0.000000030              -0.000005080               1.000000000              -0.000000037              -0.000007776               1.000000000              -0.000000014              -0.000011078               1.000000000               0.000000039              -0.000014854               1.000000000               0.000000142              -0.000019163               1.000000000               0.000000345              -0.000023976               1.000000000               0.000000743              -0.000029422               1.000000000               0.000001393              -0.000035514               1.000000000               0.000002310              -0.000042396               1.000000000               0.000003487              -0.000050033               1.000000000               0.000004918              -0.000058543               1.000000000               0.000000026               0.000000166               1.000000000              -0.000000012               0.000000142               1.000000000              -0.000000020               0.000000078               1.000000000               0.000000022              -0.000000516               1.000000000              -0.000000004              -0.000001632               1.000000000               0.000000018              -0.000003276               1.000000000               0.000000007              -0.000005469               1.000000000              -0.000000024              -0.000008240               1.000000000              -0.000000025              -0.000011562               1.000000000              -0.000000014              -0.000015428               1.000000000               0.000000013              -0.000019817               1.000000000               0.000000059              -0.000024693               1.000000000               0.000000158              -0.000030126               1.000000000               0.000000365              -0.000036114               1.000000000               0.000000714              -0.000042750               1.000000000               0.000001202              -0.000050023               1.000000000               0.000001816              -0.000058019               1.000000000               0.000000012               0.000000265               1.000000000               0.000000014               0.000000154               1.000000000              -0.000000030              -0.000000020               1.000000000               0.000000022              -0.000000675               1.000000000              -0.000000003              -0.000001885               1.000000000              -0.000000004              -0.000003633               1.000000000               0.000000010              -0.000005854               1.000000000              -0.000000010              -0.000008636               1.000000000              -0.000000019              -0.000011950               1.000000000              -0.000000019              -0.000015822               1.000000000              -0.000000020              -0.000020229               1.000000000              -0.000000025              -0.000025157               1.000000000              -0.000000034              -0.000030593               1.000000000              -0.000000029              -0.000036554               1.000000000               0.000000024              -0.000043070               1.000000000               0.000000143              -0.000050161               1.000000000               0.000000323              -0.000057853               1.000000000               0.000000007               0.000000335               1.000000000               0.000000018               0.000000179               1.000000000              -0.000000033              -0.000000164               1.000000000               0.000000014              -0.000000815               1.000000000               0.000000012              -0.000002065               1.000000000              -0.000000010              -0.000003875               1.000000000               0.000000001              -0.000006139               1.000000000               0.000000003              -0.000008973               1.000000000              -0.000000007              -0.000012291               1.000000000              -0.000000009              -0.000016157               1.000000000              -0.000000009              -0.000020539               1.000000000              -0.000000012              -0.000025461               1.000000000              -0.000000028              -0.000030880               1.000000000              -0.000000056              -0.000036819               1.000000000              -0.000000089              -0.000043259               1.000000000              -0.000000106              -0.000050240               1.000000000              -0.000000088              -0.000057755               1.000000000               0.000000001               0.000000333               1.000000000               0.000000023               0.000000210               1.000000000              -0.000000025              -0.000000240               1.000000000              -0.000000000              -0.000000966               1.000000000               0.000000012              -0.000002215               1.000000000               0.000000000              -0.000004076               1.000000000               0.000000008              -0.000006368               1.000000000               0.000000012              -0.000009201               1.000000000               0.000000001              -0.000012539               1.000000000              -0.000000009              -0.000016394               1.000000000              -0.000000008              -0.000020745               1.000000000              -0.000000001              -0.000025645               1.000000000               0.000000002              -0.000031040               1.000000000              -0.000000006              -0.000036966               1.000000000              -0.000000025              -0.000043375               1.000000000              -0.000000053              -0.000050304               1.000000000              -0.000000075              -0.000057726               1.000000000               0.000000001               0.000000350               1.000000000               0.000000036               0.000000225               1.000000000              -0.000000013              -0.000000249               1.000000000              -0.000000011              -0.000001036               1.000000000               0.000000007              -0.000002322               1.000000000              -0.000000007              -0.000004192               1.000000000              -0.000000015              -0.000006518               1.000000000              -0.000000007              -0.000009353               1.000000000               0.000000008              -0.000012702               1.000000000               0.000000013              -0.000016563               1.000000000               0.000000007              -0.000020904               1.000000000               0.000000001              -0.000025782               1.000000000               0.000000006              -0.000031154               1.000000000               0.000000020              -0.000037060               1.000000000               0.000000033              -0.000043453               1.000000000               0.000000041              -0.000050369               1.000000000               0.000000038              -0.000057766               1.000000000              -0.000000000               0.000000395               1.000000000               0.000000000               0.000000212               1.000000000               0.000000000              -0.000000327               1.000000000              -0.000000000              -0.000001079               1.000000000              -0.000000000              -0.000002327               1.000000000               0.000000000              -0.000004213               1.000000000               0.000000000              -0.000006557               1.000000000              -0.000000000              -0.000009379               1.000000000              -0.000000000              -0.000012728               1.000000000              -0.000000000              -0.000016609               1.000000000              -0.000000000              -0.000020970               1.000000000              -0.000000000              -0.000025850               1.000000000              -0.000000000              -0.000031201               1.000000000               0.000000000              -0.000037078               1.000000000               0.000000000              -0.000043450               1.000000000               0.000000000              -0.000050357               1.000000000               0.000000000              -0.000057756               1.000000000               0.000000051               0.000000000               1.000000000               0.000000030              -0.000000000               1.000000000              -0.000000031              -0.000000000               1.000000000              -0.000000079               0.000000000               1.000000000              -0.000000079               0.000000000               1.000000000              -0.000000014              -0.000000000               1.000000000               0.000000076              -0.000000000               1.000000000               0.000000141               0.000000000               1.000000000               0.000000148               0.000000000               1.000000000               0.000000096              -0.000000000               1.000000000               0.000000006               0.000000000               1.000000000              -0.000000098               0.000000000               1.000000000              -0.000000179              -0.000000000               1.000000000              -0.000000203              -0.000000000               1.000000000              -0.000000161              -0.000000000               1.000000000              -0.000000078              -0.000000000               1.000000000               0.000000001              -0.000000000               1.000000000              -0.000000024               0.000000026               1.000000000              -0.000000023              -0.000000010               1.000000000               0.000000009              -0.000000005               1.000000000               0.000000058              -0.000000022               1.000000000               0.000000069              -0.000000035               1.000000000               0.000000031              -0.000000031               1.000000000              -0.000000028              -0.000000005               1.000000000              -0.000000082               0.000000030               1.000000000              -0.000000109               0.000000066               1.000000000              -0.000000109               0.000000093               1.000000000              -0.000000087               0.000000103               1.000000000              -0.000000039               0.000000116               1.000000000               0.000000028               0.000000147               1.000000000               0.000000093               0.000000184               1.000000000               0.000000126               0.000000196               1.000000000               0.000000108               0.000000159               1.000000000               0.000000042               0.000000099               1.000000000              -0.000000030               0.000000000               1.000000000               0.000000007              -0.000000005               1.000000000               0.000000030              -0.000000020               1.000000000              -0.000000009              -0.000000015               1.000000000              -0.000000036               0.000000007               1.000000000              -0.000000043               0.000000050               1.000000000              -0.000000048               0.000000075               1.000000000              -0.000000042               0.000000073               1.000000000              -0.000000016               0.000000034               1.000000000               0.000000034              -0.000000044               1.000000000               0.000000114              -0.000000116               1.000000000               0.000000203              -0.000000171               1.000000000               0.000000258              -0.000000238               1.000000000               0.000000238              -0.000000352               1.000000000               0.000000132              -0.000000527               1.000000000              -0.000000026              -0.000000738               1.000000000              -0.000000160              -0.000000935               1.000000000               0.000000035              -0.000000042               1.000000000               0.000000011              -0.000000011               1.000000000              -0.000000035              -0.000000012               1.000000000              -0.000000028               0.000000039               1.000000000              -0.000000003               0.000000070               1.000000000               0.000000012               0.000000053               1.000000000               0.000000044              -0.000000012               1.000000000               0.000000080              -0.000000114               1.000000000               0.000000110              -0.000000227               1.000000000               0.000000132              -0.000000288               1.000000000               0.000000121              -0.000000292               1.000000000               0.000000047              -0.000000292               1.000000000              -0.000000106              -0.000000325               1.000000000              -0.000000312              -0.000000394               1.000000000              -0.000000489              -0.000000424               1.000000000              -0.000000512              -0.000000287               1.000000000              -0.000000245               0.000000170               1.000000000               0.000000014              -0.000000049               1.000000000              -0.000000022               0.000000011               1.000000000               0.000000003               0.000000043               1.000000000               0.000000035               0.000000059               1.000000000               0.000000007               0.000000010               1.000000000               0.000000006              -0.000000094               1.000000000               0.000000011              -0.000000205               1.000000000               0.000000015              -0.000000270               1.000000000               0.000000008              -0.000000220               1.000000000              -0.000000032              -0.000000045               1.000000000              -0.000000120               0.000000191               1.000000000              -0.000000264               0.000000440               1.000000000              -0.000000412               0.000000709               1.000000000              -0.000000449               0.000001103               1.000000000              -0.000000228               0.000001800               1.000000000               0.000000383               0.000003002               1.000000000               0.000001483               0.000004908               1.000000000              -0.000000016              -0.000000014               1.000000000               0.000000009               0.000000049               1.000000000               0.000000013               0.000000070               1.000000000              -0.000000023              -0.000000023               1.000000000               0.000000006              -0.000000156               1.000000000               0.000000022              -0.000000233               1.000000000               0.000000013              -0.000000170               1.000000000              -0.000000023               0.000000099               1.000000000              -0.000000086               0.000000583               1.000000000              -0.000000159               0.000001223               1.000000000              -0.000000246               0.000001938               1.000000000              -0.000000276               0.000002737               1.000000000              -0.000000116               0.000003724               1.000000000               0.000000384               0.000005103               1.000000000               0.000001347               0.000007077               1.000000000               0.000002846               0.000009814               1.000000000               0.000004893               0.000013431               1.000000000              -0.000000009               0.000000066               1.000000000               0.000000020               0.000000055               1.000000000              -0.000000007              -0.000000025               1.000000000              -0.000000002              -0.000000186               1.000000000               0.000000004              -0.000000194               1.000000000              -0.000000028               0.000000008               1.000000000              -0.000000043               0.000000512               1.000000000              -0.000000087               0.000001335               1.000000000              -0.000000111               0.000002451               1.000000000              -0.000000131               0.000003765               1.000000000              -0.000000057               0.000005248               1.000000000               0.000000239               0.000006991               1.000000000               0.000000919               0.000009182               1.000000000               0.000002113               0.000012032               1.000000000               0.000003888               0.000015674               1.000000000               0.000006242               0.000020202               1.000000000               0.000009120               0.000025631               1.000000000              -0.000000012               0.000000151               1.000000000               0.000000003              -0.000000021               1.000000000               0.000000001              -0.000000157               1.000000000              -0.000000004              -0.000000186               1.000000000              -0.000000000               0.000000074               1.000000000               0.000000001               0.000000761               1.000000000              -0.000000056               0.000001915               1.000000000              -0.000000091               0.000003515               1.000000000              -0.000000084               0.000005493               1.000000000               0.000000025               0.000007752               1.000000000               0.000000358               0.000010364               1.000000000               0.000001078               0.000013481               1.000000000               0.000002336               0.000017330               1.000000000               0.000004201               0.000022036               1.000000000               0.000006670               0.000027685               1.000000000               0.000009694               0.000034243               1.000000000               0.000013173               0.000041600               1.000000000              -0.000000023               0.000000167               1.000000000              -0.000000007              -0.000000135               1.000000000               0.000000017              -0.000000211               1.000000000               0.000000004               0.000000007               1.000000000               0.000000009               0.000000766               1.000000000              -0.000000035               0.000002167               1.000000000              -0.000000061               0.000004133               1.000000000              -0.000000031               0.000006693               1.000000000               0.000000074               0.000009703               1.000000000               0.000000352               0.000013221               1.000000000               0.000000978               0.000017333               1.000000000               0.000002116               0.000022274               1.000000000               0.000003863               0.000028170               1.000000000               0.000006211               0.000035142               1.000000000               0.000009106               0.000043137               1.000000000               0.000012424               0.000052063               1.000000000               0.000016052               0.000061676               1.000000000              -0.000000007               0.000000089               1.000000000              -0.000000024              -0.000000162               1.000000000               0.000000025              -0.000000207               1.000000000               0.000000002               0.000000161               1.000000000               0.000000010               0.000001064               1.000000000               0.000000007               0.000002514               1.000000000              -0.000000039               0.000004626               1.000000000              -0.000000045               0.000007265               1.000000000               0.000000007               0.000010476               1.000000000               0.000000136               0.000014126               1.000000000               0.000000416               0.000018330               1.000000000               0.000000974               0.000023113               1.000000000               0.000001919               0.000028684               1.000000000               0.000003282               0.000035078               1.000000000               0.000005060               0.000042435               1.000000000               0.000007205               0.000050708               1.000000000               0.000009642               0.000059933               1.000000000               0.000000022              -0.000000045               1.000000000              -0.000000031              -0.000000147               1.000000000               0.000000010              -0.000000163               1.000000000               0.000000022               0.000000323               1.000000000               0.000000000               0.000001371               1.000000000               0.000000007               0.000002905               1.000000000              -0.000000030               0.000005080               1.000000000              -0.000000037               0.000007776               1.000000000              -0.000000014               0.000011078               1.000000000               0.000000039               0.000014854               1.000000000               0.000000142               0.000019163               1.000000000               0.000000345               0.000023976               1.000000000               0.000000743               0.000029422               1.000000000               0.000001393               0.000035514               1.000000000               0.000002310               0.000042396               1.000000000               0.000003487               0.000050033               1.000000000               0.000004918               0.000058543               1.000000000               0.000000026              -0.000000166               1.000000000              -0.000000012              -0.000000142               1.000000000              -0.000000020              -0.000000078               1.000000000               0.000000022               0.000000516               1.000000000              -0.000000004               0.000001632               1.000000000               0.000000018               0.000003276               1.000000000               0.000000007               0.000005469               1.000000000              -0.000000024               0.000008240               1.000000000              -0.000000025               0.000011562               1.000000000              -0.000000014               0.000015428               1.000000000               0.000000013               0.000019817               1.000000000               0.000000059               0.000024693               1.000000000               0.000000158               0.000030126               1.000000000               0.000000365               0.000036114               1.000000000               0.000000714               0.000042750               1.000000000               0.000001202               0.000050023               1.000000000               0.000001816               0.000058019               1.000000000               0.000000012              -0.000000265               1.000000000               0.000000014              -0.000000154               1.000000000              -0.000000030               0.000000020               1.000000000               0.000000022               0.000000675               1.000000000              -0.000000003               0.000001885               1.000000000              -0.000000004               0.000003633               1.000000000               0.000000010               0.000005854               1.000000000              -0.000000010               0.000008636               1.000000000              -0.000000019               0.000011950               1.000000000              -0.000000019               0.000015822               1.000000000              -0.000000020               0.000020229               1.000000000              -0.000000025               0.000025157               1.000000000              -0.000000034               0.000030593               1.000000000              -0.000000029               0.000036554               1.000000000               0.000000024               0.000043070               1.000000000               0.000000143               0.000050161               1.000000000               0.000000323               0.000057853               1.000000000               0.000000007              -0.000000335               1.000000000               0.000000018              -0.000000179               1.000000000              -0.000000033               0.000000164               1.000000000               0.000000014               0.000000815               1.000000000               0.000000012               0.000002065               1.000000000              -0.000000010               0.000003875               1.000000000               0.000000001               0.000006139               1.000000000               0.000000003               0.000008973               1.000000000              -0.000000007               0.000012291               1.000000000              -0.000000009               0.000016157               1.000000000              -0.000000009               0.000020539               1.000000000              -0.000000012               0.000025461               1.000000000              -0.000000028               0.000030880               1.000000000              -0.000000056               0.000036819               1.000000000              -0.000000089               0.000043259               1.000000000              -0.000000106               0.000050240               1.000000000              -0.000000088               0.000057755               1.000000000               0.000000001              -0.000000333               1.000000000               0.000000023              -0.000000210               1.000000000              -0.000000025               0.000000240               1.000000000              -0.000000000               0.000000966               1.000000000               0.000000012               0.000002215               1.000000000               0.000000000               0.000004076               1.000000000               0.000000008               0.000006368               1.000000000               0.000000012               0.000009201               1.000000000               0.000000001               0.000012539               1.000000000              -0.000000009               0.000016394               1.000000000              -0.000000008               0.000020745               1.000000000              -0.000000001               0.000025645               1.000000000               0.000000002               0.000031040               1.000000000              -0.000000006               0.000036966               1.000000000              -0.000000025               0.000043375               1.000000000              -0.000000053               0.000050304               1.000000000              -0.000000075               0.000057726               1.000000000               0.000000001              -0.000000350               1.000000000               0.000000036              -0.000000225               1.000000000              -0.000000013               0.000000249               1.000000000              -0.000000011               0.000001036               1.000000000               0.000000007               0.000002322               1.000000000              -0.000000007               0.000004192               1.000000000              -0.000000015               0.000006518               1.000000000              -0.000000007               0.000009353               1.000000000               0.000000008               0.000012702               1.000000000               0.000000013               0.000016563               1.000000000               0.000000007               0.000020904               1.000000000               0.000000001               0.000025782               1.000000000               0.000000006               0.000031154               1.000000000               0.000000020               0.000037060               1.000000000               0.000000033               0.000043453               1.000000000               0.000000041               0.000050369               1.000000000               0.000000038               0.000057766               1.000000000               0.000000000              -0.000000395               1.000000000              -0.000000000              -0.000000212               1.000000000              -0.000000000               0.000000327               1.000000000               0.000000000               0.000001079               1.000000000               0.000000000               0.000002327               1.000000000              -0.000000000               0.000004213               1.000000000              -0.000000000               0.000006557               1.000000000              -0.000000000               0.000009379               1.000000000               0.000000000               0.000012728               1.000000000               0.000000000               0.000016609               1.000000000               0.000000000               0.000020970               1.000000000               0.000000000               0.000025850               1.000000000               0.000000000               0.000031201               1.000000000               0.000000000               0.000037078               1.000000000              -0.000000000               0.000043450               1.000000000              -0.000000000               0.000050357               1.000000000              -0.000000000               0.000057756               1.000000000 </DataArray>
<DataArray type="Float64"                                    Name="defo"                                                      NumberOfComponents=" 3" format="ascii">
             -0.000000051               0.000000000               1.000000000              -0.000000030               0.000000000               1.000000000               0.000000031              -0.000000000               1.000000000               0.000000079              -0.000000000               1.000000000               0.000000079              -0.000000000               1.000000000               0.000000014               0.000000000               1.000000000              -0.000000076               0.000000000               1.000000000              -0.000000141              -0.000000000               1.000000000              -0.000000148              -0.000000000               1.000000000              -0.000000096               0.000000000               1.000000000              -0.000000006               0.000000000               1.000000000               0.000000098              -0.000000000               1.000000000               0.000000179              -0.000000000               1.000000000               0.000000203               0.000000000               1.000000000               0.000000161               0.000000000               1.000000000               0.000000078              -0.000000000               1.000000000              -0.000000001              -0.000000000               1.000000000               0.000000024               0.000000026               1.000000000               0.000000023              -0.000000010               1.000000000              -0.000000009              -0.000000005               1.000000000              -0.000000058              -0.000000022               1.000000000              -0.000000069              -0.000000035               1.000000000              -0.000000031              -0.000000031               1.000000000               0.000000028              -0.000000005               1.000000000               0.000000082               0.000000030               1.000000000               0.000000109               0.000000066               1.000000000               0.000000109               0.000000093               1.000000000               0.000000087               0.000000103               1.000000000               0.000000039               0.000000116               1.000000000              -0.000000028               0.000000147               1.000000000              -0.000000093               0.000000184               1.000000000              -0.000000126               0.000000196               1.000000000              -0.000000108               0.000000159               1.000000000              -0.000000042               0.000000099               1.000000000               0.000000030               0.000000000               1.000000000              -0.000000007              -0.000000005               1.000000000              -0.000000030              -0.000000020               1.000000000               0.000000009              -0.000000015               1.000000000               0.000000036               0.000000007               1.000000000               0.000000043               0.000000050               1.000000000               0.000000048               0.000000075               1.000000000               0.000000042               0.000000073               1.000000000               0.000000016               0.000000034               1.000000000              -0.000000034              -0.000000044               1.000000000              -0.000000114              -0.000000116               1.000000000              -0.000000203              -0.000000171               1.000000000              -0.000000258              -0.000000238               1.000000000              -0.000000238              -0.000000352               1.000000000              -0.000000132              -0.000000527               1.000000000               0.000000026              -0.000000738               1.000000000               0.000000160              -0.000000935               1.000000000              -0.000000035              -0.000000042               1.000000000              -0.000000011              -0.000000011               1.000000000               0.000000035              -0.000000012               1.000000000               0.000000028               0.000000039               1.000000000               0.000000003               0.000000070               1.000000000              -0.000000012               0.000000053               1.000000000              -0.000000044              -0.000000012               1.000000000              -0.000000080              -0.000000114               1.000000000              -0.000000110              -0.000000227               1.000000000              -0.000000132              -0.000000288               1.000000000              -0.000000121              -0.000000292               1.000000000              -0.000000047              -0.000000292               1.000000000               0.000000106              -0.000000325               1.000000000               0.000000312              -0.000000394               1.000000000               0.000000489              -0.000000424               1.000000000               0.000000512              -0.000000287               1.000000000               0.000000245               0.000000170               1.000000000              -0.000000014              -0.000000049               1.000000000               0.000000022               0.000000011               1.000000000              -0.000000003               0.000000043               1.000000000              -0.000000035               0.000000059               1.000000000              -0.000000007               0.000000010               1.000000000              -0.000000006              -0.000000094               1.000000000              -0.000000011              -0.000000205               1.000000000              -0.000000015              -0.000000270               1.000000000              -0.000000008              -0.000000220               1.000000000               0.000000032              -0.000000045               1.000000000               0.000000120               0.000000191               1.000000000               0.000000264               0.000000440               1.000000000               0.000000412               0.000000709               1.000000000               0.000000449               0.000001103               1.000000000               0.000000228               0.000001800               1.000000000              -0.000000383               0.000003002               1.000000000              -0.000001483               0.000004908               1.000000000               0.000000016              -0.000000014               1.000000000              -0.000000009               0.000000049               1.000000000              -0.000000013               0.000000070               1.000000000               0.000000023              -0.000000023               1.000000000              -0.000000006              -0.000000156               1.000000000              -0.000000022              -0.000000233               1.000000000              -0.000000013              -0.000000170               1.000000000               0.000000023               0.000000099               1.000000000               0.000000086               0.000000583               1.000000000               0.000000159               0.000001223               1.000000000               0.000000246               0.000001938               1.000000000               0.000000276               0.000002737               1.000000000               0.000000116               0.000003724               1.000000000              -0.000000384               0.000005103               1.000000000              -0.000001347               0.000007077               1.000000000              -0.000002846               0.000009814               1.000000000              -0.000004893               0.000013431               1.000000000               0.000000009               0.000000066               1.000000000              -0.000000020               0.000000055               1.000000000               0.000000007              -0.000000025               1.000000000               0.000000002              -0.000000186               1.000000000              -0.000000004              -0.000000194               1.000000000               0.000000028               0.000000008               1.000000000               0.000000043               0.000000512               1.000000000               0.000000087               0.000001335               1.000000000               0.000000111               0.000002451               1.000000000               0.000000131               0.000003765               1.000000000               0.000000057               0.000005248               1.000000000              -0.000000239               0.000006991               1.000000000              -0.000000919               0.000009182               1.000000000              -0.000002113               0.000012032               1.000000000              -0.000003888               0.000015674               1.000000000              -0.000006242               0.000020202               1.000000000              -0.000009120               0.000025631               1.000000000               0.000000012               0.000000151               1.000000000              -0.000000003              -0.000000021               1.000000000              -0.000000001              -0.000000157               1.000000000               0.000000004              -0.000000186               1.000000000               0.000000000               0.000000074               1.000000000              -0.000000001               0.000000761               1.000000000               0.000000056               0.000001915               1.000000000               0.000000091               0.000003515               1.000000000               0.000000084               0.000005493               1.000000000              -0.000000025               0.000007752               1.000000000              -0.000000358               0.000010364               1.000000000              -0.000001078               0.000013481               1.000000000              -0.000002336               0.000017330               1.000000000              -0.000004201               0.000022036               1.000000000              -0.000006670               0.000027685               1.000000000              -0.000009694               0.000034243               1.000000000              -0.000013173               0.000041600               1.000000000               0.000000023               0.000000167               1.000000000               0.000000007              -0.000000135               1.000000000              -0.000000017              -0.000000211               1.000000000              -0.000000004               0.000000007               1.000000000              -0.000000009               0.000000766               1.000000000               0.000000035               0.000002167               1.000000000               0.000000061               0.000004133               1.000000000               0.000000031               0.000006693               1.000000000              -0.000000074               0.000009703               1.000000000              -0.000000352               0.000013221               1.000000000              -0.000000978               0.000017333               1.000000000              -0.000002116               0.000022274               1.000000000              -0.000003863               0.000028170               1.000000000              -0.000006211               0.000035142               1.000000000              -0.000009106               0.000043137               1.000000000              -0.000012424               0.000052063               1.000000000              -0.000016052               0.000061676               1.000000000               0.000000007               0.000000089               1.000000000               0.000000024              -0.000000162               1.000000000              -0.000000025              -0.000000207               1.000000000              -0.000000002               0.000000161               1.000000000              -0.000000010               0.000001064               1.000000000              -0.000000007               0.000002514               1.000000000               0.000000039               0.000004626               1.000000000               0.000000045               0.000007265               1.000000000              -0.000000007               0.000010476               1.000000000              -0.000000136               0.000014126               1.000000000              -0.000000416               0.000018330               1.000000000              -0.000000974               0.000023113               1.000000000              -0.000001919               0.000028684               1.000000000              -0.000003282               0.000035078               1.000000000              -0.000005060               0.000042435               1.000000000              -0.000007205               0.000050708               1.000000000              -0.000009642               0.000059933               1.000000000              -0.000000022              -0.000000045               1.000000000               0.000000031              -0.000000147               1.000000000              -0.000000010              -0.000000163               1.000000000              -0.000000022               0.000000323               1.000000000              -0.000000000               0.000001371               1.000000000              -0.000000007               0.000002905               1.000000000               0.000000030               0.000005080               1.000000000               0.000000037               0.000007776               1.000000000               0.000000014               0.000011078               1.000000000              -0.000000039               0.000014854               1.000000000              -0.000000142               0.000019163               1.000000000              -0.000000345               0.000023976               1.000000000              -0.000000743               0.000029422               1.000000000              -0.000001393               0.000035514               1.000000000              -0.000002310               0.000042396               1.000000000              -0.000003487               0.000050033               1.000000000              -0.000004918               0.000058543               1.000000000              -0.000000026              -0.000000166               1.000000000               0.000000012              -0.000000142               1.000000000               0.000000020              -0.000000078               1.000000000              -0.000000022               0.000000516               1.000000000               0.000000004               0.000001632               1.000000000              -0.000000018               0.000003276               1.000000000              -0.000000007               0.000005469               1.000000000               0.000000024               0.000008240               1.000000000               0.000000025               0.000011562               1.000000000               0.000000014               0.000015428               1.000000000              -0.000000013               0.000019817               1.000000000              -0.000000059               0.000024693               1.000000000              -0.000000158               0.000030126               1.000000000              -0.000000365               0.000036114               1.000000000              -0.000000714               0.000042750               1.000000000              -0.000001202               0.000050023               1.000000000              -0.000001816               0.000058019               1.000000000              -0.000000012              -0.000000265               1.000000000              -0.000000014              -0.000000154               1.000000000               0.000000030               0.000000020               1.000000000              -0.000000022               0.000000675               1.000000000               0.000000003               0.000001885               1.000000000               0.000000004               0.000003633               1.000000000              -0.000000010               0.000005854               1.000000000               0.000000010               0.000008636               1.000000000               0.000000019               0.000011950               1.000000000               0.000000019               0.000015822               1.000000000               0.000000020               0.000020229               1.000000000               0.000000025               0.000025157               1.000000000               0.000000034               0.000030593               1.000000000               0.000000029               0.000036554               1.000000000              -0.000000024               0.000043070               1.000000000              -0.000000143               0.000050161               1.000000000              -0.000000323               0.000057853               1.000000000              -0.000000007              -0.000000335               1.000000000              -0.000000018              -0.000000179               1.000000000               0.000000033               0.000000164               1.000000000              -0.000000014               0.000000815               1.000000000              -0.000000012               0.000002065               1.000000000               0.000000010               0.000003875               1.000000000              -0.000000001               0.000006139               1.000000000              -0.000000003               0.000008973               1.000000000               0.000000007               0.000012291               1.000000000               0.000000009               0.000016157               1.000000000               0.000000009               0.000020539               1.000000000               0.000000012               0.000025461               1.000000000               0.000000028               0.000030880               1.000000000               0.000000056               0.000036819               1.000000000               0.000000089               0.000043259               1.000000000               0.000000106               0.000050240               1.000000000               0.000000088               0.000057755               1.000000000              -0.000000001              -0.000000333               1.000000000              -0.000000023              -0.000000210               1.000000000               0.000000025               0.000000240               1.000000000               0.000000000               0.000000966               1.000000000              -0.000000012               0.000002215               1.000000000              -0.000000000               0.000004076               1.000000000              -0.000000008               0.000006368               1.000000000              -0.000000012               0.000009201               1.000000000              -0.000000001               0.000012539               1.000000000               0.000000009               0.000016394               1.000000000               0.000000008               0.000020745               1.000000000               0.000000001               0.000025645               1.000000000              -0.000000002               0.000031040               1.000000000               0.000000006               0.000036966               1.000000000               0.000000025               0.000043375               1.000000000               0.000000053               0.000050304               1.000000000               0.000000075               0.000057726               1.000000000              -0.000000001              -0.000000350               1.000000000              -0.000000036              -0.000000225               1.000000000               0.000000013               0.000000249               1.000000000               0.000000011               0.000001036               1.000000000              -0.000000007               0.000002322               1.000000000               0.000000007               0.000004192               1.000000000               0.000000015               0.000006518               1.000000000               0.000000007               0.000009353               1.000000000              -0.000000008               0.000012702               1.000000000              -0.000000013               0.000016563               1.000000000              -0.000000007               0.000020904               1.000000000              -0.000000001               0.000025782               1.000000000              -0.000000006               0.000031154               1.000000000              -0.000000020               0.000037060               1.000000000              -0.000000033               0.000043453               1.000000000              -0.000000041               0.000050369               1.000000000              -0.000000038               0.000057766               1.000000000               0.000000000              -0.000000395               1.000000000              -0.000000000              -0.000000212               1.000000000              -0.000000000               0.000000327               1.000000000               0.000000000               0.000001079               1.000000000               0.000000000               0.000002327               1.000000000              -0.000000000               0.000004213               1.000000000              -0.000000000               0.000006557               1.000000000              -0.000000000               0.000009379               1.000000000               0.000000000               0.000012728               1.000000000               0.000000000               0.000016609               1.000000000               0.000000000               0.000020970               1.000000000               0.000000000               0.000025850               1.000000000               0.000000000               0.000031201               1.000000000               0.000000000               0.000037078               1.000000000              -0.000000000               0.000043450               1.000000000              -0.000000000               0.000050357               1.000000000              -0.000000000               0.000057756               1.000000000              -0.000000051               0.000000000               1.000000000              -0.000000030               0.000000000               1.000000000               0.000000031              -0.000000000               1.000000000               0.000000079              -0.000000000               1.000000000               0.000000079              -0.000000000               1.000000000               0.000000014               0.000000000               1.000000000              -0.000000076               0.000000000               1.000000000              -0.000000141              -0.000000000               1.000000000              -0.000000148              -0.000000000               1.000000000              -0.000000096               0.000000000               1.000000000              -0.000000006               0.000000000               1.000000000               0.000000098              -0.000000000               1.000000000               0.000000179              -0.000000000               1.000000000               0.000000203               0.000000000               1.000000000               0.000000161               0.000000000               1.000000000               0.000000078              -0.000000000               1.000000000              -0.000000001              -0.000000000               1.000000000               0.000000024              -0.000000026               1.000000000               0.000000023               0.000000010               1.000000000              -0.000000009               0.000000005               1.000000000              -0.000000058               0.000000022               1.000000000              -0.000000069               0.000000035               1.000000000              -0.000000031               0.000000031               1.000000000               0.000000028               0.000000005               1.000000000               0.000000082              -0.000000030               1.000000000               0.000000109              -0.000000066               1.000000000               0.000000109              -0.000000093               1.000000000               0.000000087              -0.000000103               1.000000000               0.000000039              -0.000000116               1.000000000              -0.000000028              -0.000000147               1.000000000              -0.000000093              -0.000000184               1.000000000              -0.000000126              -0.000000196               1.000000000              -0.000000108              -0.000000159               1.000000000              -0.000000042              -0.000000099               1.000000000               0.000000030              -0.000000000               1.000000000              -0.000000007               0.000000005               1.000000000              -0.000000030               0.000000020               1.000000000               0.000000009               0.000000015               1.000000000               0.000000036              -0.000000007               1.000000000               0.000000043              -0.000000050               1.000000000               0.000000048              -0.000000075               1.000000000               0.000000042              -0.000000073               1.000000000               0.000000016              -0.000000034               1.000000000              -0.000000034               0.000000044               1.000000000              -0.000000114               0.000000116               1.000000000              -0.000000203               0.000000171               1.000000000              -0.000000258               0.000000238               1.000000000              -0.000000238               0.000000352               1.000000000              -0.000000132               0.000000527               1.000000000               0.000000026               0.000000738               1.000000000               0.000000160               0.000000935               1.000000000              -0.000000035               0.000000042               1.000000000              -0.000000011               0.000000011               1.000000000               0.000000035               0.000000012               1.000000000               0.000000028              -0.000000039               1.000000000               0.000000003              -0.000000070               1.000000000              -0.000000012              -0.000000053               1.000000000              -0.000000044               0.000000012               1.000000000              -0.000000080               0.000000114               1.000000000              -0.000000110               0.000000227               1.000000000              -0.000000132               0.000000288               1.000000000              -0.000000121               0.000000292               1.000000000              -0.000000047               0.000000292               1.000000000               0.000000106               0.000000325               1.000000000               0.000000312               0.000000394               1.000000000               0.000000489               0.000000424               1.000000000               0.000000512               0.000000287               1.000000000               0.000000245              -0.000000170               1.000000000              -0.000000014               0.000000049               1.000000000               0.000000022              -0.000000011               1.000000000              -0.000000003              -0.000000043               1.000000000              -0.000000035              -0.000000059               1.000000000              -0.000000007              -0.000000010               1.000000000              -0.000000006               0.000000094               1.000000000              -0.000000011               0.000000205               1.000000000              -0.000000015               0.000000270               1.000000000              -0.000000008               0.000000220               1.000000000               0.000000032               0.000000045               1.000000000               0.000000120              -0.000000191               1.000000000               0.000000264              -0.000000440               1.000000000               0.000000412              -0.000000709               1.000000000               0.000000449              -0.000001103               1.000000000               0.000000228              -0.000001800               1.000000000              -0.000000383              -0.000003002               1.000000000              -0.000001483              -0.000004908               1.000000000               0.000000016               0.000000014               1.000000000              -0.000000009              -0.000000049               1.000000000              -0.000000013              -0.000000070               1.000000000               0.000000023               0.000000023               1.000000000              -0.000000006               0.000000156               1.000000000              -0.000000022               0.000000233               1.000000000              -0.000000013               0.000000170               1.000000000               0.000000023              -0.000000099               1.000000000               0.000000086              -0.000000583               1.000000000               0.000000159              -0.000001223               1.000000000               0.000000246              -0.000001938               1.000000000               0.000000276              -0.000002737               1.000000000               0.000000116              -0.000003724               1.000000000              -0.000000384              -0.000005103               1.000000000              -0.000001347              -0.000007077               1.000000000              -0.000002846              -0.000009814               1.000000000              -0.000004893              -0.000013431               1.000000000               0.000000009              -0.000000066               1.000000000              -0.000000020              -0.000000055               1.000000000               0.000000007               0.000000025               1.000000000               0.000000002               0.000000186               1.000000000              -0.000000004               0.000000194               1.000000000               0.000000028              -0.000000008               1.000000000               0.000000043              -0.000000512               1.000000000               0.000000087              -0.000001335               1.000000000               0.000000111              -0.000002451               1.000000000               0.000000131              -0.000003765               1.000000000               0.000000057              -0.000005248               1.000000000              -0.000000239              -0.000006991               1.000000000              -0.000000919              -0.000009182               1.000000000              -0.000002113              -0.000012032               1.000000000              -0.000003888              -0.000015674               1.000000000              -0.000006242              -0.000020202               1.000000000              -0.000009120              -0.000025631               1.000000000               0.000000012              -0.000000151               1.000000000              -0.000000003               0.000000021               1.000000000              -0.000000001               0.000000157               1.000000000               0.000000004               0.000000186               1.000000000               0.000000000              -0.000000074               1.000000000              -0.000000001              -0.000000761               1.000000000               0.000000056              -0.000001915               1.000000000               0.000000091              -0.000003515               1.000000000               0.000000084              -0.000005493               1.000000000              -0.000000025              -0.000007752               1.000000000              -0.000000358              -0.000010364               1.000000000              -0.000001078              -0.000013481               1.000000000              -0.000002336              -0.000017330               1.000000000              -0.000004201              -0.000022036               1.000000000              -0.000006670              -0.000027685               1.000000000              -0.000009694              -0.000034243               1.000000000              -0.000013173              -0.000041600               1.000000000               0.000000023              -0.000000167               1.000000000               0.000000007               0.000000135               1.000000000              -0.000000017               0.000000211               1.000000000              -0.000000004              -0.000000007               1.000000000              -0.000000009              -0.000000766               1.000000000               0.000000035              -0.000002167               1.000000000               0.000000061              -0.000004133               1.000000000               0.000000031              -0.000006693               1.000000000              -0.000000074              -0.000009703               1.000000000              -0.000000352              -0.000013221               1.000000000              -0.000000978              -0.000017333               1.000000000              -0.000002116              -0.000022274               1.000000000              -0.000003863              -0.000028170               1.000000000              -0.000006211              -0.000035142               1.000000000              -0.000009106              -0.000043137               1.000000000              -0.000012424              -0.000052063               1.000000000              -0.000016052              -0.000061676               1.000000000               0.000000007              -0.000000089               1.000000000               0.000000024               0.000000162               1.000000000              -0.000000025               0.000000207               1.000000000              -0.000000002              -0.000000161               1.000000000              -0.000000010              -0.000001064               1.000000000              -0.000000007              -0.000002514               1.000000000               0.000000039              -0.000004626               1.000000000               0.000000045              -0.000007265               1.000000000              -0.000000007              -0.000010476               1.000000000              -0.000000136              -0.000014126               1.000000000              -0.000000416              -0.000018330               1.000000000              -0.000000974              -0.000023113               1.000000000              -0.000001919              -0.000028684               1.000000000              -0.000003282              -0.000035078               1.000000000              -0.000005060              -0.000042435               1.000000000              -0.000007205              -0.000050708               1.000000000              -0.000009642              -0.000059933               1.000000000              -0.000000022               0.000000045               1.000000000               0.000000031               0.000000147               1.000000000              -0.000000010               0.000000163               1.000000000              -0.000000022              -0.000000323               1.000000000              -0.000000000              -0.000001371               1.000000000              -0.000000007              -0.000002905               1.000000000               0.000000030              -0.000005080               1.000000000               0.000000037              -0.000007776               1.000000000               0.000000014              -0.000011078               1.000000000              -0.000000039              -0.000014854               1.000000000              -0.000000142              -0.000019163               1.000000000              -0.000000345              -0.000023976               1.000000000              -0.000000743              -0.000029422               1.000000000              -0.000001393              -0.000035514               1.000000000              -0.000002310              -0.000042396               1.000000000              -0.000003487              -0.000050033               1.000000000              -0.000004918              -0.000058543               1.000000000              -0.000000026               0.000000166               1.000000000               0.000000012               0.000000142               1.000000000               0.000000020               0.000000078               1.000000000              -0.000000022              -0.000000516               1.000000000               0.000000004              -0.000001632               1.000000000              -0.000000018              -0.000003276               1.000000000              -0.000000007              -0.000005469               1.000000000               0.000000024              -0.000008240               1.000000000               0.000000025              -0.000011562               1.000000000               0.000000014              -0.000015428               1.000000000              -0.000000013              -0.000019817               1.000000000              -0.000000059              -0.000024693               1.000000000              -0.000000158              -0.000030126               1.000000000              -0.000000365              -0.000036114               1.000000000              -0.000000714              -0.000042750               1.000000000              -0.000001202              -0.000050023               1.000000000              -0.000001816              -0.000058019               1.000000000              -0.000000012               0.000000265               1.000000000              -0.000000014               0.000000154               1.000000000               0.000000030              -0.000000020               1.000000000              -0.000000022              -0.000000675               1.000000000               0.000000003              -0.000001885               1.000000000               0.000000004              -0.000003633               1.000000000              -0.000000010              -0.000005854               1.000000000               0.000000010              -0.000008636               1.000000000               0.000000019              -0.000011950               1.000000000               0.000000019              -0.000015822               1.000000000               0.000000020              -0.000020229               1.000000000               0.000000025              -0.000025157               1.000000000               0.000000034              -0.000030593               1.000000000               0.000000029              -0.000036554               1.000000000              -0.000000024              -0.000043070               1.000000000              -0.000000143              -0.000050161               1.000000000              -0.000000323              -0.000057853               1.000000000              -0.000000007               0.000000335               1.000000000              -0.000000018               0.000000179               1.000000000               0.000000033              -0.000000164               1.000000000              -0.000000014              -0.000000815               1.000000000              -0.000000012              -0.000002065               1.000000000               0.000000010              -0.000003875               1.000000000              -0.000000001              -0.000006139               1.000000000              -0.000000003              -0.000008973               1.000000000               0.000000007              -0.000012291               1.000000000               0.000000009              -0.000016157               1.000000000               0.000000009              -0.000020539               1.000000000               0.000000012              -0.000025461               1.000000000               0.000000028              -0.000030880               1.000000000               0.000000056              -0.000036819               1.000000000               0.000000089              -0.000043259               1.000000000               0.000000106              -0.000050240               1.000000000               0.000000088              -0.000057755               1.000000000              -0.000000001               0.000000333               1.000000000              -0.000000023               0.000000210               1.000000000               0.000000025              -0.000000240               1.000000000               0.000000000              -0.000000966               1.000000000              -0.000000012              -0.000002215               1.000000000              -0.000000000              -0.000004076               1.000000000              -0.000000008              -0.000006368               1.000000000              -0.000000012              -0.000009201               1.000000000              -0.000000001              -0.000012539               1.000000000               0.000000009              -0.000016394               1.000000000               0.000000008              -0.000020745               1.000000000               0.000000001              -0.000025645               1.000000000              -0.000000002              -0.000031040               1.000000000               0.000000006              -0.000036966               1.000000000               0.000000025              -0.000043375               1.000000000               0.000000053              -0.000050304               1.000000000               0.000000075              -0.000057726               1.000000000              -0.000000001               0.000000350               1.000000000              -0.000000036               0.000000225               1.000000000               0.000000013              -0.000000249               1.000000000               0.000000011              -0.000001036               1.000000000              -0.000000007              -0.000002322               1.000000000               0.000000007              -0.000004192               1.000000000               0.000000015              -0.000006518               1.000000000               0.000000007              -0.000009353               1.000000000              -0.000000008              -0.000012702               1.000000000              -0.000000013              -0.000016563               1.000000000              -0.000000007              -0.000020904               1.000000000              -0.000000001              -0.000025782               1.000000000              -0.000000006              -0.000031154               1.000000000              -0.000000020              -0.000037060               1.000000000              -0.000000033              -0.000043453               1.000000000              -0.000000041              -0.000050369               1.000000000              -0.000000038              -0.000057766               1.000000000              -0.000000000               0.000000395               1.000000000               0.000000000               0.000000212               1.000000000               0.000000000              -0.000000327               1.000000000              -0.000000000              -0.000001079               1.000000000              -0.000000000              -0.000002327               1.000000000               0.000000000              -0.000004213               1.000000000               0.000000000              -0.000006557               1.000000000              -0.000000000              -0.000009379               1.000000000              -0.000000000              -0.000012728               1.000000000              -0.000000000              -0.000016609               1.000000000              -0.000000000              -0.000020970               1.000000000              -0.000000000              -0.000025850               1.000000000              -0.000000000              -0.000031201               1.000000000               0.000000000              -0.000037078               1.000000000               0.000000000              -0.000043450               1.000000000               0.000000000              -0.000050357               1.000000000               0.000000000              -0.000057756               1.000000000               0.000000051               0.000000000               1.000000000               0.000000030              -0.000000000               1.000000000              -0.000000031              -0.000000000               1.000000000              -0.000000079               0.000000000               1.000000000              -0.000000079               0.000000000               1.000000000              -0.000000014              -0.000000000               1.000000000               0.000000076              -0.000000000               1.000000000               0.000000141               0.000000000               1.000000000               0.000000148               0.000000000               1.000000000               0.000000096              -0.000000000               1.000000000               0.000000006               0.000000000               1.000000000              -0.000000098               0.000000000               1.000000000              -0.000000179              -0.000000000               1.000000000              -0.000000203              -0.000000000               1.000000000              -0.000000161              -0.000000000               1.000000000              -0.000000078              -0.000000000               1.000000000               0.000000001              -0.000000000               1.000000000              -0.000000024              -0.000000026               1.000000000              -0.000000023               0.000000010               1.000000000               0.000000009               0.000000005               1.000000000               0.000000058               0.000000022               1.000000000               0.000000069               0.000000035               1.000000000               0.000000031               0.000000031               1.000000000              -0.000000028               0.000000005               1.000000000              -0.000000082              -0.000000030               1.000000000              -0.000000109              -0.000000066               1.000000000              -0.000000109              -0.000000093               1.000000000              -0.000000087              -0.000000103               1.000000000              -0.000000039              -0.000000116               1.000000000               0.000000028              -0.000000147               1.000000000               0.000000093              -0.000000184               1.000000000               0.000000126              -0.000000196               1.000000000               0.000000108              -0.000000159               1.000000000               0.000000042              -0.000000099               1.000000000              -0.000000030              -0.000000000               1.000000000               0.000000007               0.000000005               1.000000000               0.000000030               0.000000020               1.000000000              -0.000000009               0.000000015               1.000000000              -0.000000036              -0.000000007               1.000000000              -0.000000043              -0.000000050               1.000000000              -0.000000048              -0.000000075               1.000000000              -0.000000042              -0.000000073               1.000000000              -0.000000016              -0.000000034               1.000000000               0.000000034               0.000000044               1.000000000               0.000000114               0.000000116               1.000000000               0.000000203               0.000000171               1.000000000               0.000000258               0.000000238               1.000000000               0.000000238               0.000000352               1.000000000               0.000000132               0.000000527               1.000000000              -0.000000026               0.000000738               1.000000000              -0.000000160               0.000000935               1.000000000               0.000000035               0.000000042               1.000000000               0.000000011               0.000000011               1.000000000              -0.000000035               0.000000012               1.000000000              -0.000000028              -0.000000039               1.000000000              -0.000000003              -0.000000070               1.000000000               0.000000012              -0.000000053               1.000000000               0.000000044               0.000000012               1.000000000               0.000000080               0.000000114               1.000000000               0.000000110               0.000000227               1.000000000               0.000000132               0.000000288               1.000000000               0.000000121               0.000000292               1.000000000               0.000000047               0.000000292               1.000000000              -0.000000106               0.000000325               1.000000000              -0.000000312               0.000000394               1.000000000              -0.000000489               0.000000424               1.000000000              -0.000000512               0.000000287               1.000000000              -0.000000245              -0.000000170               1.000000000               0.000000014               0.000000049               1.000000000              -0.000000022              -0.000000011               1.000000000               0.000000003              -0.000000043               1.000000000               0.000000035              -0.000000059               1.000000000               0.000000007              -0.000000010               1.000000000               0.000000006               0.000000094               1.000000000               0.000000011               0.000000205               1.000000000               0.000000015               0.000000270               1.000000000               0.000000008               0.000000220               1.000000000              -0.000000032               0.000000045               1.000000000              -0.000000120              -0.000000191               1.000000000              -0.000000264              -0.000000440               1.000000000              -0.000000412              -0.000000709               1.000000000              -0.000000449              -0.000001103               1.000000000              -0.000000228              -0.000001800               1.000000000               0.000000383              -0.000003002               1.000000000               0.000001483              -0.000004908               1.000000000              -0.000000016               0.000000014               1.000000000               0.000000009              -0.000000049               1.000000000               0.000000013              -0.000000070               1.000000000              -0.000000023               0.000000023               1.000000000               0.000000006               0.000000156               1.000000000               0.000000022               0.000000233               1.000000000               0.000000013               0.000000170               1.000000000              -0.000000023              -0.000000099               1.000000000              -0.000000086              -0.000000583               1.000000000              -0.000000159              -0.000001223               1.000000000              -0.000000246              -0.000001938               1.000000000              -0.000000276              -0.000002737               1.000000000              -0.000000116              -0.000003724               1.000000000               0.000000384              -0.000005103               1.000000000               0.000001347              -0.000007077               1.000000000               0.000002846              -0.000009814               1.000000000               0.000004893              -0.000013431               1.000000000              -0.000000009              -0.000000066               1.000000000               0.000000020              -0.000000055               1.000000000              -0.000000007               0.000000025               1.000000000              -0.000000002               0.000000186               1.000000000               0.000000004               0.000000194               1.000000000              -0.000000028              -0.000000008               1.000000000              -0.000000043              -0.000000512               1.000000000              -0.000000087              -0.000001335               1.000000000              -0.000000111              -0.000002451               1.000000000              -0.000000131              -0.000003765               1.000000000              -0.000000057              -0.000005248               1.000000000               0.000000239              -0.000006991               1.000000000               0.000000919              -0.000009182               1.000000000               0.000002113              -0.000012032               1.000000000               0.000003888              -0.000015674               1.000000000               0.000006242              -0.000020202               1.000000000               0.000009120              -0.000025631               1.000000000              -0.000000012              -0.000000151               1.000000000               0.000000003               0.000000021               1.000000000               0.000000001               0.000000157               1.000000000              -0.000000004               0.000000186               1.000000000              -0.000000000              -0.000000074               1.000000000               0.000000001              -0.000000761               1.000000000              -0.000000056              -0.000001915               1.000000000              -0.000000091              -0.000003515               1.000000000              -0.000000084              -0.000005493               1.000000000               0.000000025              -0.000007752               1.000000000               0.000000358              -0.000010364               1.000000000               0.000001078              -0.000013481               1.000000000               0.000002336              -0.000017330               1.000000000               0.000004201              -0.000022036               1.000000000               0.000006670              -0.000027685               1.000000000               0.000009694              -0.000034243               1.000000000               0.000013173              -0.000041600               1.000000000              -0.000000023              -0.000000167               1.000000000              -0.000000007               0.000000135               1.000000000               0.000000017               0.000000211               1.000000000               0.000000004              -0.000000007               1.000000000               0.000000009              -0.000000766               1.000000000              -0.000000035              -0.000002167               1.000000000              -0.000000061              -0.000004133               1.000000000              -0.000000031              -0.000006693               1.000000000               0.000000074              -0.000009703               1.000000000               0.000000352              -0.000013221               1.000000000               0.000000978              -0.000017333               1.000000000               0.000002116              -0.000022274               1.000000000               0.000003863              -0.000028170               1.000000000               0.000006211              -0.000035142               1.000000000               0.000009106              -0.000043137               1.000000000               0.000012424              -0.000052063               1.000000000               0.000016052              -0.000061676               1.000000000              -0.000000007              -0.000000089               1.000000000              -0.000000024               0.000000162               1.000000000               0.000000025               0.000000207               1.000000000               0.000000002              -0.000000161               1.000000000               0.000000010              -0.000001064               1.000000000               0.000000007              -0.000002514               1.000000000              -0.000000039              -0.000004626               1.000000000              -0.000000045              -0.000007265               1.000000000               0.000000007              -0.000010476               1.000000000               0.000000136              -0.000014126               1.000000000               0.000000416              -0.000018330               1.000000000               0.000000974              -0.000023113               1.000000000               0.000001919              -0.000028684               1.000000000               0.000003282              -0.000035078               1.000000000               0.000005060              -0.000042435               1.000000000               0.000007205              -0.000050708               1.000000000               0.000009642              -0.000059933               1.000000000               0.000000022               0.000000045               1.000000000              -0.000000031               0.000000147               1.000000000               0.000000010               0.000000163               1.000000000               0.000000022              -0.000000323               1.000000000               0.000000000              -0.000001371               1.000000000               0.000000007              -0.000002905               1.000000000              -0.000000030              -0.000005080               1.000000000              -0.000000037              -0.000007776               1.000000000              -0.000000014              -0.000011078               1.000000000               0.000000039              -0.000014854               1.000000000               0.000000142              -0.000019163               1.000000000               0.000000345              -0.000023976               1.000000000               0.000000743              -0.000029422               1.000000000               0.000001393              -0.000035514               1.000000000               0.000002310              -0.000042396               1.000000000               0.000003487              -0.000050033               1.000000000               0.000004918              -0.000058543               1.000000000               0.000000026               0.000000166               1.000000000              -0.000000012               0.000000142               1.000000000              -0.000000020               0.000000078               1.000000000               0.000000022              -0.000000516               1.000000000              -0.000000004              -0.000001632               1.000000000               0.000000018              -0.000003276               1.000000000               0.000000007              -0.000005469               1.000000000              -0.000000024              -0.000008240               1.000000000              -0.000000025              -0.000011562               1.000000000              -0.000000014              -0.000015428               1.000000000               0.000000013              -0.000019817               1.000000000               0.000000059              -0.000024693               1.000000000               0.000000158              -0.000030126               1.000000000               0.000000365              -0.000036114               1.000000000               0.000000714              -0.000042750               1.000000000               0.000001202              -0.000050023               1.000000000               0.000001816              -0.000058019               1.000000000               0.000000012               0.000000265               1.000000000               0.000000014               0.000000154               1.000000000              -0.000000030              -0.000000020               1.000000000               0.000000022              -0.000000675               1.000000000              -0.000000003              -0.000001885               1.000000000              -0.000000004              -0.000003633               1.000000000               0.000000010              -0.000005854               1.000000000              -0.000000010              -0.000008636               1.000000000              -0.000000019              -0.000011950               1.000000000              -0.000000019              -0.000015822               1.000000000              -0.000000020              -0.000020229               1.000000000              -0.000000025              -0.000025157               1.000000000              -0.000000034              -0.000030593               1.000000000              -0.000000029              -0.000036554               1.000000000               0.000000024              -0.000043070               1.000000000               0.000000143              -0.000050161               1.000000000               0.000000323              -0.000057853               1.000000000               0.000000007               0.000000335               1.000000000               0.000000018               0.000000179               1.000000000              -0.000000033              -0.000000164               1.000000000               0.000000014              -0.000000815               1.000000000               0.000000012              -0.000002065               1.000000000              -0.000000010              -0.000003875               1.000000000               0.000000001              -0.000006139               1.000000000               0.000000003              -0.000008973               1.000000000              -0.000000007              -0.000012291               1.000000000              -0.000000009              -0.000016157               1.000000000              -0.000000009              -0.000020539               1.000000000              -0.000000012              -0.000025461               1.000000000              -0.000000028              -0.000030880               1.000000000              -0.000000056              -0.000036819               1.000000000              -0.000000089              -0.000043259               1.000000000              -0.000000106              -0.000050240               1.000000000              -0.000000088              -0.000057755               1.000000000               0.000000001               0.000000333               1.000000000               0.000000023               0.000000210               1.000000000              -0.000000025              -0.000000240               1.000000000              -0.000000000              -0.000000966               1.000000000               0.000000012              -0.000002215               1.000000000               0.000000000              -0.000004076               1.000000000               0.000000008              -0.000006368               1.000000000               0.000000012              -0.000009201               1.000000000               0.000000001              -0.000012539               1.000000000              -0.000000009              -0.000016394               1.000000000              -0.000000008              -0.000020745               1.000000000              -0.000000001              -0.000025645               1.000000000               0.000000002              -0.000031040               1.000000000              -0.000000006              -0.000036966               1.000000000              -0.000000025              -0.000043375               1.000000000              -0.000000053              -0.000050304               1.000000000              -0.000000075              -0.000057726               1.000000000               0.000000001               0.000000350               1.000000000               0.000000036               0.000000225               1.000000000              -0.000000013              -0.000000249               1.000000000              -0.000000011              -0.000001036               1.000000000               0.000000007              -0.000002322               1.000000000              -0.000000007              -0.000004192               1.000000000              -0.000000015              -0.000006518               1.000000000              -0.000000007              -0.000009353               1.000000000               0.000000008              -0.000012702               1.000000000               0.000000013              -0.000016563               1.000000000               0.000000007              -0.000020904               1.000000000               0.000000001              -0.000025782               1.000000000               0.000000006              -0.000031154               1.000000000               0.000000020              -0.000037060               1.000000000               0.000000033              -0.000043453               1.000000000               0.000000041              -0.000050369               1.000000000               0.000000038              -0.000057766               1.000000000              -0.000000000               0.000000395               1.000000000               0.000000000               0.000000212               1.000000000               0.000000000              -0.000000327               1.000000000              -0.000000000              -0.000001079               1.000000000              -0.000000000              -0.000002327               1.000000000               0.000000000              -0.000004213               1.000000000               0.000000000              -0.000006557               1.000000000              -0.000000000              -0.000009379               1.000000000              -0.000000000              -0.000012728               1.000000000              -0.000000000              -0.000016609               1.000000000              -0.000000000              -0.000020970               1.000000000              -0.000000000              -0.000025850               1.000000000              -0.000000000              -0.000031201               1.000000000               0.000000000              -0.000037078               1.000000000               0.000000000              -0.000043450               1.000000000               0.000000000              -0.000050357               1.000000000               0.000000000              -0.000057756               1.000000000               0.000000051               0.000000000               1.000000000               0.000000030              -0.000000000               1.000000000              -0.000000031              -0.000000000               1.000000000              -0.000000079               0.000000000               1.000000000              -0.000000079               0.000000000               1.000000000              -0.000000014              -0.000000000               1.000000000               0.000000076              -0.000000000               1.000000000               0.000000141               0.000000000               1.000000000               0.000000148               0.000000000               1.000000000               0.000000096              -0.000000000               1.000000000               0.000000006               0.000000000               1.000000000              -0.000000098               0.000000000               1.000000000              -0.000000179              -0.000000000               1.000000000              -0.000000203              -0.000000000               1.000000000              -0.000000161              -0.000000000               1.000000000              -0.000000078              -0.000000000               1.000000000               0.000000001              -0.000000000               1.000000000              -0.000000024               0.000000026               1.000000000              -0.000000023              -0.000000010               1.000000000               0.000000009              -0.000000005               1.000000000               0.000000058              -0.000000022               1.000000000               0.000000069              -0.000000035               1.000000000               0.000000031              -0.000000031               1.000000000              -0.000000028              -0.000000005               1.000000000              -0.000000082               0.000000030               1.000000000              -0.000000109               0.000000066               1.000000000              -0.000000109               0.000000093               1.000000000              -0.000000087               0.000000103               1.000000000              -0.000000039               0.000000116               1.000000000               0.000000028               0.000000147               1.000000000               0.000000093               0.000000184               1.000000000               0.000000126               0.000000196               1.000000000               0.000000108               0.000000159               1.000000000               0.000000042               0.000000099               1.000000000              -0.000000030               0.000000000               1.000000000               0.000000007              -0.000000005               1.000000000               0.000000030              -0.000000020               1.000000000              -0.000000009              -0.000000015               1.000000000              -0.000000036               0.000000007               1.000000000              -0.000000043               0.000000050               1.000000000              -0.000000048               0.000000075               1.000000000              -0.000000042               0.000000073               1.000000000              -0.000000016               0.000000034               1.000000000               0.000000034              -0.000000044               1.000000000               0.000000114              -0.000000116               1.000000000               0.000000203              -0.000000171               1.000000000               0.000000258              -0.000000238               1.000000000               0.000000238              -0.000000352               1.000000000               0.000000132              -0.000000527               1.000000000              -0.000000026              -0.000000738               1.000000000              -0.000000160              -0.000000935               1.000000000               0.000000035              -0.000000042               1.000000000               0.000000011              -0.000000011               1.000000000              -0.000000035              -0.000000012               1.000000000              -0.000000028               0.000000039               1.000000000              -0.000000003               0.000000070               1.000000000               0.000000012               0.000000053               1.000000000               0.000000044              -0.000000012               1.000000000               0.000000080              -0.000000114               1.000000000               0.000000110              -0.000000227               1.000000000               0.000000132              -0.000000288               1.000000000               0.000000121              -0.000000292               1.000000000               0.000000047              -0.000000292               1.000000000              -0.000000106              -0.000000325               1.000000000              -0.000000312              -0.000000394               1.000000000              -0.000000489              -0.000000424               1.000000000              -0.000000512              -0.000000287               1.000000000              -0.000000245               0.000000170               1.000000000               0.000000014              -0.000000049               1.000000000              -0.000000022               0.000000011               1.000000000               0.000000003               0.000000043               1.000000000               0.000000035               0.000000059               1.000000000               0.000000007               0.000000010               1.000000000               0.000000006              -0.000000094               1.000000000               0.000000011              -0.000000205               1.000000000               0.000000015              -0.000000270               1.000000000               0.000000008              -0.000000220               1.000000000              -0.000000032              -0.000000045               1.000000000              -0.000000120               0.000000191               1.000000000              -0.000000264               0.000000440               1.000000000              -0.000000412               0.000000709               1.000000000              -0.000000449               0.000001103               1.000000000              -0.000000228               0.000001800               1.000000000               0.000000383               0.000003002               1.000000000               0.000001483               0.000004908               1.000000000              -0.000000016              -0.000000014               1.000000000               0.000000009               0.000000049               1.000000000               0.000000013               0.000000070               1.000000000              -0.000000023              -0.000000023               1.000000000               0.000000006              -0.000000156               1.000000000               0.000000022              -0.000000233               1.000000000               0.000000013              -0.000000170               1.000000000              -0.000000023               0.000000099               1.000000000              -0.000000086               0.000000583               1.000000000              -0.000000159               0.000001223               1.000000000              -0.000000246               0.000001938               1.000000000              -0.000000276               0.000002737               1.000000000              -0.000000116               0.000003724               1.000000000               0.000000384               0.000005103               1.000000000               0.000001347               0.000007077               1.000000000               0.000002846               0.000009814               1.000000000               0.000004893               0.000013431               1.000000000              -0.000000009               0.000000066               1.000000000               0.000000020               0.000000055               1.000000000              -0.000000007              -0.000000025               1.000000000              -0.000000002              -0.000000186               1.000000000               0.000000004              -0.000000194               1.000000000              -0.000000028               0.000000008               1.000000000              -0.000000043               0.000000512               1.000000000              -0.000000087               0.000001335               1.000000000              -0.000000111               0.000002451               1.000000000              -0.000000131               0.000003765               1.000000000              -0.000000057               0.000005248               1.000000000               0.000000239               0.000006991               1.000000000               0.000000919               0.000009182               1.000000000               0.000002113               0.000012032               1.000000000               0.000003888               0.000015674               1.000000000               0.000006242               0.000020202               1.000000000               0.000009120               0.000025631               1.000000000              -0.000000012               0.000000151               1.000000000               0.000000003              -0.000000021               1.000000000               0.000000001              -0.000000157               1.000000000              -0.000000004              -0.000000186               1.000000000              -0.000000000               0.000000074               1.000000000               0.000000001               0.000000761               1.000000000              -0.000000056               0.000001915               1.000000000              -0.000000091               0.000003515               1.000000000              -0.000000084               0.000005493               1.000000000               0.000000025               0.000007752               1.000000000               0.000000358               0.000010364               1.000000000               0.000001078               0.000013481               1.000000000               0.000002336               0.000017330               1.000000000               0.000004201               0.000022036               1.000000000               0.000006670               0.000027685               1.000000000               0.000009694               0.000034243               1.000000000               0.000013173               0.000041600               1.000000000              -0.000000023               0.000000167               1.000000000              -0.000000007              -0.000000135               1.000000000               0.000000017              -0.000000211               1.000000000               0.000000004               0.000000007               1.000000000               0.000000009               0.000000766               1.000000000              -0.000000035               0.000002167               1.000000000              -0.000000061               0.000004133               1.000000000              -0.000000031               0.000006693               1.000000000               0.000000074               0.000009703               1.000000000               0.000000352               0.000013221               1.000000000               0.000000978               0.000017333               1.000000000               0.000002116               0.000022274               1.000000000               0.000003863               0.000028170               1.000000000               0.000006211               0.000035142               1.000000000               0.000009106               0.000043137               1.000000000               0.000012424               0.000052063               1.000000000               0.000016052               0.000061676               1.000000000              -0.000000007               0.000000089               1.000000000              -0.000000024              -0.000000162               1.000000000               0.000000025              -0.000000207               1.000000000               0.000000002               0.000000161               1.000000000               0.000000010               0.000001064               1.000000000               0.000000007               0.000002514               1.000000000              -0.000000039               0.000004626               1.000000000              -0.000000045               0.000007265               1.000000000               0.000000007               0.000010476               1.000000000               0.000000136               0.000014126               1.000000000               0.000000416               0.000018330               1.000000000               0.000000974               0.000023113               1.000000000               0.000001919               0.000028684               1.000000000               0.000003282               0.000035078               1.000000000               0.000005060               0.000042435               1.000000000               0.000007205               0.000050708               1.000000000               0.000009642               0.000059933               1.000000000               0.000000022              -0.000000045               1.000000000              -0.000000031              -0.000000147               1.000000000               0.000000010              -0.000000163               1.000000000               0.000000022               0.000000323               1.000000000               0.000000000               0.000001371               1.000000000               0.000000007               0.000002905               1.000000000              -0.000000030               0.000005080               1.000000000              -0.000000037               0.000007776               1.000000000              -0.000000014               0.000011078               1.000000000               0.000000039               0.000014854               1.000000000               0.000000142               0.000019163               1.000000000               0.000000345               0.000023976               1.000000000               0.000000743               0.000029422               1.000000000               0.000001393               0.000035514               1.000000000               0.000002310               0.000042396               1.000000000               0.000003487               0.000050033               1.000000000               0.000004918               0.000058543               1.000000000               0.000000026              -0.000000166               1.000000000              -0.000000012              -0.000000142               1.000000000              -0.000000020              -0.000000078               1.000000000               0.000000022               0.000000516               1.000000000              -0.000000004               0.000001632               1.000000000               0.000000018               0.000003276               1.000000000               0.000000007               0.000005469               1.000000000              -0.000000024               0.000008240               1.000000000              -0.000000025               0.000011562               1.000000000              -0.000000014               0.000015428               1.000000000               0.000000013               0.000019817               1.000000000               0.000000059               0.000024693               1.000000000               0.000000158               0.000030126               1.000000000               0.000000365               0.000036114               1.000000000               0.000000714               0.000042750               1.000000000               0.000001202               0.000050023               1.000000000               0.000001816               0.000058019               1.000000000               0.000000012              -0.000000265               1.000000000               0.000000014              -0.000000154               1.000000000              -0.000000030               0.000000020               1.000000000               0.000000022               0.000000675               1.000000000              -0.000000003               0.000001885               1.000000000              -0.000000004               0.000003633               1.000000000               0.000000010               0.000005854               1.000000000              -0.000000010               0.000008636               1.000000000              -0.000000019               0.000011950               1.000000000              -0.000000019               0.000015822               1.000000000              -0.000000020               0.000020229               1.000000000              -0.000000025               0.000025157               1.000000000              -0.000000034               0.000030593               1.000000000              -0.000000029               0.000036554               1.000000000               0.000000024               0.000043070               1.000000000               0.000000143               0.000050161               1.000000000               0.000000323               0.000057853               1.000000000               0.000000007              -0.000000335               1.000000000               0.000000018              -0.000000179               1.000000000              -0.000000033               0.000000164               1.000000000               0.000000014               0.000000815               1.000000000               0.000000012               0.000002065               1.000000000              -0.000000010               0.000003875               1.000000000               0.000000001               0.000006139               1.000000000               0.000000003               0.000008973               1.000000000              -0.000000007               0.000012291               1.000000000              -0.000000009               0.000016157               1.000000000              -0.000000009               0.000020539               1.000000000              -0.000000012               0.000025461               1.000000000              -0.000000028               0.000030880               1.000000000              -0.000000056               0.000036819               1.000000000              -0.000000089               0.000043259               1.000000000              -0.000000106               0.000050240               1.000000000              -0.000000088               0.000057755               1.000000000               0.000000001              -0.000000333               1.000000000               0.000000023              -0.000000210               1.000000000              -0.000000025               0.000000240               1.000000000              -0.000000000               0.000000966               1.000000000               0.000000012               0.000002215               1.000000000               0.000000000               0.000004076               1.000000000               0.000000008               0.000006368               1.000000000               0.000000012               0.000009201               1.000000000               0.000000001               0.000012539               1.000000000              -0.000000009               0.000016394               1.000000000              -0.000000008               0.000020745               1.000000000              -0.000000001               0.000025645               1.000000000               0.000000002               0.000031040               1.000000000              -0.000000006               0.000036966               1.000000000              -0.000000025               0.000043375               1.000000000              -0.000000053               0.000050304               1.000000000              -0.000000075               0.000057726               1.000000000               0.000000001              -0.000000350               1.000000000               0.000000036              -0.000000225               1.000000000              -0.000000013               0.000000249               1.000000000              -0.000000011               0.000001036               1.000000000               0.000000007               0.000002322               1.000000000              -0.000000007               0.000004192               1.000000000              -0.000000015               0.000006518               1.000000000              -0.000000007               0.000009353               1.000000000               0.000000008               0.000012702               1.000000000               0.000000013               0.000016563               1.000000000               0.000000007               0.000020904               1.000000000               0.000000001               0.000025782               1.000000000               0.000000006               0.000031154               1.000000000               0.000000020               0.000037060               1.000000000               0.000000033               0.000043453               1.000000000               0.000000041               0.000050369               1.000000000               0.000000038               0.000057766               1.000000000               0.000000000              -0.000000395               1.000000000              -0.000000000              -0.000000212               1.000000000              -0.000000000               0.000000327               1.000000000               0.000000000               0.000001079               1.000000000               0.000000000               0.000002327               1.000000000              -0.000000000               0.000004213               1.000000000              -0.000000000               0.000006557               1.000000000              -0.000000000               0.000009379               1.000000000               0.000000000               0.000012728               1.000000000               0.000000000               0.000016609               1.000000000               0.000000000               0.000020970               1.000000000               0.000000000               0.000025850               1.000000000               0.000000000               0.000031201               1.000000000               0.000000000               0.000037078               1.000000000              -0.000000000               0.000043450               1.000000000              -0.000000000               0.000050357               1.000000000              -0.000000000               0.000057756               1.000000000 </DataArray>
<DataArray type="Float64"                                    Name="stress"                                                      NumberOfComponents="10" format="ascii">
              0.000002167               0.000003331              -0.000000000               0.000000396               0.000000978               0.000001374               0.000000000               0.000000000               0.000000000               0.000000000               0.000002350               0.000000237               0.000000000               0.000000851              -0.000000205               0.000000647               0.000000000               0.000000000               0.000000000               0.000000000               0.000002757              -0.000000256               0.000000000               0.000001066              -0.000000441               0.000000625               0.000000000               0.000000000               0.000000000               0.000000000               0.000000494              -0.000002399              -0.000000000               0.000000485              -0.000000962              -0.000000476               0.000000000               0.000000000               0.000000000               0.000000000              -0.000002912              -0.000004342              -0.000000000              -0.000000549              -0.000001264              -0.000001814               0.000000000               0.000000000               0.000000000               0.000000000              -0.000005417              -0.000004380               0.000000000              -0.000001484              -0.000000965              -0.000002449               0.000000000               0.000000000               0.000000000               0.000000000              -0.000004803              -0.000001906               0.000000000              -0.000001563              -0.000000114              -0.000001677               0.000000000               0.000000000               0.000000000               0.000000000              -0.000001234               0.000001932              -0.000000000              -0.000000704               0.000000879               0.000000175               0.000000000               0.000000000               0.000000000               0.000000000               0.000003478               0.000005709              -0.000000000               0.000000591               0.000001706               0.000002297               0.000000000               0.000000000               0.000000000               0.000000000               0.000007281               0.000008330              -0.000000000               0.000001689               0.000002213               0.000003903               0.000000000               0.000000000               0.000000000               0.000000000               0.000008993               0.000009300              -0.000000000               0.000002210               0.000002363               0.000004573               0.000000000               0.000000000               0.000000000               0.000000000               0.000008218               0.000009483              -0.000000000               0.000001896               0.000002529               0.000004425               0.000000000               0.000000000               0.000000000               0.000000000               0.000005164               0.000009588              -0.000000000               0.000000738               0.000002950               0.000003688               0.000000000               0.000000000               0.000000000               0.000000000               0.000001131               0.000009382              -0.000000000              -0.000000749               0.000003377               0.000002628               0.000000000               0.000000000               0.000000000               0.000000000              -0.000001839               0.000008273               0.000000000              -0.000001724               0.000003332               0.000001608               0.000000000               0.000000000               0.000000000               0.000000000              -0.000002188               0.000006230               0.000000000              -0.000001599               0.000002610               0.000001010               0.000000000               0.000000000               0.000000000               0.000000000              -0.000001828               0.000004558               0.000000000              -0.000001255               0.000001938               0.000000682               0.000000000               0.000000000               0.000000000               0.000000000              -0.000001063              -0.000000753               0.000001110              -0.000000304              -0.000000149              -0.000000454               0.000000000               0.000000000               0.000000000               0.000000000              -0.000001459              -0.000001140               0.000000067              -0.000000405              -0.000000245              -0.000000650               0.000000000               0.000000000               0.000000000               0.000000000              -0.000002210              -0.000001907              -0.000001476              -0.000000591              -0.000000439              -0.000001029               0.000000000               0.000000000               0.000000000               0.000000000              -0.000001559              -0.000001277              -0.000001772              -0.000000425              -0.000000284              -0.000000709               0.000000000               0.000000000               0.000000000               0.000000000               0.000000782               0.000000826              -0.000000643               0.000000190               0.000000212               0.000000402               0.000000000               0.000000000               0.000000000               0.000000000               0.000003055               0.000003270               0.000001109               0.000000737               0.000000844               0.000001581               0.000000000               0.000000000               0.000000000               0.000000000               0.000003742               0.000004282               0.000002672               0.000000868               0.000001138               0.000002006               0.000000000               0.000000000               0.000000000               0.000000000               0.000002833               0.000003544               0.000003202               0.000000619               0.000000975               0.000001594               0.000000000               0.000000000               0.000000000               0.000000000               0.000000991               0.000001300               0.000002472               0.000000209               0.000000364               0.000000573               0.000000000               0.000000000               0.000000000               0.000000000              -0.000001102              -0.000001788               0.000000796              -0.000000190              -0.000000533              -0.000000722               0.000000000               0.000000000               0.000000000               0.000000000              -0.000003158              -0.000004512              -0.000001087              -0.000000620              -0.000001297              -0.000001917               0.000000000               0.000000000               0.000000000               0.000000000              -0.000004918              -0.000006556              -0.000002481              -0.000001025              -0.000001844              -0.000002868               0.000000000               0.000000000               0.000000000               0.000000000              -0.000005718              -0.000008461              -0.000003248              -0.000001087              -0.000002458              -0.000003545               0.000000000               0.000000000               0.000000000               0.000000000              -0.000005048              -0.000010775              -0.000003494              -0.000000546              -0.000003410              -0.000003956               0.000000000               0.000000000               0.000000000               0.000000000              -0.000003191              -0.000013717              -0.000003239               0.000000518              -0.000004745              -0.000004227               0.000000000               0.000000000               0.000000000               0.000000000              -0.000001238              -0.000016959              -0.000002125               0.000001656              -0.000006205              -0.000004549               0.000000000               0.000000000               0.000000000               0.000000000              -0.000000657              -0.000019104              -0.000001060               0.000002142              -0.000007082              -0.000004940               0.000000000               0.000000000               0.000000000               0.000000000              -0.000002584              -0.000005113              -0.000001651              -0.000000330              -0.000001595              -0.000001924               0.000000000               0.000000000               0.000000000               0.000000000              -0.000001992              -0.000001793              -0.000001043              -0.000000523              -0.000000423              -0.000000946               0.000000000               0.000000000               0.000000000               0.000000000              -0.000000504               0.000000203               0.000000939              -0.000000214               0.000000139              -0.000000075               0.000000000               0.000000000               0.000000000               0.000000000               0.000001914               0.000004157               0.000001938               0.000000198               0.000001320               0.000001518               0.000000000               0.000000000               0.000000000               0.000000000               0.000002495               0.000005897               0.000001740               0.000000198               0.000001899               0.000002098               0.000000000               0.000000000               0.000000000               0.000000000               0.000002474               0.000004287               0.000000713               0.000000392               0.000001298               0.000001690               0.000000000               0.000000000               0.000000000               0.000000000               0.000001315              -0.000000206              -0.000001021               0.000000519              -0.000000241               0.000000277               0.000000000               0.000000000               0.000000000               0.000000000              -0.000001453              -0.000006236              -0.000002677               0.000000235              -0.000002157              -0.000001922               0.000000000               0.000000000               0.000000000               0.000000000              -0.000005041              -0.000011813              -0.000003799              -0.000000414              -0.000003800              -0.000004214               0.000000000               0.000000000               0.000000000               0.000000000              -0.000008361              -0.000014935              -0.000003857              -0.000001268              -0.000004555              -0.000005824               0.000000000               0.000000000               0.000000000               0.000000000              -0.000010195              -0.000015432              -0.000002804              -0.000001894              -0.000004513              -0.000006407               0.000000000               0.000000000               0.000000000               0.000000000              -0.000009367              -0.000014959              -0.000001371              -0.000001643              -0.000004439              -0.000006081               0.000000000               0.000000000               0.000000000               0.000000000              -0.000005686              -0.000014683              -0.000000150              -0.000000297              -0.000004795              -0.000005092               0.000000000               0.000000000               0.000000000               0.000000000              -0.000000570              -0.000014447               0.000000613               0.000001592              -0.000005346              -0.000003754               0.000000000               0.000000000               0.000000000               0.000000000               0.000003383              -0.000012708               0.000000967               0.000002857              -0.000005188              -0.000002331               0.000000000               0.000000000               0.000000000               0.000000000               0.000003414              -0.000007539               0.000001046               0.000002223              -0.000003254              -0.000001031               0.000000000               0.000000000               0.000000000               0.000000000               0.000003848              -0.000000834              -0.000000039               0.000001547              -0.000000794               0.000000753               0.000000000               0.000000000               0.000000000               0.000000000               0.000001691              -0.000000986               0.000001026               0.000000757              -0.000000581               0.000000176               0.000000000               0.000000000               0.000000000               0.000000000               0.000002150               0.000002146               0.000001070               0.000000538               0.000000536               0.000001074               0.000000000               0.000000000               0.000000000               0.000000000               0.000002418               0.000004943               0.000000691               0.000000289               0.000001551               0.000001840               0.000000000               0.000000000               0.000000000               0.000000000               0.000001815               0.000004474              -0.000000141               0.000000121               0.000001451               0.000001572               0.000000000               0.000000000               0.000000000               0.000000000              -0.000000259              -0.000000662              -0.000000851              -0.000000014              -0.000000216              -0.000000230               0.000000000               0.000000000               0.000000000               0.000000000              -0.000003638              -0.000008156              -0.000001480              -0.000000345              -0.000002604              -0.000002948               0.000000000               0.000000000               0.000000000               0.000000000              -0.000006500              -0.000013863              -0.000002096              -0.000000705              -0.000004386              -0.000005091               0.000000000               0.000000000               0.000000000               0.000000000              -0.000007234              -0.000014946              -0.000002209              -0.000000845              -0.000004700              -0.000005545               0.000000000               0.000000000               0.000000000               0.000000000              -0.000005705              -0.000010006              -0.000001216              -0.000000889              -0.000003039              -0.000003928               0.000000000               0.000000000               0.000000000               0.000000000              -0.000001884              -0.000000268               0.000000687              -0.000000673               0.000000135              -0.000000538               0.000000000               0.000000000               0.000000000               0.000000000               0.000004192               0.000010824               0.000002305               0.000000219               0.000003535               0.000003754               0.000000000               0.000000000               0.000000000               0.000000000               0.000011836               0.000021473               0.000002888               0.000001754               0.000006573               0.000008327               0.000000000               0.000000000               0.000000000               0.000000000               0.000019191               0.000032371               0.000002335               0.000003150               0.000009740               0.000012890               0.000000000               0.000000000               0.000000000               0.000000000               0.000023409               0.000045834               0.000001107               0.000003049               0.000014261               0.000017311               0.000000000               0.000000000               0.000000000               0.000000000               0.000021847               0.000064715               0.000000102               0.000000103               0.000021537               0.000021640               0.000000000               0.000000000               0.000000000               0.000000000               0.000013035               0.000091177               0.000000056              -0.000006509               0.000032562               0.000026053               0.000000000               0.000000000               0.000000000               0.000000000               0.000012103               0.000115869              -0.000002742              -0.000009945               0.000041937               0.000031993               0.000000000               0.000000000               0.000000000               0.000000000               0.000002816               0.000006214               0.000002681               0.000000279               0.000001978               0.000002257               0.000000000               0.000000000               0.000000000               0.000000000               0.000002828               0.000006547               0.000000665               0.000000242               0.000002102               0.000002344               0.000000000               0.000000000               0.000000000               0.000000000               0.000001088               0.000004162              -0.000001031              -0.000000112               0.000001425               0.000001313               0.000000000               0.000000000               0.000000000               0.000000000              -0.000001710              -0.000004777              -0.000000404              -0.000000044              -0.000001578              -0.000001622               0.000000000               0.000000000               0.000000000               0.000000000              -0.000003867              -0.000012854              -0.000000661               0.000000157              -0.000004337              -0.000004180               0.000000000               0.000000000               0.000000000               0.000000000              -0.000005294              -0.000014232              -0.000000981              -0.000000206              -0.000004675              -0.000004882               0.000000000               0.000000000               0.000000000               0.000000000              -0.000003365              -0.000006315              -0.000000458              -0.000000473              -0.000001948              -0.000002420               0.000000000               0.000000000               0.000000000               0.000000000               0.000001876               0.000010532               0.000001000              -0.000000613               0.000003715               0.000003102               0.000000000               0.000000000               0.000000000               0.000000000               0.000010011               0.000033236               0.000002867              -0.000000400               0.000011212               0.000010812               0.000000000               0.000000000               0.000000000               0.000000000               0.000020285               0.000056955               0.000003518               0.000000488               0.000018822               0.000019310               0.000000000               0.000000000               0.000000000               0.000000000               0.000031565               0.000079216               0.000002044               0.000001935               0.000025760               0.000027695               0.000000000               0.000000000               0.000000000               0.000000000               0.000041766               0.000101310              -0.000001407               0.000002998               0.000032770               0.000035769               0.000000000               0.000000000               0.000000000               0.000000000               0.000047434               0.000125931              -0.000005746               0.000002047               0.000041294               0.000043341               0.000000000               0.000000000               0.000000000               0.000000000               0.000045973               0.000156097              -0.000009158              -0.000002272               0.000052789               0.000050517               0.000000000               0.000000000               0.000000000               0.000000000               0.000036632               0.000193097              -0.000009960              -0.000010400               0.000067832               0.000057432               0.000000000               0.000000000               0.000000000               0.000000000               0.000020189               0.000236395              -0.000006801              -0.000021978               0.000086124               0.000064145               0.000000000               0.000000000               0.000000000               0.000000000               0.000017632               0.000271272              -0.000008230              -0.000027297               0.000099522               0.000072225               0.000000000               0.000000000               0.000000000               0.000000000               0.000002030               0.000010058              -0.000000426              -0.000000496               0.000003518               0.000003022               0.000000000               0.000000000               0.000000000               0.000000000               0.000001693               0.000004199              -0.000000450               0.000000110               0.000001363               0.000001473               0.000000000               0.000000000               0.000000000               0.000000000              -0.000001686              -0.000006617               0.000000027               0.000000195              -0.000002271              -0.000002076               0.000000000               0.000000000               0.000000000               0.000000000              -0.000005998              -0.000015552               0.000000047              -0.000000305              -0.000005082              -0.000005388               0.000000000               0.000000000               0.000000000               0.000000000              -0.000004953              -0.000010621              -0.000000453              -0.000000530              -0.000003364              -0.000003894               0.000000000               0.000000000               0.000000000               0.000000000               0.000001835               0.000008128               0.000000067              -0.000000328               0.000002819               0.000002491               0.000000000               0.000000000               0.000000000               0.000000000               0.000012987               0.000037905               0.000001118               0.000000132               0.000012591               0.000012723               0.000000000               0.000000000               0.000000000               0.000000000               0.000026337               0.000073859               0.000002394               0.000000644               0.000024405               0.000025049               0.000000000               0.000000000               0.000000000               0.000000000               0.000040039               0.000110579               0.000002239               0.000001192               0.000036462               0.000037654               0.000000000               0.000000000               0.000000000               0.000000000               0.000053322               0.000144895              -0.000000609               0.000001884               0.000047670               0.000049554               0.000000000               0.000000000               0.000000000               0.000000000               0.000064800               0.000178050              -0.000006128               0.000002044               0.000058668               0.000060712               0.000000000               0.000000000               0.000000000               0.000000000               0.000070866               0.000212978              -0.000012855              -0.000000047               0.000071008               0.000070960               0.000000000               0.000000000               0.000000000               0.000000000               0.000069296               0.000252675              -0.000018467              -0.000005598               0.000086090               0.000080492               0.000000000               0.000000000               0.000000000               0.000000000               0.000059767               0.000297940              -0.000020908              -0.000014830               0.000104256               0.000089426               0.000000000               0.000000000               0.000000000               0.000000000               0.000043470               0.000346692              -0.000018905              -0.000027035               0.000124575               0.000097539               0.000000000               0.000000000               0.000000000               0.000000000               0.000022715               0.000395986              -0.000011715              -0.000040980               0.000145654               0.000104674               0.000000000               0.000000000               0.000000000               0.000000000               0.000018508               0.000431117              -0.000010836              -0.000046949               0.000159354               0.000112405               0.000000000               0.000000000               0.000000000               0.000000000              -0.000000225               0.000005285              -0.000003026              -0.000000745               0.000002010               0.000001265               0.000000000               0.000000000               0.000000000               0.000000000              -0.000002829              -0.000006856              -0.000000196              -0.000000204              -0.000002217              -0.000002421               0.000000000               0.000000000               0.000000000               0.000000000              -0.000004746              -0.000016112               0.000000331               0.000000234              -0.000005449              -0.000005215               0.000000000               0.000000000               0.000000000               0.000000000              -0.000002582              -0.000007946              -0.000000462               0.000000025              -0.000002657              -0.000002632               0.000000000               0.000000000               0.000000000               0.000000000               0.000006680               0.000019025               0.000000359               0.000000127               0.000006299               0.000006426               0.000000000               0.000000000               0.000000000               0.000000000               0.000020920               0.000059397               0.000001127               0.000000420               0.000019659               0.000020079               0.000000000               0.000000000               0.000000000               0.000000000               0.000036971               0.000106921               0.000002112               0.000000499               0.000035473               0.000035973               0.000000000               0.000000000               0.000000000               0.000000000               0.000053805               0.000156000               0.000001905               0.000000677               0.000051774               0.000052451               0.000000000               0.000000000               0.000000000               0.000000000               0.000069897               0.000202834              -0.000001149               0.000000857               0.000067325               0.000068182               0.000000000               0.000000000               0.000000000               0.000000000               0.000083634               0.000247169              -0.000007366               0.000000466               0.000082233               0.000082700               0.000000000               0.000000000               0.000000000               0.000000000               0.000091495               0.000292426              -0.000015461              -0.000002243               0.000098222               0.000095979               0.000000000               0.000000000               0.000000000               0.000000000               0.000091245               0.000341656              -0.000022833              -0.000008490               0.000116714               0.000108224               0.000000000               0.000000000               0.000000000               0.000000000               0.000082193               0.000395756              -0.000027079              -0.000018647               0.000138133               0.000119486               0.000000000               0.000000000               0.000000000               0.000000000               0.000065866               0.000452110              -0.000026957              -0.000031814               0.000161307               0.000129493               0.000000000               0.000000000               0.000000000               0.000000000               0.000045031               0.000507486              -0.000022193              -0.000046549               0.000184677               0.000138128               0.000000000               0.000000000               0.000000000               0.000000000               0.000022677               0.000558156              -0.000012970              -0.000061266               0.000206472               0.000145206               0.000000000               0.000000000               0.000000000               0.000000000               0.000017189               0.000591011              -0.000010818              -0.000067430               0.000219478               0.000152048               0.000000000               0.000000000               0.000000000               0.000000000              -0.000005488              -0.000009563              -0.000003892              -0.000000862              -0.000002900              -0.000003763               0.000000000               0.000000000               0.000000000               0.000000000              -0.000007278              -0.000017594              -0.000000296              -0.000000530              -0.000005688              -0.000006218               0.000000000               0.000000000               0.000000000               0.000000000              -0.000002409              -0.000010035               0.000000332               0.000000351              -0.000003462              -0.000003111               0.000000000               0.000000000               0.000000000               0.000000000               0.000006979               0.000019714              -0.000000080               0.000000153               0.000006520               0.000006673               0.000000000               0.000000000               0.000000000               0.000000000               0.000023062               0.000067687               0.000000578               0.000000187               0.000022500               0.000022687               0.000000000               0.000000000               0.000000000               0.000000000               0.000044522               0.000126765               0.000001253               0.000000850               0.000041971               0.000042821               0.000000000               0.000000000               0.000000000               0.000000000               0.000065562               0.000187311               0.000001497               0.000001172               0.000062046               0.000063218               0.000000000               0.000000000               0.000000000               0.000000000               0.000084567               0.000246247              -0.000000677               0.000000932               0.000081771               0.000082702               0.000000000               0.000000000               0.000000000               0.000000000               0.000100350               0.000301470              -0.000005831              -0.000000052               0.000100506               0.000100454               0.000000000               0.000000000               0.000000000               0.000000000               0.000110975               0.000356946              -0.000013733              -0.000003003               0.000119982               0.000116979               0.000000000               0.000000000               0.000000000               0.000000000               0.000113198               0.000415720              -0.000021823              -0.000009516               0.000141744               0.000132228               0.000000000               0.000000000               0.000000000               0.000000000               0.000105928               0.000479315              -0.000027456              -0.000020191               0.000166501               0.000146309               0.000000000               0.000000000               0.000000000               0.000000000               0.000090504               0.000545422              -0.000028902              -0.000034239               0.000193218               0.000158980               0.000000000               0.000000000               0.000000000               0.000000000               0.000069944               0.000610976              -0.000025976              -0.000050143               0.000220371               0.000170228               0.000000000               0.000000000               0.000000000               0.000000000               0.000046915               0.000672246              -0.000019288              -0.000066437               0.000246226               0.000179788               0.000000000               0.000000000               0.000000000               0.000000000               0.000023793               0.000725939              -0.000010471              -0.000081820               0.000269251               0.000187431               0.000000000               0.000000000               0.000000000               0.000000000               0.000016002               0.000758662              -0.000008527              -0.000088832               0.000282496               0.000193664               0.000000000               0.000000000               0.000000000               0.000000000              -0.000008868              -0.000023640              -0.000003208              -0.000000370              -0.000007757              -0.000008127               0.000000000               0.000000000               0.000000000               0.000000000              -0.000008049              -0.000018960              -0.000000934              -0.000000648              -0.000006104              -0.000006752               0.000000000               0.000000000               0.000000000               0.000000000               0.000002223               0.000005136               0.000000589               0.000000192               0.000001648               0.000001840               0.000000000               0.000000000               0.000000000               0.000000000               0.000017994               0.000052050               0.000001103               0.000000241               0.000017269               0.000017511               0.000000000               0.000000000               0.000000000               0.000000000               0.000039708               0.000115935               0.000002077               0.000000398               0.000038512               0.000038910               0.000000000               0.000000000               0.000000000               0.000000000               0.000063479               0.000184098               0.000003214               0.000000792               0.000061101               0.000061894               0.000000000               0.000000000               0.000000000               0.000000000               0.000085578               0.000252468               0.000002324               0.000000533               0.000083977               0.000084511               0.000000000               0.000000000               0.000000000               0.000000000               0.000104989               0.000316881              -0.000000518              -0.000000239               0.000105706               0.000105467               0.000000000               0.000000000               0.000000000               0.000000000               0.000121130               0.000379352              -0.000006018              -0.000001995               0.000127115               0.000125119               0.000000000               0.000000000               0.000000000               0.000000000               0.000130364               0.000443305              -0.000012913              -0.000006526               0.000149942               0.000143416               0.000000000               0.000000000               0.000000000               0.000000000               0.000130678               0.000512489              -0.000019512              -0.000015057               0.000175847               0.000160790               0.000000000               0.000000000               0.000000000               0.000000000               0.000122239               0.000586190              -0.000023479              -0.000027434               0.000204539               0.000177105               0.000000000               0.000000000               0.000000000               0.000000000               0.000107688               0.000662120              -0.000023577              -0.000042382               0.000234832               0.000192450               0.000000000               0.000000000               0.000000000               0.000000000               0.000089430               0.000736289              -0.000019593              -0.000058500               0.000264927               0.000206427               0.000000000               0.000000000               0.000000000               0.000000000               0.000069990               0.000805834              -0.000012917              -0.000074483               0.000293436               0.000218954               0.000000000               0.000000000               0.000000000               0.000000000               0.000050929               0.000867832              -0.000005417              -0.000089381               0.000319068               0.000229687               0.000000000               0.000000000               0.000000000               0.000000000               0.000039410               0.000899856              -0.000002235              -0.000097703               0.000332517               0.000234814               0.000000000               0.000000000               0.000000000               0.000000000              -0.000006559              -0.000026718              -0.000000323               0.000000880              -0.000009199              -0.000008319               0.000000000               0.000000000               0.000000000               0.000000000              -0.000005620              -0.000013360              -0.000001529              -0.000000438              -0.000004308              -0.000004745               0.000000000               0.000000000               0.000000000               0.000000000               0.000005657               0.000019399              -0.000000111              -0.000000303               0.000006567               0.000006264               0.000000000               0.000000000               0.000000000               0.000000000               0.000026305               0.000076911               0.000000383               0.000000251               0.000025553               0.000025804               0.000000000               0.000000000               0.000000000               0.000000000               0.000048025               0.000143313               0.000000125               0.000000095               0.000047739               0.000047834               0.000000000               0.000000000               0.000000000               0.000000000               0.000073126               0.000213939               0.000001297               0.000000680               0.000071086               0.000071766               0.000000000               0.000000000               0.000000000               0.000000000               0.000096528               0.000285480               0.000001009               0.000000513               0.000094988               0.000095501               0.000000000               0.000000000               0.000000000               0.000000000               0.000116922               0.000353343              -0.000001151              -0.000000322               0.000117887               0.000117565               0.000000000               0.000000000               0.000000000               0.000000000               0.000135172               0.000420024              -0.000005318              -0.000001813               0.000140611               0.000138798               0.000000000               0.000000000               0.000000000               0.000000000               0.000148418               0.000485390              -0.000010264              -0.000005017               0.000163468               0.000158450               0.000000000               0.000000000               0.000000000               0.000000000               0.000154744               0.000553657              -0.000015429              -0.000011178               0.000188276               0.000177098               0.000000000               0.000000000               0.000000000               0.000000000               0.000153070               0.000625069              -0.000019266              -0.000020732               0.000215265               0.000194533               0.000000000               0.000000000               0.000000000               0.000000000               0.000145240               0.000699778              -0.000020534              -0.000033007               0.000244259               0.000211252               0.000000000               0.000000000               0.000000000               0.000000000               0.000133362               0.000775459              -0.000018183              -0.000046921               0.000274124               0.000227203               0.000000000               0.000000000               0.000000000               0.000000000               0.000119674               0.000851206              -0.000013021              -0.000061523               0.000304240               0.000242717               0.000000000               0.000000000               0.000000000               0.000000000               0.000106253               0.000925425              -0.000005980              -0.000075833               0.000333750               0.000257917               0.000000000               0.000000000               0.000000000               0.000000000               0.000093675               0.000959839               0.000000095              -0.000084851               0.000348227               0.000263375               0.000000000               0.000000000               0.000000000               0.000000000              -0.000002141              -0.000018300               0.000003509               0.000001484              -0.000006595              -0.000005110               0.000000000               0.000000000               0.000000000               0.000000000              -0.000001012              -0.000004962              -0.000000717               0.000000241              -0.000001734              -0.000001494               0.000000000               0.000000000               0.000000000               0.000000000               0.000008227               0.000031245              -0.000000897              -0.000000821               0.000010689               0.000009868               0.000000000               0.000000000               0.000000000               0.000000000               0.000031749               0.000094429               0.000000266               0.000000102               0.000031442               0.000031544               0.000000000               0.000000000               0.000000000               0.000000000               0.000053056               0.000159346               0.000000286              -0.000000022               0.000053122               0.000053100               0.000000000               0.000000000               0.000000000               0.000000000               0.000077270               0.000229408               0.000000510               0.000000300               0.000076369               0.000076669               0.000000000               0.000000000               0.000000000               0.000000000               0.000101611               0.000299619               0.000001154               0.000000652               0.000099655               0.000100306               0.000000000               0.000000000               0.000000000               0.000000000               0.000123580               0.000369221              -0.000000072               0.000000190               0.000123009               0.000123199               0.000000000               0.000000000               0.000000000               0.000000000               0.000143698               0.000436702              -0.000001890              -0.000000701               0.000145800               0.000145099               0.000000000               0.000000000               0.000000000               0.000000000               0.000161451               0.000502866              -0.000004844              -0.000002314               0.000168392               0.000166078               0.000000000               0.000000000               0.000000000               0.000000000               0.000175385               0.000569213              -0.000008203              -0.000005382               0.000191530               0.000186148               0.000000000               0.000000000               0.000000000               0.000000000               0.000183900               0.000637801              -0.000011629              -0.000010763               0.000216186               0.000205423               0.000000000               0.000000000               0.000000000               0.000000000               0.000186388               0.000708299              -0.000014045              -0.000018642               0.000242311               0.000223669               0.000000000               0.000000000               0.000000000               0.000000000               0.000184723               0.000781450              -0.000014325              -0.000028410               0.000269951               0.000241541               0.000000000               0.000000000               0.000000000               0.000000000               0.000179885               0.000854906              -0.000011771              -0.000039406               0.000298101               0.000258695               0.000000000               0.000000000               0.000000000               0.000000000               0.000173427               0.000928771              -0.000006694              -0.000051061               0.000326607               0.000275546               0.000000000               0.000000000               0.000000000               0.000000000               0.000163842               0.000962547              -0.000000906              -0.000058878               0.000340472               0.000281594               0.000000000               0.000000000               0.000000000               0.000000000              -0.000000043              -0.000006393               0.000005609               0.000000783              -0.000002392              -0.000001609               0.000000000               0.000000000               0.000000000               0.000000000               0.000003830               0.000004843               0.000001058               0.000000831               0.000001337               0.000002168               0.000000000               0.000000000               0.000000000               0.000000000               0.000012885               0.000043586              -0.000001160              -0.000000616               0.000014734               0.000014118               0.000000000               0.000000000               0.000000000               0.000000000               0.000035474               0.000108022              -0.000000063              -0.000000200               0.000036074               0.000035874               0.000000000               0.000000000               0.000000000               0.000000000               0.000057922               0.000174082               0.000000289              -0.000000039               0.000058040               0.000058000               0.000000000               0.000000000               0.000000000               0.000000000               0.000080707               0.000242356              -0.000000496              -0.000000029               0.000080794               0.000080765               0.000000000               0.000000000               0.000000000               0.000000000               0.000105328               0.000311679               0.000000578               0.000000538               0.000103713               0.000104251               0.000000000               0.000000000               0.000000000               0.000000000               0.000128202               0.000381543               0.000000590               0.000000383               0.000127052               0.000127435               0.000000000               0.000000000               0.000000000               0.000000000               0.000149402               0.000449361               0.000000115              -0.000000145               0.000149834               0.000149689               0.000000000               0.000000000               0.000000000               0.000000000               0.000170051               0.000517084              -0.000001063              -0.000000866               0.000172648               0.000171782               0.000000000               0.000000000               0.000000000               0.000000000               0.000188602               0.000582726              -0.000002668              -0.000002115               0.000194945               0.000192830               0.000000000               0.000000000               0.000000000               0.000000000               0.000204826               0.000649662              -0.000004653              -0.000004398               0.000218018               0.000213620               0.000000000               0.000000000               0.000000000               0.000000000               0.000217003               0.000717512              -0.000006512              -0.000008313               0.000241939               0.000233626               0.000000000               0.000000000               0.000000000               0.000000000               0.000225450               0.000787590              -0.000007826              -0.000013905               0.000267163               0.000253258               0.000000000               0.000000000               0.000000000               0.000000000               0.000230725               0.000858418              -0.000007467              -0.000020780               0.000293063               0.000272283               0.000000000               0.000000000               0.000000000               0.000000000               0.000234019               0.000930529              -0.000005101              -0.000028559               0.000319693               0.000291134               0.000000000               0.000000000               0.000000000               0.000000000               0.000230563               0.000964337              -0.000001466              -0.000034081               0.000332803               0.000298722               0.000000000               0.000000000               0.000000000               0.000000000               0.000001481               0.000004673               0.000005483              -0.000000029               0.000001567               0.000001539               0.000000000               0.000000000               0.000000000               0.000000000               0.000007136               0.000016208               0.000002484               0.000000650               0.000005186               0.000005836               0.000000000               0.000000000               0.000000000               0.000000000               0.000018204               0.000055894              -0.000001566              -0.000000160               0.000018685               0.000018524               0.000000000               0.000000000               0.000000000               0.000000000               0.000038957               0.000118506              -0.000000377              -0.000000204               0.000039570               0.000039365               0.000000000               0.000000000               0.000000000               0.000000000               0.000063012               0.000187879               0.000000858               0.000000145               0.000062577               0.000062722               0.000000000               0.000000000               0.000000000               0.000000000               0.000083567               0.000253209              -0.000000184              -0.000000314               0.000084507               0.000084193               0.000000000               0.000000000               0.000000000               0.000000000               0.000106609               0.000320133               0.000000067              -0.000000038               0.000106723               0.000106684               0.000000000               0.000000000               0.000000000               0.000000000               0.000130724               0.000389530               0.000000389               0.000000330               0.000129732               0.000130062               0.000000000               0.000000000               0.000000000               0.000000000               0.000153160               0.000457595               0.000000370               0.000000236               0.000152452               0.000152687               0.000000000               0.000000000               0.000000000               0.000000000               0.000175434               0.000526137               0.000000304               0.000000020               0.000175371               0.000175391               0.000000000               0.000000000               0.000000000               0.000000000               0.000196889               0.000593057               0.000000095              -0.000000299               0.000197783               0.000197485               0.000000000               0.000000000               0.000000000               0.000000000               0.000217511               0.000659555              -0.000000537              -0.000000878               0.000220142               0.000219264               0.000000000               0.000000000               0.000000000               0.000000000               0.000236423               0.000725820              -0.000001182              -0.000002069               0.000242627               0.000240558               0.000000000               0.000000000               0.000000000               0.000000000               0.000253249               0.000793511              -0.000001984              -0.000004221               0.000265908               0.000261687               0.000000000               0.000000000               0.000000000               0.000000000               0.000267688               0.000861999              -0.000002325              -0.000007367               0.000289786               0.000282419               0.000000000               0.000000000               0.000000000               0.000000000               0.000280759               0.000931811              -0.000001879              -0.000011192               0.000314331               0.000303139               0.000000000               0.000000000               0.000000000               0.000000000               0.000284588               0.000965072              -0.000000470              -0.000013913               0.000326325               0.000312412               0.000000000               0.000000000               0.000000000               0.000000000               0.000003808               0.000013595               0.000003247              -0.000000271               0.000004622               0.000004351               0.000000000               0.000000000               0.000000000               0.000000000               0.000010402               0.000028732               0.000003179               0.000000309               0.000009474               0.000009783               0.000000000               0.000000000               0.000000000               0.000000000               0.000022354               0.000066725              -0.000001156               0.000000042               0.000022227               0.000022270               0.000000000               0.000000000               0.000000000               0.000000000               0.000040612               0.000124849              -0.000001455              -0.000000377               0.000041741               0.000041365               0.000000000               0.000000000               0.000000000               0.000000000               0.000066226               0.000197250               0.000000883               0.000000179               0.000065690               0.000065868               0.000000000               0.000000000               0.000000000               0.000000000               0.000087803               0.000262609               0.000000336               0.000000100               0.000087502               0.000087602               0.000000000               0.000000000               0.000000000               0.000000000               0.000109567               0.000328437              -0.000000156               0.000000033               0.000109467               0.000109500               0.000000000               0.000000000               0.000000000               0.000000000               0.000132931               0.000396717               0.000000139               0.000000260               0.000132151               0.000132411               0.000000000               0.000000000               0.000000000               0.000000000               0.000155221               0.000463615               0.000000167               0.000000256               0.000154451               0.000154707               0.000000000               0.000000000               0.000000000               0.000000000               0.000177529               0.000531382               0.000000216               0.000000151               0.000177075               0.000177226               0.000000000               0.000000000               0.000000000               0.000000000               0.000200062               0.000598917               0.000000462               0.000000159               0.000199584               0.000199743               0.000000000               0.000000000               0.000000000               0.000000000               0.000222623               0.000665773               0.000000578               0.000000262               0.000221835               0.000222097               0.000000000               0.000000000               0.000000000               0.000000000               0.000244854               0.000731928               0.000000641               0.000000329               0.000243864               0.000244193               0.000000000               0.000000000               0.000000000               0.000000000               0.000266460               0.000798344               0.000000519               0.000000130               0.000266069               0.000266198               0.000000000               0.000000000               0.000000000               0.000000000               0.000286936               0.000865189               0.000000339              -0.000000548               0.000288576               0.000288028               0.000000000               0.000000000               0.000000000               0.000000000               0.000306395               0.000933061               0.000000055              -0.000001735               0.000311596               0.000309861               0.000000000               0.000000000               0.000000000               0.000000000               0.000314615               0.000965462               0.000000277              -0.000002702               0.000322718               0.000320016               0.000000000               0.000000000               0.000000000               0.000000000               0.000004862               0.000015213               0.000000898              -0.000000078               0.000005097               0.000005019               0.000000000               0.000000000               0.000000000               0.000000000               0.000013504               0.000036500               0.000002844               0.000000502               0.000011999               0.000012501               0.000000000               0.000000000               0.000000000               0.000000000               0.000026351               0.000076200               0.000000965               0.000000357               0.000025281               0.000025638               0.000000000               0.000000000               0.000000000               0.000000000               0.000042378               0.000130212              -0.000001281              -0.000000385               0.000043532               0.000043147               0.000000000               0.000000000               0.000000000               0.000000000               0.000067427               0.000203296              -0.000000002              -0.000000127               0.000067807               0.000067680               0.000000000               0.000000000               0.000000000               0.000000000               0.000090039               0.000270254               0.000000055              -0.000000017               0.000090090               0.000090072               0.000000000               0.000000000               0.000000000               0.000000000               0.000110756               0.000333860              -0.000000449              -0.000000199               0.000111352               0.000111153               0.000000000               0.000000000               0.000000000               0.000000000               0.000133525               0.000401315               0.000000013              -0.000000093               0.000133801               0.000133709               0.000000000               0.000000000               0.000000000               0.000000000               0.000156505               0.000468145               0.000000083               0.000000171               0.000155990               0.000156161               0.000000000               0.000000000               0.000000000               0.000000000               0.000178701               0.000534132              -0.000000003               0.000000246               0.000177960               0.000178206               0.000000000               0.000000000               0.000000000               0.000000000               0.000200979               0.000601471               0.000000083               0.000000183               0.000200427               0.000200611               0.000000000               0.000000000               0.000000000               0.000000000               0.000223405               0.000668746               0.000000216               0.000000184               0.000222852               0.000223035               0.000000000               0.000000000               0.000000000               0.000000000               0.000246167               0.000735487               0.000000385               0.000000377               0.000245034               0.000245411               0.000000000               0.000000000               0.000000000               0.000000000               0.000269223               0.000801910               0.000000457               0.000000720               0.000267061               0.000267781               0.000000000               0.000000000               0.000000000               0.000000000               0.000292171               0.000868052               0.000000425               0.000001058               0.000288995               0.000290053               0.000000000               0.000000000               0.000000000               0.000000000               0.000314626               0.000934491               0.000000224               0.000001173               0.000311103               0.000312276               0.000000000               0.000000000               0.000000000               0.000000000               0.000324892               0.000966060               0.000000161               0.000001077               0.000321658               0.000322735               0.000000000               0.000000000               0.000000000               0.000000000               0.000004377               0.000016304               0.000000842              -0.000000397               0.000005567               0.000005170               0.000000000               0.000000000               0.000000000               0.000000000               0.000012716               0.000040696               0.000001273              -0.000000319               0.000013672               0.000013353               0.000000000               0.000000000               0.000000000               0.000000000               0.000028683               0.000082995               0.000000218               0.000000382               0.000027538               0.000027919               0.000000000               0.000000000               0.000000000               0.000000000               0.000045091               0.000135014              -0.000000810               0.000000032               0.000044993               0.000045026               0.000000000               0.000000000               0.000000000               0.000000000               0.000068434               0.000206531               0.000000252              -0.000000153               0.000068894               0.000068741               0.000000000               0.000000000               0.000000000               0.000000000               0.000091391               0.000274589               0.000000651              -0.000000052               0.000091546               0.000091494               0.000000000               0.000000000               0.000000000               0.000000000               0.000112144               0.000337394              -0.000000010              -0.000000120               0.000112504               0.000112383               0.000000000               0.000000000               0.000000000               0.000000000               0.000134302               0.000404029              -0.000000131              -0.000000140               0.000134722               0.000134581               0.000000000               0.000000000               0.000000000               0.000000000               0.000157086               0.000471381              -0.000000109              -0.000000015               0.000157131               0.000157115               0.000000000               0.000000000               0.000000000               0.000000000               0.000179098               0.000536607              -0.000000134               0.000000086               0.000178838               0.000178924               0.000000000               0.000000000               0.000000000               0.000000000               0.000201240               0.000603083              -0.000000202               0.000000080               0.000200999               0.000201079               0.000000000               0.000000000               0.000000000               0.000000000               0.000223325               0.000669820              -0.000000284               0.000000019               0.000223265               0.000223284               0.000000000               0.000000000               0.000000000               0.000000000               0.000245466               0.000736430              -0.000000297              -0.000000004               0.000245476               0.000245471               0.000000000               0.000000000               0.000000000               0.000000000               0.000267836               0.000802940              -0.000000199               0.000000071               0.000267620               0.000267691               0.000000000               0.000000000               0.000000000               0.000000000               0.000290348               0.000869182              -0.000000075               0.000000233               0.000289647               0.000289880               0.000000000               0.000000000               0.000000000               0.000000000               0.000312908               0.000935229              -0.000000013               0.000000437               0.000311594               0.000312031               0.000000000               0.000000000               0.000000000               0.000000000               0.000323638               0.000966487              -0.000000036               0.000000553               0.000321975               0.000322528               0.000000000               0.000000000               0.000000000               0.000000000               0.000004194               0.000020091               0.000000000              -0.000000939               0.000007010               0.000006071               0.000000000               0.000000000               0.000000000               0.000000000               0.000011279               0.000044673              -0.000000000              -0.000001354               0.000015342               0.000013988               0.000000000               0.000000000               0.000000000               0.000000000               0.000029086               0.000085211               0.000000000               0.000000256               0.000028318               0.000028574               0.000000000               0.000000000               0.000000000               0.000000000               0.000045747               0.000134288               0.000000000               0.000000369               0.000044639               0.000045008               0.000000000               0.000000000               0.000000000               0.000000000               0.000068763               0.000206779               0.000000000              -0.000000061               0.000068946               0.000068885               0.000000000               0.000000000               0.000000000               0.000000000               0.000092876               0.000276900               0.000000000               0.000000216               0.000092227               0.000092443               0.000000000               0.000000000               0.000000000               0.000000000               0.000114013               0.000338927               0.000000000               0.000000389               0.000112845               0.000113234               0.000000000               0.000000000               0.000000000               0.000000000               0.000135338               0.000404700               0.000000000               0.000000164               0.000134844               0.000135008               0.000000000               0.000000000               0.000000000               0.000000000               0.000157129               0.000472778               0.000000000              -0.000000174               0.000157649               0.000157475               0.000000000               0.000000000               0.000000000               0.000000000               0.000178726               0.000538340              -0.000000000              -0.000000270               0.000179535               0.000179265               0.000000000               0.000000000               0.000000000               0.000000000               0.000200972               0.000604171              -0.000000000              -0.000000157               0.000201441               0.000201284               0.000000000               0.000000000               0.000000000               0.000000000               0.000223077               0.000669758              -0.000000000              -0.000000066               0.000223272               0.000223207               0.000000000               0.000000000               0.000000000               0.000000000               0.000244761               0.000735506               0.000000000              -0.000000153               0.000245217               0.000245064               0.000000000               0.000000000               0.000000000               0.000000000               0.000266305               0.000801863               0.000000000              -0.000000369               0.000267408               0.000267039               0.000000000               0.000000000               0.000000000               0.000000000               0.000287981               0.000868523               0.000000000              -0.000000572               0.000289695               0.000289123               0.000000000               0.000000000               0.000000000               0.000000000               0.000309920               0.000935012               0.000000000              -0.000000656               0.000311886               0.000311230               0.000000000               0.000000000               0.000000000               0.000000000               0.000320463               0.000966428               0.000000000              -0.000000630               0.000322349               0.000321720               0.000000000               0.000000000               0.000000000               0.000000000               0.000000000               0.000000000               0.000000000               0.000000000               0.000000000               0.000000000               0.000000000               0.000000000               0.000000000               0.000000000               0.000000000               0.000000000               0.000000000               0.000000000               0.000000000               0.000000000               0.000000000               0.000000000               0.000000000               0.000000000               0.000000000               0.000000000               0.000000000               0.000000000               0.000000000               0.000000000               0.000000000               0.000000000               0.000000000               0.000000000               0.000000000               0.000000000               0.000000000               0.000000000               0.000000000               0.000000000               0.000000000               0.000000000               0.000000000               0.000000000               0.000000000               0.000000000               0.000000000               0.000000000               0.000000000               0.000000000               0.000000000               0.000000000               0.000000000               0.000000000               0.000000000               0.000000000               0.000000000               0.000000000               0.000000000               0.000000000               0.000000000               0.000000000               0.000000000               0.000000000               0.000000000               0.000000000               0.000000000               0.000000000               0.000000000               0.000000000               0.000000000               0.000000000               0.000000000               0.000000000               0.000000000               0.000000000               0.000000000               0.000000000               0.000000000               0.000000000               0.000000000               0.000000000               0.000000000               0.000000000               0.000000000               0.000000000               0.000000000               0.000000000               0.000000000               0.000000000               0.000000000               0.000000000               0.000000000               0.000000000               0.000000000               0.000000000               0.000000000               0.000000000               0.000000000               0.000000000               0.000000000               0.000000000               0.000000000               0.000000000               0.000000000               0.000000000               0.000000000               0.000000000               0.000000000               0.000000000               0.000000000               0.000000000               0.000000000               0.000000000               0.000000000               0.000000000               0.000000000               0.000000000               0.000000000               0.000000000               0.000000000               0.000000000               0.000000000               0.000000000               0.000000000               0.000000000               0.000000000               0.000000000               0.000000000               0.000000000               0.000000000               0.000000000               0.000000000               0.000000000               0.000000000               0.000000000               0.000000000               0.000000000               0.000000000               0.000000000               0.000000000               0.000000000               0.000000000               0.000000000               0.000000000               0.000000000               0.000000000               0.000000000               0.000000000               0.000000000               0.000000000               0.000000000               0.000000000               0.000000000               0.000000000               0.000000000               0.000000000               0.000000000               0.000000000               0.000000000               0.000000000               0.000000000               0.000000000               0.000000000               0.000000000               0.000000000               0.000000000               0.000000000               0.000000000               0.000000000               0.000000000               0.000000000               0.000000000               0.000000000              -0.000001063              -0.000000753              -0.000001110              -0.000000304              -0.000000149              -0.000000454               0.000000000               0.000000000               0.000000000               0.000000000              -0.000001459              -0.000001140              -0.000000067              -0.000000405              -0.000000245              -0.000000650               0.000000000               0.000000000               0.000000000               0.000000000              -0.000002210              -0.000001907               0.000001476              -0.000000591              -0.000000439              -0.000001029               0.000000000               0.000000000               0.000000000               0.000000000              -0.000001559              -0.000001277               0.000001772              -0.000000425              -0.000000284              -0.000000709               0.000000000               0.000000000               0.000000000               0.000000000               0.000000782               0.000000826               0.000000643               0.000000190               0.000000212               0.000000402               0.000000000               0.000000000               0.000000000               0.000000000               0.000003055               0.000003270              -0.000001109               0.000000737               0.000000844               0.000001581               0.000000000               0.000000000               0.000000000               0.000000000               0.000003742               0.000004282              -0.000002672               0.000000868               0.000001138               0.000002006               0.000000000               0.000000000               0.000000000               0.000000000               0.000002833               0.000003544              -0.000003202               0.000000619               0.000000975               0.000001594               0.000000000               0.000000000               0.000000000               0.000000000               0.000000991               0.000001300              -0.000002472               0.000000209               0.000000364               0.000000573               0.000000000               0.000000000               0.000000000               0.000000000              -0.000001102              -0.000001788              -0.000000796              -0.000000190              -0.000000533              -0.000000722               0.000000000               0.000000000               0.000000000               0.000000000              -0.000003158              -0.000004512               0.000001087              -0.000000620              -0.000001297              -0.000001917               0.000000000               0.000000000               0.000000000               0.000000000              -0.000004918              -0.000006556               0.000002481              -0.000001025              -0.000001844              -0.000002868               0.000000000               0.000000000               0.000000000               0.000000000              -0.000005718              -0.000008461               0.000003248              -0.000001087              -0.000002458              -0.000003545               0.000000000               0.000000000               0.000000000               0.000000000              -0.000005048              -0.000010775               0.000003494              -0.000000546              -0.000003410              -0.000003956               0.000000000               0.000000000               0.000000000               0.000000000              -0.000003191              -0.000013717               0.000003239               0.000000518              -0.000004745              -0.000004227               0.000000000               0.000000000               0.000000000               0.000000000              -0.000001238              -0.000016959               0.000002125               0.000001656              -0.000006205              -0.000004549               0.000000000               0.000000000               0.000000000               0.000000000              -0.000000657              -0.000019104               0.000001060               0.000002142              -0.000007082              -0.000004940               0.000000000               0.000000000               0.000000000               0.000000000              -0.000002584              -0.000005113               0.000001651              -0.000000330              -0.000001595              -0.000001924               0.000000000               0.000000000               0.000000000               0.000000000              -0.000001992              -0.000001793               0.000001043              -0.000000523              -0.000000423              -0.000000946               0.000000000               0.000000000               0.000000000               0.000000000              -0.000000504               0.000000203              -0.000000939              -0.000000214               0.000000139              -0.000000075               0.000000000               0.000000000               0.000000000               0.000000000               0.000001914               0.000004157              -0.000001938               0.000000198               0.000001320               0.000001518               0.000000000               0.000000000               0.000000000               0.000000000               0.000002495               0.000005897              -0.000001740               0.000000198               0.000001899               0.000002098               0.000000000               0.000000000               0.000000000               0.000000000               0.000002474               0.000004287              -0.000000713               0.000000392               0.000001298               0.000001690               0.000000000               0.000000000               0.000000000               0.000000000               0.000001315              -0.000000206               0.000001021               0.000000519              -0.000000241               0.000000277               0.000000000               0.000000000               0.000000000               0.000000000              -0.000001453              -0.000006236               0.000002677               0.000000235              -0.000002157              -0.000001922               0.000000000               0.000000000               0.000000000               0.000000000              -0.000005041              -0.000011813               0.000003799              -0.000000414              -0.000003800              -0.000004214               0.000000000               0.000000000               0.000000000               0.000000000              -0.000008361              -0.000014935               0.000003857              -0.000001268              -0.000004555              -0.000005824               0.000000000               0.000000000               0.000000000               0.000000000              -0.000010195              -0.000015432               0.000002804              -0.000001894              -0.000004513              -0.000006407               0.000000000               0.000000000               0.000000000               0.000000000              -0.000009367              -0.000014959               0.000001371              -0.000001643              -0.000004439              -0.000006081               0.000000000               0.000000000               0.000000000               0.000000000              -0.000005686              -0.000014683               0.000000150              -0.000000297              -0.000004795              -0.000005092               0.000000000               0.000000000               0.000000000               0.000000000              -0.000000570              -0.000014447              -0.000000613               0.000001592              -0.000005346              -0.000003754               0.000000000               0.000000000               0.000000000               0.000000000               0.000003383              -0.000012708              -0.000000967               0.000002857              -0.000005188              -0.000002331               0.000000000               0.000000000               0.000000000               0.000000000               0.000003414              -0.000007539              -0.000001046               0.000002223              -0.000003254              -0.000001031               0.000000000               0.000000000               0.000000000               0.000000000               0.000003848              -0.000000834               0.000000039               0.000001547              -0.000000794               0.000000753               0.000000000               0.000000000               0.000000000               0.000000000               0.000001691              -0.000000986              -0.000001026               0.000000757              -0.000000581               0.000000176               0.000000000               0.000000000               0.000000000               0.000000000               0.000002150               0.000002146              -0.000001070               0.000000538               0.000000536               0.000001074               0.000000000               0.000000000               0.000000000               0.000000000               0.000002418               0.000004943              -0.000000691               0.000000289               0.000001551               0.000001840               0.000000000               0.000000000               0.000000000               0.000000000               0.000001815               0.000004474               0.000000141               0.000000121               0.000001451               0.000001572               0.000000000               0.000000000               0.000000000               0.000000000              -0.000000259              -0.000000662               0.000000851              -0.000000014              -0.000000216              -0.000000230               0.000000000               0.000000000               0.000000000               0.000000000              -0.000003638              -0.000008156               0.000001480              -0.000000345              -0.000002604              -0.000002948               0.000000000               0.000000000               0.000000000               0.000000000              -0.000006500              -0.000013863               0.000002096              -0.000000705              -0.000004386              -0.000005091               0.000000000               0.000000000               0.000000000               0.000000000              -0.000007234              -0.000014946               0.000002209              -0.000000845              -0.000004700              -0.000005545               0.000000000               0.000000000               0.000000000               0.000000000              -0.000005705              -0.000010006               0.000001216              -0.000000889              -0.000003039              -0.000003928               0.000000000               0.000000000               0.000000000               0.000000000              -0.000001884              -0.000000268              -0.000000687              -0.000000673               0.000000135              -0.000000538               0.000000000               0.000000000               0.000000000               0.000000000               0.000004192               0.000010824              -0.000002305               0.000000219               0.000003535               0.000003754               0.000000000               0.000000000               0.000000000               0.000000000               0.000011836               0.000021473              -0.000002888               0.000001754               0.000006573               0.000008327               0.000000000               0.000000000               0.000000000               0.000000000               0.000019191               0.000032371              -0.000002335               0.000003150               0.000009740               0.000012890               0.000000000               0.000000000               0.000000000               0.000000000               0.000023409               0.000045834              -0.000001107               0.000003049               0.000014261               0.000017311               0.000000000               0.000000000               0.000000000               0.000000000               0.000021847               0.000064715              -0.000000102               0.000000103               0.000021537               0.000021640               0.000000000               0.000000000               0.000000000               0.000000000               0.000013035               0.000091177              -0.000000056              -0.000006509               0.000032562               0.000026053               0.000000000               0.000000000               0.000000000               0.000000000               0.000012103               0.000115869               0.000002742              -0.000009945               0.000041937               0.000031993               0.000000000               0.000000000               0.000000000               0.000000000               0.000002816               0.000006214              -0.000002681               0.000000279               0.000001978               0.000002257               0.000000000               0.000000000               0.000000000               0.000000000               0.000002828               0.000006547              -0.000000665               0.000000242               0.000002102               0.000002344               0.000000000               0.000000000               0.000000000               0.000000000               0.000001088               0.000004162               0.000001031              -0.000000112               0.000001425               0.000001313               0.000000000               0.000000000               0.000000000               0.000000000              -0.000001710              -0.000004777               0.000000404              -0.000000044              -0.000001578              -0.000001622               0.000000000               0.000000000               0.000000000               0.000000000              -0.000003867              -0.000012854               0.000000661               0.000000157              -0.000004337              -0.000004180               0.000000000               0.000000000               0.000000000               0.000000000              -0.000005294              -0.000014232               0.000000981              -0.000000206              -0.000004675              -0.000004882               0.000000000               0.000000000               0.000000000               0.000000000              -0.000003365              -0.000006315               0.000000458              -0.000000473              -0.000001948              -0.000002420               0.000000000               0.000000000               0.000000000               0.000000000               0.000001876               0.000010532              -0.000001000              -0.000000613               0.000003715               0.000003102               0.000000000               0.000000000               0.000000000               0.000000000               0.000010011               0.000033236              -0.000002867              -0.000000400               0.000011212               0.000010812               0.000000000               0.000000000               0.000000000               0.000000000               0.000020285               0.000056955              -0.000003518               0.000000488               0.000018822               0.000019310               0.000000000               0.000000000               0.000000000               0.000000000               0.000031565               0.000079216              -0.000002044               0.000001935               0.000025760               0.000027695               0.000000000               0.000000000               0.000000000               0.000000000               0.000041766               0.000101310               0.000001407               0.000002998               0.000032770               0.000035769               0.000000000               0.000000000               0.000000000               0.000000000               0.000047434               0.000125931               0.000005746               0.000002047               0.000041294               0.000043341               0.000000000               0.000000000               0.000000000               0.000000000               0.000045973               0.000156097               0.000009158              -0.000002272               0.000052789               0.000050517               0.000000000               0.000000000               0.000000000               0.000000000               0.000036632               0.000193097               0.000009960              -0.000010400               0.000067832               0.000057432               0.000000000               0.000000000               0.000000000               0.000000000               0.000020189               0.000236395               0.000006801              -0.000021978               0.000086124               0.000064145               0.000000000               0.000000000               0.000000000               0.000000000               0.000017632               0.000271272               0.000008230              -0.000027297               0.000099522               0.000072225               0.000000000               0.000000000               0.000000000               0.000000000               0.000002030               0.000010058               0.000000426              -0.000000496               0.000003518               0.000003022               0.000000000               0.000000000               0.000000000               0.000000000               0.000001693               0.000004199               0.000000450               0.000000110               0.000001363               0.000001473               0.000000000               0.000000000               0.000000000               0.000000000              -0.000001686              -0.000006617              -0.000000027               0.000000195              -0.000002271              -0.000002076               0.000000000               0.000000000               0.000000000               0.000000000              -0.000005998              -0.000015552              -0.000000047              -0.000000305              -0.000005082              -0.000005388               0.000000000               0.000000000               0.000000000               0.000000000              -0.000004953              -0.000010621               0.000000453              -0.000000530              -0.000003364              -0.000003894               0.000000000               0.000000000               0.000000000               0.000000000               0.000001835               0.000008128              -0.000000067              -0.000000328               0.000002819               0.000002491               0.000000000               0.000000000               0.000000000               0.000000000               0.000012987               0.000037905              -0.000001118               0.000000132               0.000012591               0.000012723               0.000000000               0.000000000               0.000000000               0.000000000               0.000026337               0.000073859              -0.000002394               0.000000644               0.000024405               0.000025049               0.000000000               0.000000000               0.000000000               0.000000000               0.000040039               0.000110579              -0.000002239               0.000001192               0.000036462               0.000037654               0.000000000               0.000000000               0.000000000               0.000000000               0.000053322               0.000144895               0.000000609               0.000001884               0.000047670               0.000049554               0.000000000               0.000000000               0.000000000               0.000000000               0.000064800               0.000178050               0.000006128               0.000002044               0.000058668               0.000060712               0.000000000               0.000000000               0.000000000               0.000000000               0.000070866               0.000212978               0.000012855              -0.000000047               0.000071008               0.000070960               0.000000000               0.000000000               0.000000000               0.000000000               0.000069296               0.000252675               0.000018467              -0.000005598               0.000086090               0.000080492               0.000000000               0.000000000               0.000000000               0.000000000               0.000059767               0.000297940               0.000020908              -0.000014830               0.000104256               0.000089426               0.000000000               0.000000000               0.000000000               0.000000000               0.000043470               0.000346692               0.000018905              -0.000027035               0.000124575               0.000097539               0.000000000               0.000000000               0.000000000               0.000000000               0.000022715               0.000395986               0.000011715              -0.000040980               0.000145654               0.000104674               0.000000000               0.000000000               0.000000000               0.000000000               0.000018508               0.000431117               0.000010836              -0.000046949               0.000159354               0.000112405               0.000000000               0.000000000               0.000000000               0.000000000              -0.000000225               0.000005285               0.000003026              -0.000000745               0.000002010               0.000001265               0.000000000               0.000000000               0.000000000               0.000000000              -0.000002829              -0.000006856               0.000000196              -0.000000204              -0.000002217              -0.000002421               0.000000000               0.000000000               0.000000000               0.000000000              -0.000004746              -0.000016112              -0.000000331               0.000000234              -0.000005449              -0.000005215               0.000000000               0.000000000               0.000000000               0.000000000              -0.000002582              -0.000007946               0.000000462               0.000000025              -0.000002657              -0.000002632               0.000000000               0.000000000               0.000000000               0.000000000               0.000006680               0.000019025              -0.000000359               0.000000127               0.000006299               0.000006426               0.000000000               0.000000000               0.000000000               0.000000000               0.000020920               0.000059397              -0.000001127               0.000000420               0.000019659               0.000020079               0.000000000               0.000000000               0.000000000               0.000000000               0.000036971               0.000106921              -0.000002112               0.000000499               0.000035473               0.000035973               0.000000000               0.000000000               0.000000000               0.000000000               0.000053805               0.000156000              -0.000001905               0.000000677               0.000051774               0.000052451               0.000000000               0.000000000               0.000000000               0.000000000               0.000069897               0.000202834               0.000001149               0.000000857               0.000067325               0.000068182               0.000000000               0.000000000               0.000000000               0.000000000               0.000083634               0.000247169               0.000007366               0.000000466               0.000082233               0.000082700               0.000000000               0.000000000               0.000000000               0.000000000               0.000091495               0.000292426               0.000015461              -0.000002243               0.000098222               0.000095979               0.000000000               0.000000000               0.000000000               0.000000000               0.000091245               0.000341656               0.000022833              -0.000008490               0.000116714               0.000108224               0.000000000               0.000000000               0.000000000               0.000000000               0.000082193               0.000395756               0.000027079              -0.000018647               0.000138133               0.000119486               0.000000000               0.000000000               0.000000000               0.000000000               0.000065866               0.000452110               0.000026957              -0.000031814               0.000161307               0.000129493               0.000000000               0.000000000               0.000000000               0.000000000               0.000045031               0.000507486               0.000022193              -0.000046549               0.000184677               0.000138128               0.000000000               0.000000000               0.000000000               0.000000000               0.000022677               0.000558156               0.000012970              -0.000061266               0.000206472               0.000145206               0.000000000               0.000000000               0.000000000               0.000000000               0.000017189               0.000591011               0.000010818              -0.000067430               0.000219478               0.000152048               0.000000000               0.000000000               0.000000000               0.000000000              -0.000005488              -0.000009563               0.000003892              -0.000000862              -0.000002900              -0.000003763               0.000000000               0.000000000               0.000000000               0.000000000              -0.000007278              -0.000017594               0.000000296              -0.000000530              -0.000005688              -0.000006218               0.000000000               0.000000000               0.000000000               0.000000000              -0.000002409              -0.000010035              -0.000000332               0.000000351              -0.000003462              -0.000003111               0.000000000               0.000000000               0.000000000               0.000000000               0.000006979               0.000019714               0.000000080               0.000000153               0.000006520               0.000006673               0.000000000               0.000000000               0.000000000               0.000000000               0.000023062               0.000067687              -0.000000578               0.000000187               0.000022500               0.000022687               0.000000000               0.000000000               0.000000000               0.000000000               0.000044522               0.000126765              -0.000001253               0.000000850               0.000041971               0.000042821               0.000000000               0.000000000               0.000000000               0.000000000               0.000065562               0.000187311              -0.000001497               0.000001172               0.000062046               0.000063218               0.000000000               0.000000000               0.000000000               0.000000000               0.000084567               0.000246247               0.000000677               0.000000932               0.000081771               0.000082702               0.000000000               0.000000000               0.000000000               0.000000000               0.000100350               0.000301470               0.000005831              -0.000000052               0.000100506               0.000100454               0.000000000               0.000000000               0.000000000               0.000000000               0.000110975               0.000356946               0.000013733              -0.000003003               0.000119982               0.000116979               0.000000000               0.000000000               0.000000000               0.000000000               0.000113198               0.000415720               0.000021823              -0.000009516               0.000141744               0.000132228               0.000000000               0.000000000               0.000000000               0.000000000               0.000105928               0.000479315               0.000027456              -0.000020191               0.000166501               0.000146309               0.000000000               0.000000000               0.000000000               0.000000000               0.000090504               0.000545422               0.000028902              -0.000034239               0.000193218               0.000158980               0.000000000               0.000000000               0.000000000               0.000000000               0.000069944               0.000610976               0.000025976              -0.000050143               0.000220371               0.000170228               0.000000000               0.000000000               0.000000000               0.000000000               0.000046915               0.000672246               0.000019288              -0.000066437               0.000246226               0.000179788               0.000000000               0.000000000               0.000000000               0.000000000               0.000023793               0.000725939               0.000010471              -0.000081820               0.000269251               0.000187431               0.000000000               0.000000000               0.000000000               0.000000000               0.000016002               0.000758662               0.000008527              -0.000088832               0.000282496               0.000193664               0.000000000               0.000000000               0.000000000               0.000000000              -0.000008868              -0.000023640               0.000003208              -0.000000370              -0.000007757              -0.000008127               0.000000000               0.000000000               0.000000000               0.000000000              -0.000008049              -0.000018960               0.000000934              -0.000000648              -0.000006104              -0.000006752               0.000000000               0.000000000               0.000000000               0.000000000               0.000002223               0.000005136              -0.000000589               0.000000192               0.000001648               0.000001840               0.000000000               0.000000000               0.000000000               0.000000000               0.000017994               0.000052050              -0.000001103               0.000000241               0.000017269               0.000017511               0.000000000               0.000000000               0.000000000               0.000000000               0.000039708               0.000115935              -0.000002077               0.000000398               0.000038512               0.000038910               0.000000000               0.000000000               0.000000000               0.000000000               0.000063479               0.000184098              -0.000003214               0.000000792               0.000061101               0.000061894               0.000000000               0.000000000               0.000000000               0.000000000               0.000085578               0.000252468              -0.000002324               0.000000533               0.000083977               0.000084511               0.000000000               0.000000000               0.000000000               0.000000000               0.000104989               0.000316881               0.000000518              -0.000000239               0.000105706               0.000105467               0.000000000               0.000000000               0.000000000               0.000000000               0.000121130               0.000379352               0.000006018              -0.000001995               0.000127115               0.000125119               0.000000000               0.000000000               0.000000000               0.000000000               0.000130364               0.000443305               0.000012913              -0.000006526               0.000149942               0.000143416               0.000000000               0.000000000               0.000000000               0.000000000               0.000130678               0.000512489               0.000019512              -0.000015057               0.000175847               0.000160790               0.000000000               0.000000000               0.000000000               0.000000000               0.000122239               0.000586190               0.000023479              -0.000027434               0.000204539               0.000177105               0.000000000               0.000000000               0.000000000               0.000000000               0.000107688               0.000662120               0.000023577              -0.000042382               0.000234832               0.000192450               0.000000000               0.000000000               0.000000000               0.000000000               0.000089430               0.000736289               0.000019593              -0.000058500               0.000264927               0.000206427               0.000000000               0.000000000               0.000000000               0.000000000               0.000069990               0.000805834               0.000012917              -0.000074483               0.000293436               0.000218954               0.000000000               0.000000000               0.000000000               0.000000000               0.000050929               0.000867832               0.000005417              -0.000089381               0.000319068               0.000229687               0.000000000               0.000000000               0.000000000               0.000000000               0.000039410               0.000899856               0.000002235              -0.000097703               0.000332517               0.000234814               0.000000000               0.000000000               0.000000000               0.000000000              -0.000006559              -0.000026718               0.000000323               0.000000880              -0.000009199              -0.000008319               0.000000000               0.000000000               0.000000000               0.000000000              -0.000005620              -0.000013360               0.000001529              -0.000000438              -0.000004308              -0.000004745               0.000000000               0.000000000               0.000000000               0.000000000               0.000005657               0.000019399               0.000000111              -0.000000303               0.000006567               0.000006264               0.000000000               0.000000000               0.000000000               0.000000000               0.000026305               0.000076911              -0.000000383               0.000000251               0.000025553               0.000025804               0.000000000               0.000000000               0.000000000               0.000000000               0.000048025               0.000143313              -0.000000125               0.000000095               0.000047739               0.000047834               0.000000000               0.000000000               0.000000000               0.000000000               0.000073126               0.000213939              -0.000001297               0.000000680               0.000071086               0.000071766               0.000000000               0.000000000               0.000000000               0.000000000               0.000096528               0.000285480              -0.000001009               0.000000513               0.000094988               0.000095501               0.000000000               0.000000000               0.000000000               0.000000000               0.000116922               0.000353343               0.000001151              -0.000000322               0.000117887               0.000117565               0.000000000               0.000000000               0.000000000               0.000000000               0.000135172               0.000420024               0.000005318              -0.000001813               0.000140611               0.000138798               0.000000000               0.000000000               0.000000000               0.000000000               0.000148418               0.000485390               0.000010264              -0.000005017               0.000163468               0.000158450               0.000000000               0.000000000               0.000000000               0.000000000               0.000154744               0.000553657               0.000015429              -0.000011178               0.000188276               0.000177098               0.000000000               0.000000000               0.000000000               0.000000000               0.000153070               0.000625069               0.000019266              -0.000020732               0.000215265               0.000194533               0.000000000               0.000000000               0.000000000               0.000000000               0.000145240               0.000699778               0.000020534              -0.000033007               0.000244259               0.000211252               0.000000000               0.000000000               0.000000000               0.000000000               0.000133362               0.000775459               0.000018183              -0.000046921               0.000274124               0.000227203               0.000000000               0.000000000               0.000000000               0.000000000               0.000119674               0.000851206               0.000013021              -0.000061523               0.000304240               0.000242717               0.000000000               0.000000000               0.000000000               0.000000000               0.000106253               0.000925425               0.000005980              -0.000075833               0.000333750               0.000257917               0.000000000               0.000000000               0.000000000               0.000000000               0.000093675               0.000959839              -0.000000095              -0.000084851               0.000348227               0.000263375               0.000000000               0.000000000               0.000000000               0.000000000              -0.000002141              -0.000018300              -0.000003509               0.000001484              -0.000006595              -0.000005110               0.000000000               0.000000000               0.000000000               0.000000000              -0.000001012              -0.000004962               0.000000717               0.000000241              -0.000001734              -0.000001494               0.000000000               0.000000000               0.000000000               0.000000000               0.000008227               0.000031245               0.000000897              -0.000000821               0.000010689               0.000009868               0.000000000               0.000000000               0.000000000               0.000000000               0.000031749               0.000094429              -0.000000266               0.000000102               0.000031442               0.000031544               0.000000000               0.000000000               0.000000000               0.000000000               0.000053056               0.000159346              -0.000000286              -0.000000022               0.000053122               0.000053100               0.000000000               0.000000000               0.000000000               0.000000000               0.000077270               0.000229408              -0.000000510               0.000000300               0.000076369               0.000076669               0.000000000               0.000000000               0.000000000               0.000000000               0.000101611               0.000299619              -0.000001154               0.000000652               0.000099655               0.000100306               0.000000000               0.000000000               0.000000000               0.000000000               0.000123580               0.000369221               0.000000072               0.000000190               0.000123009               0.000123199               0.000000000               0.000000000               0.000000000               0.000000000               0.000143698               0.000436702               0.000001890              -0.000000701               0.000145800               0.000145099               0.000000000               0.000000000               0.000000000               0.000000000               0.000161451               0.000502866               0.000004844              -0.000002314               0.000168392               0.000166078               0.000000000               0.000000000               0.000000000               0.000000000               0.000175385               0.000569213               0.000008203              -0.000005382               0.000191530               0.000186148               0.000000000               0.000000000               0.000000000               0.000000000               0.000183900               0.000637801               0.000011629              -0.000010763               0.000216186               0.000205423               0.000000000               0.000000000               0.000000000               0.000000000               0.000186388               0.000708299               0.000014045              -0.000018642               0.000242311               0.000223669               0.000000000               0.000000000               0.000000000               0.000000000               0.000184723               0.000781450               0.000014325              -0.000028410               0.000269951               0.000241541               0.000000000               0.000000000               0.000000000               0.000000000               0.000179885               0.000854906               0.000011771              -0.000039406               0.000298101               0.000258695               0.000000000               0.000000000               0.000000000               0.000000000               0.000173427               0.000928771               0.000006694              -0.000051061               0.000326607               0.000275546               0.000000000               0.000000000               0.000000000               0.000000000               0.000163842               0.000962547               0.000000906              -0.000058878               0.000340472               0.000281594               0.000000000               0.000000000               0.000000000               0.000000000              -0.000000043              -0.000006393              -0.000005609               0.000000783              -0.000002392              -0.000001609               0.000000000               0.000000000               0.000000000               0.000000000               0.000003830               0.000004843              -0.000001058               0.000000831               0.000001337               0.000002168               0.000000000               0.000000000               0.000000000               0.000000000               0.000012885               0.000043586               0.000001160              -0.000000616               0.000014734               0.000014118               0.000000000               0.000000000               0.000000000               0.000000000               0.000035474               0.000108022               0.000000063              -0.000000200               0.000036074               0.000035874               0.000000000               0.000000000               0.000000000               0.000000000               0.000057922               0.000174082              -0.000000289              -0.000000039               0.000058040               0.000058000               0.000000000               0.000000000               0.000000000               0.000000000               0.000080707               0.000242356               0.000000496              -0.000000029               0.000080794               0.000080765               0.000000000               0.000000000               0.000000000               0.000000000               0.000105328               0.000311679              -0.000000578               0.000000538               0.000103713               0.000104251               0.000000000               0.000000000               0.000000000               0.000000000               0.000128202               0.000381543              -0.000000590               0.000000383               0.000127052               0.000127435               0.000000000               0.000000000               0.000000000               0.000000000               0.000149402               0.000449361              -0.000000115              -0.000000145               0.000149834               0.000149689               0.000000000               0.000000000               0.000000000               0.000000000               0.000170051               0.000517084               0.000001063              -0.000000866               0.000172648               0.000171782               0.000000000               0.000000000               0.000000000               0.000000000               0.000188602               0.000582726               0.000002668              -0.000002115               0.000194945               0.000192830               0.000000000               0.000000000               0.000000000               0.000000000               0.000204826               0.000649662               0.000004653              -0.000004398               0.000218018               0.000213620               0.000000000               0.000000000               0.000000000               0.000000000               0.000217003               0.000717512               0.000006512              -0.000008313               0.000241939               0.000233626               0.000000000               0.000000000               0.000000000               0.000000000               0.000225450               0.000787590               0.000007826              -0.000013905               0.000267163               0.000253258               0.000000000               0.000000000               0.000000000               0.000000000               0.000230725               0.000858418               0.000007467              -0.000020780               0.000293063               0.000272283               0.000000000               0.000000000               0.000000000               0.000000000               0.000234019               0.000930529               0.000005101              -0.000028559               0.000319693               0.000291134               0.000000000               0.000000000               0.000000000               0.000000000               0.000230563               0.000964337               0.000001466              -0.000034081               0.000332803               0.000298722               0.000000000               0.000000000               0.000000000               0.000000000               0.000001481               0.000004673              -0.000005483              -0.000000029               0.000001567               0.000001539               0.000000000               0.000000000               0.000000000               0.000000000               0.000007136               0.000016208              -0.000002484               0.000000650               0.000005186               0.000005836               0.000000000               0.000000000               0.000000000               0.000000000               0.000018204               0.000055894               0.000001566              -0.000000160               0.000018685               0.000018524               0.000000000               0.000000000               0.000000000               0.000000000               0.000038957               0.000118506               0.000000377              -0.000000204               0.000039570               0.000039365               0.000000000               0.000000000               0.000000000               0.000000000               0.000063012               0.000187879              -0.000000858               0.000000145               0.000062577               0.000062722               0.000000000               0.000000000               0.000000000               0.000000000               0.000083567               0.000253209               0.000000184              -0.000000314               0.000084507               0.000084193               0.000000000               0.000000000               0.000000000               0.000000000               0.000106609               0.000320133              -0.000000067              -0.000000038               0.000106723               0.000106684               0.000000000               0.000000000               0.000000000               0.000000000               0.000130724               0.000389530              -0.000000389               0.000000330               0.000129732               0.000130062               0.000000000               0.000000000               0.000000000               0.000000000               0.000153160               0.000457595              -0.000000370               0.000000236               0.000152452               0.000152687               0.000000000               0.000000000               0.000000000               0.000000000               0.000175434               0.000526137              -0.000000304               0.000000020               0.000175371               0.000175391               0.000000000               0.000000000               0.000000000               0.000000000               0.000196889               0.000593057              -0.000000095              -0.000000299               0.000197783               0.000197485               0.000000000               0.000000000               0.000000000               0.000000000               0.000217511               0.000659555               0.000000537              -0.000000878               0.000220142               0.000219264               0.000000000               0.000000000               0.000000000               0.000000000               0.000236423               0.000725820               0.000001182              -0.000002069               0.000242627               0.000240558               0.000000000               0.000000000               0.000000000               0.000000000               0.000253249               0.000793511               0.000001984              -0.000004221               0.000265908               0.000261687               0.000000000               0.000000000               0.000000000               0.000000000               0.000267688               0.000861999               0.000002325              -0.000007367               0.000289786               0.000282419               0.000000000               0.000000000               0.000000000               0.000000000               0.000280759               0.000931811               0.000001879              -0.000011192               0.000314331               0.000303139               0.000000000               0.000000000               0.000000000               0.000000000               0.000284588               0.000965072               0.000000470              -0.000013913               0.000326325               0.000312412               0.000000000               0.000000000               0.000000000               0.000000000               0.000003808               0.000013595              -0.000003247              -0.000000271               0.000004622               0.000004351               0.000000000               0.000000000               0.000000000               0.000000000               0.000010402               0.000028732              -0.000003179               0.000000309               0.000009474               0.000009783               0.000000000               0.000000000               0.000000000               0.000000000               0.000022354               0.000066725               0.000001156               0.000000042               0.000022227               0.000022270               0.000000000               0.000000000               0.000000000               0.000000000               0.000040612               0.000124849               0.000001455              -0.000000377               0.000041741               0.000041365               0.000000000               0.000000000               0.000000000               0.000000000               0.000066226               0.000197250              -0.000000883               0.000000179               0.000065690               0.000065868               0.000000000               0.000000000               0.000000000               0.000000000               0.000087803               0.000262609              -0.000000336               0.000000100               0.000087502               0.000087602               0.000000000               0.000000000               0.000000000               0.000000000               0.000109567               0.000328437               0.000000156               0.000000033               0.000109467               0.000109500               0.000000000               0.000000000               0.000000000               0.000000000               0.000132931               0.000396717              -0.000000139               0.000000260               0.000132151               0.000132411               0.000000000               0.000000000               0.000000000               0.000000000               0.000155221               0.000463615              -0.000000167               0.000000256               0.000154451               0.000154707               0.000000000               0.000000000               0.000000000               0.000000000               0.000177529               0.000531382              -0.000000216               0.000000151               0.000177075               0.000177226               0.000000000               0.000000000               0.000000000               0.000000000               0.000200062               0.000598917              -0.000000462               0.000000159               0.000199584               0.000199743               0.000000000               0.000000000               0.000000000               0.000000000               0.000222623               0.000665773              -0.000000578               0.000000262               0.000221835               0.000222097               0.000000000               0.000000000               0.000000000               0.000000000               0.000244854               0.000731928              -0.000000641               0.000000329               0.000243864               0.000244193               0.000000000               0.000000000               0.000000000               0.000000000               0.000266460               0.000798344              -0.000000519               0.000000130               0.000266069               0.000266198               0.000000000               0.000000000               0.000000000               0.000000000               0.000286936               0.000865189              -0.000000339              -0.000000548               0.000288576               0.000288028               0.000000000               0.000000000               0.000000000               0.000000000               0.000306395               0.000933061              -0.000000055              -0.000001735               0.000311596               0.000309861               0.000000000               0.000000000               0.000000000               0.000000000               0.000314615               0.000965462              -0.000000277              -0.000002702               0.000322718               0.000320016               0.000000000               0.000000000               0.000000000               0.000000000               0.000004862               0.000015213              -0.000000898              -0.000000078               0.000005097               0.000005019               0.000000000               0.000000000               0.000000000               0.000000000               0.000013504               0.000036500              -0.000002844               0.000000502               0.000011999               0.000012501               0.000000000               0.000000000               0.000000000               0.000000000               0.000026351               0.000076200              -0.000000965               0.000000357               0.000025281               0.000025638               0.000000000               0.000000000               0.000000000               0.000000000               0.000042378               0.000130212               0.000001281              -0.000000385               0.000043532               0.000043147               0.000000000               0.000000000               0.000000000               0.000000000               0.000067427               0.000203296               0.000000002              -0.000000127               0.000067807               0.000067680               0.000000000               0.000000000               0.000000000               0.000000000               0.000090039               0.000270254              -0.000000055              -0.000000017               0.000090090               0.000090072               0.000000000               0.000000000               0.000000000               0.000000000               0.000110756               0.000333860               0.000000449              -0.000000199               0.000111352               0.000111153               0.000000000               0.000000000               0.000000000               0.000000000               0.000133525               0.000401315              -0.000000013              -0.000000093               0.000133801               0.000133709               0.000000000               0.000000000               0.000000000               0.000000000               0.000156505               0.000468145              -0.000000083               0.000000171               0.000155990               0.000156161               0.000000000               0.000000000               0.000000000               0.000000000               0.000178701               0.000534132               0.000000003               0.000000246               0.000177960               0.000178206               0.000000000               0.000000000               0.000000000               0.000000000               0.000200979               0.000601471              -0.000000083               0.000000183               0.000200427               0.000200611               0.000000000               0.000000000               0.000000000               0.000000000               0.000223405               0.000668746              -0.000000216               0.000000184               0.000222852               0.000223035               0.000000000               0.000000000               0.000000000               0.000000000               0.000246167               0.000735487              -0.000000385               0.000000377               0.000245034               0.000245411               0.000000000               0.000000000               0.000000000               0.000000000               0.000269223               0.000801910              -0.000000457               0.000000720               0.000267061               0.000267781               0.000000000               0.000000000               0.000000000               0.000000000               0.000292171               0.000868052              -0.000000425               0.000001058               0.000288995               0.000290053               0.000000000               0.000000000               0.000000000               0.000000000               0.000314626               0.000934491              -0.000000224               0.000001173               0.000311103               0.000312276               0.000000000               0.000000000               0.000000000               0.000000000               0.000324892               0.000966060              -0.000000161               0.000001077               0.000321658               0.000322735               0.000000000               0.000000000               0.000000000               0.000000000               0.000004377               0.000016304              -0.000000842              -0.000000397               0.000005567               0.000005170               0.000000000               0.000000000               0.000000000               0.000000000               0.000012716               0.000040696              -0.000001273              -0.000000319               0.000013672               0.000013353               0.000000000               0.000000000               0.000000000               0.000000000               0.000028683               0.000082995              -0.000000218               0.000000382               0.000027538               0.000027919               0.000000000               0.000000000               0.000000000               0.000000000               0.000045091               0.000135014               0.000000810               0.000000032               0.000044993               0.000045026               0.000000000               0.000000000               0.000000000               0.000000000               0.000068434               0.000206531              -0.000000252              -0.000000153               0.000068894               0.000068741               0.000000000               0.000000000               0.000000000               0.000000000               0.000091391               0.000274589              -0.000000651              -0.000000052               0.000091546               0.000091494               0.000000000               0.000000000               0.000000000               0.000000000               0.000112144               0.000337394               0.000000010              -0.000000120               0.000112504               0.000112383               0.000000000               0.000000000               0.000000000               0.000000000               0.000134302               0.000404029               0.000000131              -0.000000140               0.000134722               0.000134581               0.000000000               0.000000000               0.000000000               0.000000000               0.000157086               0.000471381               0.000000109              -0.000000015               0.000157131               0.000157115               0.000000000               0.000000000               0.000000000               0.000000000               0.000179098               0.000536607               0.000000134               0.000000086               0.000178838               0.000178924               0.000000000               0.000000000               0.000000000               0.000000000               0.000201240               0.000603083               0.000000202               0.000000080               0.000200999               0.000201079               0.000000000               0.000000000               0.000000000               0.000000000               0.000223325               0.000669820               0.000000284               0.000000019               0.000223265               0.000223284               0.000000000               0.000000000               0.000000000               0.000000000               0.000245466               0.000736430               0.000000297              -0.000000004               0.000245476               0.000245471               0.000000000               0.000000000               0.000000000               0.000000000               0.000267836               0.000802940               0.000000199               0.000000071               0.000267620               0.000267691               0.000000000               0.000000000               0.000000000               0.000000000               0.000290348               0.000869182               0.000000075               0.000000233               0.000289647               0.000289880               0.000000000               0.000000000               0.000000000               0.000000000               0.000312908               0.000935229               0.000000013               0.000000437               0.000311594               0.000312031               0.000000000               0.000000000               0.000000000               0.000000000               0.000323638               0.000966487               0.000000036               0.000000553               0.000321975               0.000322528               0.000000000               0.000000000               0.000000000               0.000000000               0.000004194               0.000020091              -0.000000000              -0.000000939               0.000007010               0.000006071               0.000000000               0.000000000               0.000000000               0.000000000               0.000011279               0.000044673              -0.000000000              -0.000001354               0.000015342               0.000013988               0.000000000               0.000000000               0.000000000               0.000000000               0.000029086               0.000085211               0.000000000               0.000000256               0.000028318               0.000028574               0.000000000               0.000000000               0.000000000               0.000000000               0.000045747               0.000134288               0.000000000               0.000000369               0.000044639               0.000045008               0.000000000               0.000000000               0.000000000               0.000000000               0.000068763               0.000206779              -0.000000000              -0.000000061               0.000068946               0.000068885               0.000000000               0.000000000               0.000000000               0.000000000               0.000092876               0.000276900              -0.000000000               0.000000216               0.000092227               0.000092443               0.000000000               0.000000000               0.000000000               0.000000000               0.000114013               0.000338927               0.000000000               0.000000389               0.000112845               0.000113234               0.000000000               0.000000000               0.000000000               0.000000000               0.000135338               0.000404700               0.000000000               0.000000164               0.000134844               0.000135008               0.000000000               0.000000000               0.000000000               0.000000000               0.000157129               0.000472778              -0.000000000              -0.000000174               0.000157649               0.000157475               0.000000000               0.000000000               0.000000000               0.000000000               0.000178726               0.000538340               0.000000000              -0.000000270               0.000179535               0.000179265               0.000000000               0.000000000               0.000000000               0.000000000               0.000200972               0.000604171               0.000000000              -0.000000157               0.000201441               0.000201284               0.000000000               0.000000000               0.000000000               0.000000000               0.000223077               0.000669758               0.000000000              -0.000000066               0.000223272               0.000223207               0.000000000               0.000000000               0.000000000               0.000000000               0.000244761               0.000735506               0.000000000              -0.000000153               0.000245217               0.000245064               0.000000000               0.000000000               0.000000000               0.000000000               0.000266305               0.000801863               0.000000000              -0.000000369               0.000267408               0.000267039               0.000000000               0.000000000               0.000000000               0.000000000               0.000287981               0.000868523              -0.000000000              -0.000000572               0.000289695               0.000289123               0.000000000               0.000000000               0.000000000               0.000000000               0.000309920               0.000935012              -0.000000000              -0.000000656               0.000311886               0.000311230               0.000000000               0.000000000               0.000000000               0.000000000               0.000320463               0.000966428               0.000000000              -0.000000630               0.000322349               0.000321720               0.000000000               0.000000000               0.000000000               0.000000000               0.000002167               0.000003331              -0.000000000               0.000000396               0.000000978               0.000001374               0.000000000               0.000000000               0.000000000               0.000000000               0.000002350               0.000000237               0.000000000               0.000000851              -0.000000205               0.000000647               0.000000000               0.000000000               0.000000000               0.000000000               0.000002757              -0.000000256               0.000000000               0.000001066              -0.000000441               0.000000625               0.000000000               0.000000000               0.000000000               0.000000000               0.000000494              -0.000002399              -0.000000000               0.000000485              -0.000000962              -0.000000476               0.000000000               0.000000000               0.000000000               0.000000000              -0.000002912              -0.000004342              -0.000000000              -0.000000549              -0.000001264              -0.000001814               0.000000000               0.000000000               0.000000000               0.000000000              -0.000005417              -0.000004380               0.000000000              -0.000001484              -0.000000965              -0.000002449               0.000000000               0.000000000               0.000000000               0.000000000              -0.000004803              -0.000001906              -0.000000000              -0.000001563              -0.000000114              -0.000001677               0.000000000               0.000000000               0.000000000               0.000000000              -0.000001234               0.000001932              -0.000000000              -0.000000704               0.000000879               0.000000175               0.000000000               0.000000000               0.000000000               0.000000000               0.000003478               0.000005709               0.000000000               0.000000591               0.000001706               0.000002297               0.000000000               0.000000000               0.000000000               0.000000000               0.000007281               0.000008330               0.000000000               0.000001689               0.000002213               0.000003903               0.000000000               0.000000000               0.000000000               0.000000000               0.000008993               0.000009300               0.000000000               0.000002210               0.000002363               0.000004573               0.000000000               0.000000000               0.000000000               0.000000000               0.000008218               0.000009483               0.000000000               0.000001896               0.000002529               0.000004425               0.000000000               0.000000000               0.000000000               0.000000000               0.000005164               0.000009588               0.000000000               0.000000738               0.000002950               0.000003688               0.000000000               0.000000000               0.000000000               0.000000000               0.000001131               0.000009382               0.000000000              -0.000000749               0.000003377               0.000002628               0.000000000               0.000000000               0.000000000               0.000000000              -0.000001839               0.000008273               0.000000000              -0.000001724               0.000003332               0.000001608               0.000000000               0.000000000               0.000000000               0.000000000              -0.000002188               0.000006230               0.000000000              -0.000001599               0.000002610               0.000001010               0.000000000               0.000000000               0.000000000               0.000000000              -0.000001828               0.000004558               0.000000000              -0.000001255               0.000001938               0.000000682               0.000000000               0.000000000               0.000000000               0.000000000              -0.000001063              -0.000000753               0.000001110              -0.000000304              -0.000000149              -0.000000454               0.000000000               0.000000000               0.000000000               0.000000000              -0.000001459              -0.000001140               0.000000067              -0.000000405              -0.000000245              -0.000000650               0.000000000               0.000000000               0.000000000               0.000000000              -0.000002210              -0.000001907              -0.000001476              -0.000000591              -0.000000439              -0.000001029               0.000000000               0.000000000               0.000000000               0.000000000              -0.000001559              -0.000001277              -0.000001772              -0.000000425              -0.000000284              -0.000000709               0.000000000               0.000000000               0.000000000               0.000000000               0.000000782               0.000000826              -0.000000643               0.000000190               0.000000212               0.000000402               0.000000000               0.000000000               0.000000000               0.000000000               0.000003055               0.000003270               0.000001109               0.000000737               0.000000844               0.000001581               0.000000000               0.000000000               0.000000000               0.000000000               0.000003742               0.000004282               0.000002672               0.000000868               0.000001138               0.000002006               0.000000000               0.000000000               0.000000000               0.000000000               0.000002833               0.000003544               0.000003202               0.000000619               0.000000975               0.000001594               0.000000000               0.000000000               0.000000000               0.000000000               0.000000991               0.000001300               0.000002472               0.000000209               0.000000364               0.000000573               0.000000000               0.000000000               0.000000000               0.000000000              -0.000001102              -0.000001788               0.000000796              -0.000000190              -0.000000533              -0.000000722               0.000000000               0.000000000               0.000000000               0.000000000              -0.000003158              -0.000004512              -0.000001087              -0.000000620              -0.000001297              -0.000001917               0.000000000               0.000000000               0.000000000               0.000000000              -0.000004918              -0.000006556              -0.000002481              -0.000001025              -0.000001844              -0.000002868               0.000000000               0.000000000               0.000000000               0.000000000              -0.000005718              -0.000008461              -0.000003248              -0.000001087              -0.000002458              -0.000003545               0.000000000               0.000000000               0.000000000               0.000000000              -0.000005048              -0.000010775              -0.000003494              -0.000000546              -0.000003410              -0.000003956               0.000000000               0.000000000               0.000000000               0.000000000              -0.000003191              -0.000013717              -0.000003239               0.000000518              -0.000004745              -0.000004227               0.000000000               0.000000000               0.000000000               0.000000000              -0.000001238              -0.000016959              -0.000002125               0.000001656              -0.000006205              -0.000004549               0.000000000               0.000000000               0.000000000               0.000000000              -0.000000657              -0.000019104              -0.000001060               0.000002142              -0.000007082              -0.000004940               0.000000000               0.000000000               0.000000000               0.000000000              -0.000002584              -0.000005113              -0.000001651              -0.000000330              -0.000001595              -0.000001924               0.000000000               0.000000000               0.000000000               0.000000000              -0.000001992              -0.000001793              -0.000001043              -0.000000523              -0.000000423              -0.000000946               0.000000000               0.000000000               0.000000000               0.000000000              -0.000000504               0.000000203               0.000000939              -0.000000214               0.000000139              -0.000000075               0.000000000               0.000000000               0.000000000               0.000000000               0.000001914               0.000004157               0.000001938               0.000000198               0.000001320               0.000001518               0.000000000               0.000000000               0.000000000               0.000000000               0.000002495               0.000005897               0.000001740               0.000000198               0.000001899               0.000002098               0.000000000               0.000000000               0.000000000               0.000000000               0.000002474               0.000004287               0.000000713               0.000000392               0.000001298               0.000001690               0.000000000               0.000000000               0.000000000               0.000000000               0.000001315              -0.000000206              -0.000001021               0.000000519              -0.000000241               0.000000277               0.000000000               0.000000000               0.000000000               0.000000000              -0.000001453              -0.000006236              -0.000002677               0.000000235              -0.000002157              -0.000001922               0.000000000               0.000000000               0.000000000               0.000000000              -0.000005041              -0.000011813              -0.000003799              -0.000000414              -0.000003800              -0.000004214               0.000000000               0.000000000               0.000000000               0.000000000              -0.000008361              -0.000014935              -0.000003857              -0.000001268              -0.000004555              -0.000005824               0.000000000               0.000000000               0.000000000               0.000000000              -0.000010195              -0.000015432              -0.000002804              -0.000001894              -0.000004513              -0.000006407               0.000000000               0.000000000               0.000000000               0.000000000              -0.000009367              -0.000014959              -0.000001371              -0.000001643              -0.000004439              -0.000006081               0.000000000               0.000000000               0.000000000               0.000000000              -0.000005686              -0.000014683              -0.000000150              -0.000000297              -0.000004795              -0.000005092               0.000000000               0.000000000               0.000000000               0.000000000              -0.000000570              -0.000014447               0.000000613               0.000001592              -0.000005346              -0.000003754               0.000000000               0.000000000               0.000000000               0.000000000               0.000003383              -0.000012708               0.000000967               0.000002857              -0.000005188              -0.000002331               0.000000000               0.000000000               0.000000000               0.000000000               0.000003414              -0.000007539               0.000001046               0.000002223              -0.000003254              -0.000001031               0.000000000               0.000000000               0.000000000               0.000000000               0.000003848              -0.000000834              -0.000000039               0.000001547              -0.000000794               0.000000753               0.000000000               0.000000000               0.000000000               0.000000000               0.000001691              -0.000000986               0.000001026               0.000000757              -0.000000581               0.000000176               0.000000000               0.000000000               0.000000000               0.000000000               0.000002150               0.000002146               0.000001070               0.000000538               0.000000536               0.000001074               0.000000000               0.000000000               0.000000000               0.000000000               0.000002418               0.000004943               0.000000691               0.000000289               0.000001551               0.000001840               0.000000000               0.000000000               0.000000000               0.000000000               0.000001815               0.000004474              -0.000000141               0.000000121               0.000001451               0.000001572               0.000000000               0.000000000               0.000000000               0.000000000              -0.000000259              -0.000000662              -0.000000851              -0.000000014              -0.000000216              -0.000000230               0.000000000               0.000000000               0.000000000               0.000000000              -0.000003638              -0.000008156              -0.000001480              -0.000000345              -0.000002604              -0.000002948               0.000000000               0.000000000               0.000000000               0.000000000              -0.000006500              -0.000013863              -0.000002096              -0.000000705              -0.000004386              -0.000005091               0.000000000               0.000000000               0.000000000               0.000000000              -0.000007234              -0.000014946              -0.000002209              -0.000000845              -0.000004700              -0.000005545               0.000000000               0.000000000               0.000000000               0.000000000              -0.000005705              -0.000010006              -0.000001216              -0.000000889              -0.000003039              -0.000003928               0.000000000               0.000000000               0.000000000               0.000000000              -0.000001884              -0.000000268               0.000000687              -0.000000673               0.000000135              -0.000000538               0.000000000               0.000000000               0.000000000               0.000000000               0.000004192               0.000010824               0.000002305               0.000000219               0.000003535               0.000003754               0.000000000               0.000000000               0.000000000               0.000000000               0.000011836               0.000021473               0.000002888               0.000001754               0.000006573               0.000008327               0.000000000               0.000000000               0.000000000               0.000000000               0.000019191               0.000032371               0.000002335               0.000003150               0.000009740               0.000012890               0.000000000               0.000000000               0.000000000               0.000000000               0.000023409               0.000045834               0.000001107               0.000003049               0.000014261               0.000017311               0.000000000               0.000000000               0.000000000               0.000000000               0.000021847               0.000064715               0.000000102               0.000000103               0.000021537               0.000021640               0.000000000               0.000000000               0.000000000               0.000000000               0.000013035               0.000091177               0.000000056              -0.000006509               0.000032562               0.000026053               0.000000000               0.000000000               0.000000000               0.000000000               0.000012103               0.000115869              -0.000002742              -0.000009945               0.000041937               0.000031993               0.000000000               0.000000000               0.000000000               0.000000000               0.000002816               0.000006214               0.000002681               0.000000279               0.000001978               0.000002257               0.000000000               0.000000000               0.000000000               0.000000000               0.000002828               0.000006547               0.000000665               0.000000242               0.000002102               0.000002344               0.000000000               0.000000000               0.000000000               0.000000000               0.000001088               0.000004162              -0.000001031              -0.000000112               0.000001425               0.000001313               0.000000000               0.000000000               0.000000000               0.000000000              -0.000001710              -0.000004777              -0.000000404              -0.000000044              -0.000001578              -0.000001622               0.000000000               0.000000000               0.000000000               0.000000000              -0.000003867              -0.000012854              -0.000000661               0.000000157              -0.000004337              -0.000004180               0.000000000               0.000000000               0.000000000               0.000000000              -0.000005294              -0.000014232              -0.000000981              -0.000000206              -0.000004675              -0.000004882               0.000000000               0.000000000               0.000000000               0.000000000              -0.000003365              -0.000006315              -0.000000458              -0.000000473              -0.000001948              -0.000002420               0.000000000               0.000000000               0.000000000               0.000000000               0.000001876               0.000010532               0.000001000              -0.000000613               0.000003715               0.000003102               0.000000000               0.000000000               0.000000000               0.000000000               0.000010011               0.000033236               0.000002867              -0.000000400               0.000011212               0.000010812               0.000000000               0.000000000               0.000000000               0.000000000               0.000020285               0.000056955               0.000003518               0.000000488               0.000018822               0.000019310               0.000000000               0.000000000               0.000000000               0.000000000               0.000031565               0.000079216               0.000002044               0.000001935               0.000025760               0.000027695               0.000000000               0.000000000               0.000000000               0.000000000               0.000041766               0.000101310              -0.000001407               0.000002998               0.000032770               0.000035769               0.000000000               0.000000000               0.000000000               0.000000000               0.000047434               0.000125931              -0.000005746               0.000002047               0.000041294               0.000043341               0.000000000               0.000000000               0.000000000               0.000000000               0.000045973               0.000156097              -0.000009158              -0.000002272               0.000052789               0.000050517               0.000000000               0.000000000               0.000000000               0.000000000               0.000036632               0.000193097              -0.000009960              -0.000010400               0.000067832               0.000057432               0.000000000               0.000000000               0.000000000               0.000000000               0.000020189               0.000236395              -0.000006801              -0.000021978               0.000086124               0.000064145               0.000000000               0.000000000               0.000000000               0.000000000               0.000017632               0.000271272              -0.000008230              -0.000027297               0.000099522               0.000072225               0.000000000               0.000000000               0.000000000               0.000000000               0.000002030               0.000010058              -0.000000426              -0.000000496               0.000003518               0.000003022               0.000000000               0.000000000               0.000000000               0.000000000               0.000001693               0.000004199              -0.000000450               0.000000110               0.000001363               0.000001473               0.000000000               0.000000000               0.000000000               0.000000000              -0.000001686              -0.000006617               0.000000027               0.000000195              -0.000002271              -0.000002076               0.000000000               0.000000000               0.000000000               0.000000000              -0.000005998              -0.000015552               0.000000047              -0.000000305              -0.000005082              -0.000005388               0.000000000               0.000000000               0.000000000               0.000000000              -0.000004953              -0.000010621              -0.000000453              -0.000000530              -0.000003364              -0.000003894               0.000000000               0.000000000               0.000000000               0.000000000               0.000001835               0.000008128               0.000000067              -0.000000328               0.000002819               0.000002491               0.000000000               0.000000000               0.000000000               0.000000000               0.000012987               0.000037905               0.000001118               0.000000132               0.000012591               0.000012723               0.000000000               0.000000000               0.000000000               0.000000000               0.000026337               0.000073859               0.000002394               0.000000644               0.000024405               0.000025049               0.000000000               0.000000000               0.000000000               0.000000000               0.000040039               0.000110579               0.000002239               0.000001192               0.000036462               0.000037654               0.000000000               0.000000000               0.000000000               0.000000000               0.000053322               0.000144895              -0.000000609               0.000001884               0.000047670               0.000049554               0.000000000               0.000000000               0.000000000               0.000000000               0.000064800               0.000178050              -0.000006128               0.000002044               0.000058668               0.000060712               0.000000000               0.000000000               0.000000000               0.000000000               0.000070866               0.000212978              -0.000012855              -0.000000047               0.000071008               0.000070960               0.000000000               0.000000000               0.000000000               0.000000000               0.000069296               0.000252675              -0.000018467              -0.000005598               0.000086090               0.000080492               0.000000000               0.000000000               0.000000000               0.000000000               0.000059767               0.000297940              -0.000020908              -0.000014830               0.000104256               0.000089426               0.000000000               0.000000000               0.000000000               0.000000000               0.000043470               0.000346692              -0.000018905              -0.000027035               0.000124575               0.000097539               0.000000000               0.000000000               0.000000000               0.000000000               0.000022715               0.000395986              -0.000011715              -0.000040980               0.000145654               0.000104674               0.000000000               0.000000000               0.000000000               0.000000000               0.000018508               0.000431117              -0.000010836              -0.000046949               0.000159354               0.000112405               0.000000000               0.000000000               0.000000000               0.000000000              -0.000000225               0.000005285              -0.000003026              -0.000000745               0.000002010               0.000001265               0.000000000               0.000000000               0.000000000               0.000000000              -0.000002829              -0.000006856              -0.000000196              -0.000000204              -0.000002217              -0.000002421               0.000000000               0.000000000               0.000000000               0.000000000              -0.000004746              -0.000016112               0.000000331               0.000000234              -0.000005449              -0.000005215               0.000000000               0.000000000               0.000000000               0.000000000              -0.000002582              -0.000007946              -0.000000462               0.000000025              -0.000002657              -0.000002632               0.000000000               0.000000000               0.000000000               0.000000000               0.000006680               0.000019025               0.000000359               0.000000127               0.000006299               0.000006426               0.000000000               0.000000000               0.000000000               0.000000000               0.000020920               0.000059397               0.000001127               0.000000420               0.000019659               0.000020079               0.000000000               0.000000000               0.000000000               0.000000000               0.000036971               0.000106921               0.000002112               0.000000499               0.000035473               0.000035973               0.000000000               0.000000000               0.000000000               0.000000000               0.000053805               0.000156000               0.000001905               0.000000677               0.000051774               0.000052451               0.000000000               0.000000000               0.000000000               0.000000000               0.000069897               0.000202834              -0.000001149               0.000000857               0.000067325               0.000068182               0.000000000               0.000000000               0.000000000               0.000000000               0.000083634               0.000247169              -0.000007366               0.000000466               0.000082233               0.000082700               0.000000000               0.000000000               0.000000000               0.000000000               0.000091495               0.000292426              -0.000015461              -0.000002243               0.000098222               0.000095979               0.000000000               0.000000000               0.000000000               0.000000000               0.000091245               0.000341656              -0.000022833              -0.000008490               0.000116714               0.000108224               0.000000000               0.000000000               0.000000000               0.000000000               0.000082193               0.000395756              -0.000027079              -0.000018647               0.000138133               0.000119486               0.000000000               0.000000000               0.000000000               0.000000000               0.000065866               0.000452110              -0.000026957              -0.000031814               0.000161307               0.000129493               0.000000000               0.000000000               0.000000000               0.000000000               0.000045031               0.000507486              -0.000022193              -0.000046549               0.000184677               0.000138128               0.000000000               0.000000000               0.000000000               0.000000000               0.000022677               0.000558156              -0.000012970              -0.000061266               0.000206472               0.000145206               0.000000000               0.000000000               0.000000000               0.000000000               0.000017189               0.000591011              -0.000010818              -0.000067430               0.000219478               0.000152048               0.000000000               0.000000000               0.000000000               0.000000000              -0.000005488              -0.000009563              -0.000003892              -0.000000862              -0.000002900              -0.000003763               0.000000000               0.000000000               0.000000000               0.000000000              -0.000007278              -0.000017594              -0.000000296              -0.000000530              -0.000005688              -0.000006218               0.000000000               0.000000000               0.000000000               0.000000000              -0.000002409              -0.000010035               0.000000332               0.000000351              -0.000003462              -0.000003111               0.000000000               0.000000000               0.000000000               0.000000000               0.000006979               0.000019714              -0.000000080               0.000000153               0.000006520               0.000006673               0.000000000               0.000000000               0.000000000               0.000000000               0.000023062               0.000067687               0.000000578               0.000000187               0.000022500               0.000022687               0.000000000               0.000000000               0.000000000               0.000000000               0.000044522               0.000126765               0.000001253               0.000000850               0.000041971               0.000042821               0.000000000               0.000000000               0.000000000               0.000000000               0.000065562               0.000187311               0.000001497               0.000001172               0.000062046               0.000063218               0.000000000               0.000000000               0.000000000               0.000000000               0.000084567               0.000246247              -0.000000677               0.000000932               0.000081771               0.000082702               0.000000000               0.000000000               0.000000000               0.000000000               0.000100350               0.000301470              -0.000005831              -0.000000052               0.000100506               0.000100454               0.000000000               0.000000000               0.000000000               0.000000000               0.000110975               0.000356946              -0.000013733              -0.000003003               0.000119982               0.000116979               0.000000000               0.000000000               0.000000000               0.000000000               0.000113198               0.000415720              -0.000021823              -0.000009516               0.000141744               0.000132228               0.000000000               0.000000000               0.000000000               0.000000000               0.000105928               0.000479315              -0.000027456              -0.000020191               0.000166501               0.000146309               0.000000000               0.000000000               0.000000000               0.000000000               0.000090504               0.000545422              -0.000028902              -0.000034239               0.000193218               0.000158980               0.000000000               0.000000000               0.000000000               0.000000000               0.000069944               0.000610976              -0.000025976              -0.000050143               0.000220371               0.000170228               0.000000000               0.000000000               0.000000000               0.000000000               0.000046915               0.000672246              -0.000019288              -0.000066437               0.000246226               0.000179788               0.000000000               0.000000000               0.000000000               0.000000000               0.000023793               0.000725939              -0.000010471              -0.000081820               0.000269251               0.000187431               0.000000000               0.000000000               0.000000000               0.000000000               0.000016002               0.000758662              -0.000008527              -0.000088832               0.000282496               0.000193664               0.000000000               0.000000000               0.000000000               0.000000000              -0.000008868              -0.000023640              -0.000003208              -0.000000370              -0.000007757              -0.000008127               0.000000000               0.000000000               0.000000000               0.000000000              -0.000008049              -0.000018960              -0.000000934              -0.000000648              -0.000006104              -0.000006752               0.000000000               0.000000000               0.000000000               0.000000000               0.000002223               0.000005136               0.000000589               0.000000192               0.000001648               0.000001840               0.000000000               0.000000000               0.000000000               0.000000000               0.000017994               0.000052050               0.000001103               0.000000241               0.000017269               0.000017511               0.000000000               0.000000000               0.000000000               0.000000000               0.000039708               0.000115935               0.000002077               0.000000398               0.000038512               0.000038910               0.000000000               0.000000000               0.000000000               0.000000000               0.000063479               0.000184098               0.000003214               0.000000792               0.000061101               0.000061894               0.000000000               0.000000000               0.000000000               0.000000000               0.000085578               0.000252468               0.000002324               0.000000533               0.000083977               0.000084511               0.000000000               0.000000000               0.000000000               0.000000000               0.000104989               0.000316881              -0.000000518              -0.000000239               0.000105706               0.000105467               0.000000000               0.000000000               0.000000000               0.000000000               0.000121130               0.000379352              -0.000006018              -0.000001995               0.000127115               0.000125119               0.000000000               0.000000000               0.000000000               0.000000000               0.000130364               0.000443305              -0.000012913              -0.000006526               0.000149942               0.000143416               0.000000000               0.000000000               0.000000000               0.000000000               0.000130678               0.000512489              -0.000019512              -0.000015057               0.000175847               0.000160790               0.000000000               0.000000000               0.000000000               0.000000000               0.000122239               0.000586190              -0.000023479              -0.000027434               0.000204539               0.000177105               0.000000000               0.000000000               0.000000000               0.000000000               0.000107688               0.000662120              -0.000023577              -0.000042382               0.000234832               0.000192450               0.000000000               0.000000000               0.000000000               0.000000000               0.000089430               0.000736289              -0.000019593              -0.000058500               0.000264927               0.000206427               0.000000000               0.000000000               0.000000000               0.000000000               0.000069990               0.000805834              -0.000012917              -0.000074483               0.000293436               0.000218954               0.000000000               0.000000000               0.000000000               0.000000000               0.000050929               0.000867832              -0.000005417              -0.000089381               0.000319068               0.000229687               0.000000000               0.000000000               0.000000000               0.000000000               0.000039410               0.000899856              -0.000002235              -0.000097703               0.000332517               0.000234814               0.000000000               0.000000000               0.000000000               0.000000000              -0.000006559              -0.000026718              -0.000000323               0.000000880              -0.000009199              -0.000008319               0.000000000               0.000000000               0.000000000               0.000000000              -0.000005620              -0.000013360              -0.000001529              -0.000000438              -0.000004308              -0.000004745               0.000000000               0.000000000               0.000000000               0.000000000               0.000005657               0.000019399              -0.000000111              -0.000000303               0.000006567               0.000006264               0.000000000               0.000000000               0.000000000               0.000000000               0.000026305               0.000076911               0.000000383               0.000000251               0.000025553               0.000025804               0.000000000               0.000000000               0.000000000               0.000000000               0.000048025               0.000143313               0.000000125               0.000000095               0.000047739               0.000047834               0.000000000               0.000000000               0.000000000               0.000000000               0.000073126               0.000213939               0.000001297               0.000000680               0.000071086               0.000071766               0.000000000               0.000000000               0.000000000               0.000000000               0.000096528               0.000285480               0.000001009               0.000000513               0.000094988               0.000095501               0.000000000               0.000000000               0.000000000               0.000000000               0.000116922               0.000353343              -0.000001151              -0.000000322               0.000117887               0.000117565               0.000000000               0.000000000               0.000000000               0.000000000               0.000135172               0.000420024              -0.000005318              -0.000001813               0.000140611               0.000138798               0.000000000               0.000000000               0.000000000               0.000000000               0.000148418               0.000485390              -0.000010264              -0.000005017               0.000163468               0.000158450               0.000000000               0.000000000               0.000000000               0.000000000               0.000154744               0.000553657              -0.000015429              -0.000011178               0.000188276               0.000177098               0.000000000               0.000000000               0.000000000               0.000000000               0.000153070               0.000625069              -0.000019266              -0.000020732               0.000215265               0.000194533               0.000000000               0.000000000               0.000000000               0.000000000               0.000145240               0.000699778              -0.000020534              -0.000033007               0.000244259               0.000211252               0.000000000               0.000000000               0.000000000               0.000000000               0.000133362               0.000775459              -0.000018183              -0.000046921               0.000274124               0.000227203               0.000000000               0.000000000               0.000000000               0.000000000               0.000119674               0.000851206              -0.000013021              -0.000061523               0.000304240               0.000242717               0.000000000               0.000000000               0.000000000               0.000000000               0.000106253               0.000925425              -0.000005980              -0.000075833               0.000333750               0.000257917               0.000000000               0.000000000               0.000000000               0.000000000               0.000093675               0.000959839               0.000000095              -0.000084851               0.000348227               0.000263375               0.000000000               0.000000000               0.000000000               0.000000000              -0.000002141              -0.000018300               0.000003509               0.000001484              -0.000006595              -0.000005110               0.000000000               0.000000000               0.000000000               0.000000000              -0.000001012              -0.000004962              -0.000000717               0.000000241              -0.000001734              -0.000001494               0.000000000               0.000000000               0.000000000               0.000000000               0.000008227               0.000031245              -0.000000897              -0.000000821               0.000010689               0.000009868               0.000000000               0.000000000               0.000000000               0.000000000               0.000031749               0.000094429               0.000000266               0.000000102               0.000031442               0.000031544               0.000000000               0.000000000               0.000000000               0.000000000               0.000053056               0.000159346               0.000000286              -0.000000022               0.000053122               0.000053100               0.000000000               0.000000000               0.000000000               0.000000000               0.000077270               0.000229408               0.000000510               0.000000300               0.000076369               0.000076669               0.000000000               0.000000000               0.000000000               0.000000000               0.000101611               0.000299619               0.000001154               0.000000652               0.000099655               0.000100306               0.000000000               0.000000000               0.000000000               0.000000000               0.000123580               0.000369221              -0.000000072               0.000000190               0.000123009               0.000123199               0.000000000               0.000000000               0.000000000               0.000000000               0.000143698               0.000436702              -0.000001890              -0.000000701               0.000145800               0.000145099               0.000000000               0.000000000               0.000000000               0.000000000               0.000161451               0.000502866              -0.000004844              -0.000002314               0.000168392               0.000166078               0.000000000               0.000000000               0.000000000               0.000000000               0.000175385               0.000569213              -0.000008203              -0.000005382               0.000191530               0.000186148               0.000000000               0.000000000               0.000000000               0.000000000               0.000183900               0.000637801              -0.000011629              -0.000010763               0.000216186               0.000205423               0.000000000               0.000000000               0.000000000               0.000000000               0.000186388               0.000708299              -0.000014045              -0.000018642               0.000242311               0.000223669               0.000000000               0.000000000               0.000000000               0.000000000               0.000184723               0.000781450              -0.000014325              -0.000028410               0.000269951               0.000241541               0.000000000               0.000000000               0.000000000               0.000000000               0.000179885               0.000854906              -0.000011771              -0.000039406               0.000298101               0.000258695               0.000000000               0.000000000               0.000000000               0.000000000               0.000173427               0.000928771              -0.000006694              -0.000051061               0.000326607               0.000275546               0.000000000               0.000000000               0.000000000               0.000000000               0.000163842               0.000962547              -0.000000906              -0.000058878               0.000340472               0.000281594               0.000000000               0.000000000               0.000000000               0.000000000              -0.000000043              -0.000006393               0.000005609               0.000000783              -0.000002392              -0.000001609               0.000000000               0.000000000               0.000000000               0.000000000               0.000003830               0.000004843               0.000001058               0.000000831               0.000001337               0.000002168               0.000000000               0.000000000               0.000000000               0.000000000               0.000012885               0.000043586              -0.000001160              -0.000000616               0.000014734               0.000014118               0.000000000               0.000000000               0.000000000               0.000000000               0.000035474               0.000108022              -0.000000063              -0.000000200               0.000036074               0.000035874               0.000000000               0.000000000               0.000000000               0.000000000               0.000057922               0.000174082               0.000000289              -0.000000039               0.000058040               0.000058000               0.000000000               0.000000000               0.000000000               0.000000000               0.000080707               0.000242356              -0.000000496              -0.000000029               0.000080794               0.000080765               0.000000000               0.000000000               0.000000000               0.000000000               0.000105328               0.000311679               0.000000578               0.000000538               0.000103713               0.000104251               0.000000000               0.000000000               0.000000000               0.000000000               0.000128202               0.000381543               0.000000590               0.000000383               0.000127052               0.000127435               0.000000000               0.000000000               0.000000000               0.000000000               0.000149402               0.000449361               0.000000115              -0.000000145               0.000149834               0.000149689               0.000000000               0.000000000               0.000000000               0.000000000               0.000170051               0.000517084              -0.000001063              -0.000000866               0.000172648               0.000171782               0.000000000               0.000000000               0.000000000               0.000000000               0.000188602               0.000582726              -0.000002668              -0.000002115               0.000194945               0.000192830               0.000000000               0.000000000               0.000000000               0.000000000               0.000204826               0.000649662              -0.000004653              -0.000004398               0.000218018               0.000213620               0.000000000               0.000000000               0.000000000               0.000000000               0.000217003               0.000717512              -0.000006512              -0.000008313               0.000241939               0.000233626               0.000000000               0.000000000               0.000000000               0.000000000               0.000225450               0.000787590              -0.000007826              -0.000013905               0.000267163               0.000253258               0.000000000               0.000000000               0.000000000               0.000000000               0.000230725               0.000858418              -0.000007467              -0.000020780               0.000293063               0.000272283               0.000000000               0.000000000               0.000000000               0.000000000               0.000234019               0.000930529              -0.000005101              -0.000028559               0.000319693               0.000291134               0.000000000               0.000000000               0.000000000               0.000000000               0.000230563               0.000964337              -0.000001466              -0.000034081               0.000332803               0.000298722               0.000000000               0.000000000               0.000000000               0.000000000               0.000001481               0.000004673               0.000005483              -0.000000029               0.000001567               0.000001539               0.000000000               0.000000000               0.000000000               0.000000000               0.000007136               0.000016208               0.000002484               0.000000650               0.000005186               0.000005836               0.000000000               0.000000000               0.000000000               0.000000000               0.000018204               0.000055894              -0.000001566              -0.000000160               0.000018685               0.000018524               0.000000000               0.000000000               0.000000000               0.000000000               0.000038957               0.000118506              -0.000000377              -0.000000204               0.000039570               0.000039365               0.000000000               0.000000000               0.000000000               0.000000000               0.000063012               0.000187879               0.000000858               0.000000145               0.000062577               0.000062722               0.000000000               0.000000000               0.000000000               0.000000000               0.000083567               0.000253209              -0.000000184              -0.000000314               0.000084507               0.000084193               0.000000000               0.000000000               0.000000000               0.000000000               0.000106609               0.000320133               0.000000067              -0.000000038               0.000106723               0.000106684               0.000000000               0.000000000               0.000000000               0.000000000               0.000130724               0.000389530               0.000000389               0.000000330               0.000129732               0.000130062               0.000000000               0.000000000               0.000000000               0.000000000               0.000153160               0.000457595               0.000000370               0.000000236               0.000152452               0.000152687               0.000000000               0.000000000               0.000000000               0.000000000               0.000175434               0.000526137               0.000000304               0.000000020               0.000175371               0.000175391               0.000000000               0.000000000               0.000000000               0.000000000               0.000196889               0.000593057               0.000000095              -0.000000299               0.000197783               0.000197485               0.000000000               0.000000000               0.000000000               0.000000000               0.000217511               0.000659555              -0.000000537              -0.000000878               0.000220142               0.000219264               0.000000000               0.000000000               0.000000000               0.000000000               0.000236423               0.000725820              -0.000001182              -0.000002069               0.000242627               0.000240558               0.000000000               0.000000000               0.000000000               0.000000000               0.000253249               0.000793511              -0.000001984              -0.000004221               0.000265908               0.000261687               0.000000000               0.000000000               0.000000000               0.000000000               0.000267688               0.000861999              -0.000002325              -0.000007367               0.000289786               0.000282419               0.000000000               0.000000000               0.000000000               0.000000000               0.000280759               0.000931811              -0.000001879              -0.000011192               0.000314331               0.000303139               0.000000000               0.000000000               0.000000000               0.000000000               0.000284588               0.000965072              -0.000000470              -0.000013913               0.000326325               0.000312412               0.000000000               0.000000000               0.000000000               0.000000000               0.000003808               0.000013595               0.000003247              -0.000000271               0.000004622               0.000004351               0.000000000               0.000000000               0.000000000               0.000000000               0.000010402               0.000028732               0.000003179               0.000000309               0.000009474               0.000009783               0.000000000               0.000000000               0.000000000               0.000000000               0.000022354               0.000066725              -0.000001156               0.000000042               0.000022227               0.000022270               0.000000000               0.000000000               0.000000000               0.000000000               0.000040612               0.000124849              -0.000001455              -0.000000377               0.000041741               0.000041365               0.000000000               0.000000000               0.000000000               0.000000000               0.000066226               0.000197250               0.000000883               0.000000179               0.000065690               0.000065868               0.000000000               0.000000000               0.000000000               0.000000000               0.000087803               0.000262609               0.000000336               0.000000100               0.000087502               0.000087602               0.000000000               0.000000000               0.000000000               0.000000000               0.000109567               0.000328437              -0.000000156               0.000000033               0.000109467               0.000109500               0.000000000               0.000000000               0.000000000               0.000000000               0.000132931               0.000396717               0.000000139               0.000000260               0.000132151               0.000132411               0.000000000               0.000000000               0.000000000               0.000000000               0.000155221               0.000463615               0.000000167               0.000000256               0.000154451               0.000154707               0.000000000               0.000000000               0.000000000               0.000000000               0.000177529               0.000531382               0.000000216               0.000000151               0.000177075               0.000177226               0.000000000               0.000000000               0.000000000               0.000000000               0.000200062               0.000598917               0.000000462               0.000000159               0.000199584               0.000199743               0.000000000               0.000000000               0.000000000               0.000000000               0.000222623               0.000665773               0.000000578               0.000000262               0.000221835               0.000222097               0.000000000               0.000000000               0.000000000               0.000000000               0.000244854               0.000731928               0.000000641               0.000000329               0.000243864               0.000244193               0.000000000               0.000000000               0.000000000               0.000000000               0.000266460               0.000798344               0.000000519               0.000000130               0.000266069               0.000266198               0.000000000               0.000000000               0.000000000               0.000000000               0.000286936               0.000865189               0.000000339              -0.000000548               0.000288576               0.000288028               0.000000000               0.000000000               0.000000000               0.000000000               0.000306395               0.000933061               0.000000055              -0.000001735               0.000311596               0.000309861               0.000000000               0.000000000               0.000000000               0.000000000               0.000314615               0.000965462               0.000000277              -0.000002702               0.000322718               0.000320016               0.000000000               0.000000000               0.000000000               0.000000000               0.000004862               0.000015213               0.000000898              -0.000000078               0.000005097               0.000005019               0.000000000               0.000000000               0.000000000               0.000000000               0.000013504               0.000036500               0.000002844               0.000000502               0.000011999               0.000012501               0.000000000               0.000000000               0.000000000               0.000000000               0.000026351               0.000076200               0.000000965               0.000000357               0.000025281               0.000025638               0.000000000               0.000000000               0.000000000               0.000000000               0.000042378               0.000130212              -0.000001281              -0.000000385               0.000043532               0.000043147               0.000000000               0.000000000               0.000000000               0.000000000               0.000067427               0.000203296              -0.000000002              -0.000000127               0.000067807               0.000067680               0.000000000               0.000000000               0.000000000               0.000000000               0.000090039               0.000270254               0.000000055              -0.000000017               0.000090090               0.000090072               0.000000000               0.000000000               0.000000000               0.000000000               0.000110756               0.000333860              -0.000000449              -0.000000199               0.000111352               0.000111153               0.000000000               0.000000000               0.000000000               0.000000000               0.000133525               0.000401315               0.000000013              -0.000000093               0.000133801               0.000133709               0.000000000               0.000000000               0.000000000               0.000000000               0.000156505               0.000468145               0.000000083               0.000000171               0.000155990               0.000156161               0.000000000               0.000000000               0.000000000               0.000000000               0.000178701               0.000534132              -0.000000003               0.000000246               0.000177960               0.000178206               0.000000000               0.000000000               0.000000000               0.000000000               0.000200979               0.000601471               0.000000083               0.000000183               0.000200427               0.000200611               0.000000000               0.000000000               0.000000000               0.000000000               0.000223405               0.000668746               0.000000216               0.000000184               0.000222852               0.000223035               0.000000000               0.000000000               0.000000000               0.000000000               0.000246167               0.000735487               0.000000385               0.000000377               0.000245034               0.000245411               0.000000000               0.000000000               0.000000000               0.000000000               0.000269223               0.000801910               0.000000457               0.000000720               0.000267061               0.000267781               0.000000000               0.000000000               0.000000000               0.000000000               0.000292171               0.000868052               0.000000425               0.000001058               0.000288995               0.000290053               0.000000000               0.000000000               0.000000000               0.000000000               0.000314626               0.000934491               0.000000224               0.000001173               0.000311103               0.000312276               0.000000000               0.000000000               0.000000000               0.000000000               0.000324892               0.000966060               0.000000161               0.000001077               0.000321658               0.000322735               0.000000000               0.000000000               0.000000000               0.000000000               0.000004377               0.000016304               0.000000842              -0.000000397               0.000005567               0.000005170               0.000000000               0.000000000               0.000000000               0.000000000               0.000012716               0.000040696               0.000001273              -0.000000319               0.000013672               0.000013353               0.000000000               0.000000000               0.000000000               0.000000000               0.000028683               0.000082995               0.000000218               0.000000382               0.000027538               0.000027919               0.000000000               0.000000000               0.000000000               0.000000000               0.000045091               0.000135014              -0.000000810               0.000000032               0.000044993               0.000045026               0.000000000               0.000000000               0.000000000               0.000000000               0.000068434               0.000206531               0.000000252              -0.000000153               0.000068894               0.000068741               0.000000000               0.000000000               0.000000000               0.000000000               0.000091391               0.000274589               0.000000651              -0.000000052               0.000091546               0.000091494               0.000000000               0.000000000               0.000000000               0.000000000               0.000112144               0.000337394              -0.000000010              -0.000000120               0.000112504               0.000112383               0.000000000               0.000000000               0.000000000               0.000000000               0.000134302               0.000404029              -0.000000131              -0.000000140               0.000134722               0.000134581               0.000000000               0.000000000               0.000000000               0.000000000               0.000157086               0.000471381              -0.000000109              -0.000000015               0.000157131               0.000157115               0.000000000               0.000000000               0.000000000               0.000000000               0.000179098               0.000536607              -0.000000134               0.000000086               0.000178838               0.000178924               0.000000000               0.000000000               0.000000000               0.000000000               0.000201240               0.000603083              -0.000000202               0.000000080               0.000200999               0.000201079               0.000000000               0.000000000               0.000000000               0.000000000               0.000223325               0.000669820              -0.000000284               0.000000019               0.000223265               0.000223284               0.000000000               0.000000000               0.000000000               0.000000000               0.000245466               0.000736430              -0.000000297              -0.000000004               0.000245476               0.000245471               0.000000000               0.000000000               0.000000000               0.000000000               0.000267836               0.000802940              -0.000000199               0.000000071               0.000267620               0.000267691               0.000000000               0.000000000               0.000000000               0.000000000               0.000290348               0.000869182              -0.000000075               0.000000233               0.000289647               0.000289880               0.000000000               0.000000000               0.000000000               0.000000000               0.000312908               0.000935229              -0.000000013               0.000000437               0.000311594               0.000312031               0.000000000               0.000000000               0.000000000               0.000000000               0.000323638               0.000966487              -0.000000036               0.000000553               0.000321975               0.000322528               0.000000000               0.000000000               0.000000000               0.000000000               0.000000000               0.000000000               0.000000000               0.000000000               0.000000000               0.000000000               0.000000000               0.000000000               0.000000000               0.000000000               0.000000000               0.000000000               0.000000000               0.000000000               0.000000000               0.000000000               0.000000000               0.000000000               0.000000000               0.000000000               0.000000000               0.000000000               0.000000000               0.000000000               0.000000000               0.000000000               0.000000000               0.000000000               0.000000000               0.000000000               0.000000000               0.000000000               0.000000000               0.000000000               0.000000000               0.000000000               0.000000000               0.000000000               0.000000000               0.000000000               0.000000000               0.000000000               0.000000000               0.000000000               0.000000000               0.000000000               0.000000000               0.000000000               0.000000000               0.000000000               0.000000000               0.000000000               0.000000000               0.000000000               0.000000000               0.000000000               0.000000000               0.000000000               0.000000000               0.000000000               0.000000000               0.000000000               0.000000000               0.000000000               0.000000000               0.000000000               0.000000000               0.000000000               0.000000000               0.000000000               0.000000000               0.000000000               0.000000000               0.000000000               0.000000000               0.000000000               0.000000000               0.000000000               0.000000000               0.000000000               0.000000000               0.000000000               0.000000000               0.000000000               0.000000000               0.000000000               0.000000000               0.000000000               0.000000000               0.000000000               0.000000000               0.000000000               0.000000000               0.000000000               0.000000000               0.000000000               0.000000000               0.000000000               0.000000000               0.000000000               0.000000000               0.000000000               0.000000000               0.000000000               0.000000000               0.000000000               0.000000000               0.000000000               0.000000000               0.000000000               0.000000000               0.000000000               0.000000000               0.000000000               0.000000000               0.000000000               0.000000000               0.000000000               0.000000000               0.000000000               0.000000000               0.000000000               0.000000000               0.000000000               0.000000000               0.000000000               0.000000000               0.000000000               0.000000000               0.000000000               0.000000000               0.000000000               0.000000000               0.000000000               0.000000000               0.000000000               0.000000000               0.000000000               0.000000000               0.000000000               0.000000000               0.000000000               0.000000000               0.000000000               0.000000000               0.000000000               0.000000000               0.000000000               0.000000000               0.000000000               0.000000000               0.000000000               0.000000000               0.000000000               0.000000000               0.000000000               0.000000000               0.000000000               0.000000000               0.000000000               0.000000000               0.000000000               0.000000000               0.000000000               0.000000000               0.000000000               0.000000000               0.000000000               0.000000000               0.000000000               0.000000000               0.000000000               0.000000000               0.000000000               0.000000000               0.000000000               0.000000000               0.000000000               0.000000000               0.000000000               0.000000000               0.000000000               0.000000000               0.000000000               0.000000000               0.000000000               0.000000000               0.000000000               0.000000000               0.000000000               0.000000000               0.000000000               0.000000000               0.000000000               0.000000000               0.000000000               0.000000000               0.000000000               0.000000000               0.000000000               0.000000000               0.000000000               0.000000000               0.000000000               0.000000000               0.000000000               0.000000000               0.000000000               0.000000000               0.000000000               0.000000000               0.000000000               0.000000000               0.000000000               0.000000000               0.000000000               0.000000000               0.000000000               0.000000000               0.000000000               0.000000000               0.000000000               0.000000000               0.000000000               0.000000000               0.000000000               0.000000000               0.000000000               0.000000000               0.000000000               0.000000000               0.000000000               0.000000000               0.000000000               0.000000000               0.000000000               0.000000000               0.000000000               0.000000000               0.000000000               0.000000000               0.000000000               0.000000000               0.000000000               0.000000000               0.000000000               0.000000000               0.000000000               0.000000000               0.000000000               0.000000000               0.000000000               0.000000000               0.000000000               0.000000000               0.000000000               0.000000000               0.000000000               0.000000000               0.000000000               0.000000000               0.000000000               0.000000000               0.000000000               0.000000000               0.000000000               0.000000000               0.000000000               0.000000000               0.000000000               0.000000000               0.000000000               0.000000000               0.000000000               0.000000000               0.000000000               0.000000000               0.000000000               0.000000000               0.000000000               0.000000000               0.000000000               0.000000000               0.000000000               0.000000000               0.000000000               0.000000000               0.000000000               0.000000000               0.000000000               0.000000000               0.000000000               0.000000000               0.000000000               0.000000000               0.000000000               0.000000000               0.000000000               0.000000000               0.000000000               0.000000000               0.000000000               0.000000000               0.000000000               0.000000000               0.000000000               0.000000000               0.000000000               0.000000000               0.000000000               0.000000000               0.000000000               0.000000000               0.000000000               0.000000000               0.000000000               0.000000000               0.000000000               0.000000000               0.000000000               0.000000000               0.000000000               0.000000000               0.000000000               0.000000000               0.000000000               0.000000000               0.000000000               0.000000000               0.000000000               0.000000000               0.000000000               0.000000000               0.000000000               0.000000000               0.000000000               0.000000000               0.000000000               0.000000000               0.000000000              -0.000001063              -0.000000753              -0.000001110              -0.000000304              -0.000000149              -0.000000454               0.000000000               0.000000000               0.000000000               0.000000000              -0.000001459              -0.000001140              -0.000000067              -0.000000405              -0.000000245              -0.000000650               0.000000000               0.000000000               0.000000000               0.000000000              -0.000002210              -0.000001907               0.000001476              -0.000000591              -0.000000439              -0.000001029               0.000000000               0.000000000               0.000000000               0.000000000              -0.000001559              -0.000001277               0.000001772              -0.000000425              -0.000000284              -0.000000709               0.000000000               0.000000000               0.000000000               0.000000000               0.000000782               0.000000826               0.000000643               0.000000190               0.000000212               0.000000402               0.000000000               0.000000000               0.000000000               0.000000000               0.000003055               0.000003270              -0.000001109               0.000000737               0.000000844               0.000001581               0.000000000               0.000000000               0.000000000               0.000000000               0.000003742               0.000004282              -0.000002672               0.000000868               0.000001138               0.000002006               0.000000000               0.000000000               0.000000000               0.000000000               0.000002833               0.000003544              -0.000003202               0.000000619               0.000000975               0.000001594               0.000000000               0.000000000               0.000000000               0.000000000               0.000000991               0.000001300              -0.000002472               0.000000209               0.000000364               0.000000573               0.000000000               0.000000000               0.000000000               0.000000000              -0.000001102              -0.000001788              -0.000000796              -0.000000190              -0.000000533              -0.000000722               0.000000000               0.000000000               0.000000000               0.000000000              -0.000003158              -0.000004512               0.000001087              -0.000000620              -0.000001297              -0.000001917               0.000000000               0.000000000               0.000000000               0.000000000              -0.000004918              -0.000006556               0.000002481              -0.000001025              -0.000001844              -0.000002868               0.000000000               0.000000000               0.000000000               0.000000000              -0.000005718              -0.000008461               0.000003248              -0.000001087              -0.000002458              -0.000003545               0.000000000               0.000000000               0.000000000               0.000000000              -0.000005048              -0.000010775               0.000003494              -0.000000546              -0.000003410              -0.000003956               0.000000000               0.000000000               0.000000000               0.000000000              -0.000003191              -0.000013717               0.000003239               0.000000518              -0.000004745              -0.000004227               0.000000000               0.000000000               0.000000000               0.000000000              -0.000001238              -0.000016959               0.000002125               0.000001656              -0.000006205              -0.000004549               0.000000000               0.000000000               0.000000000               0.000000000              -0.000000657              -0.000019104               0.000001060               0.000002142              -0.000007082              -0.000004940               0.000000000               0.000000000               0.000000000               0.000000000              -0.000002584              -0.000005113               0.000001651              -0.000000330              -0.000001595              -0.000001924               0.000000000               0.000000000               0.000000000               0.000000000              -0.000001992              -0.000001793               0.000001043              -0.000000523              -0.000000423              -0.000000946               0.000000000               0.000000000               0.000000000               0.000000000              -0.000000504               0.000000203              -0.000000939              -0.000000214               0.000000139              -0.000000075               0.000000000               0.000000000               0.000000000               0.000000000               0.000001914               0.000004157              -0.000001938               0.000000198               0.000001320               0.000001518               0.000000000               0.000000000               0.000000000               0.000000000               0.000002495               0.000005897              -0.000001740               0.000000198               0.000001899               0.000002098               0.000000000               0.000000000               0.000000000               0.000000000               0.000002474               0.000004287              -0.000000713               0.000000392               0.000001298               0.000001690               0.000000000               0.000000000               0.000000000               0.000000000               0.000001315              -0.000000206               0.000001021               0.000000519              -0.000000241               0.000000277               0.000000000               0.000000000               0.000000000               0.000000000              -0.000001453              -0.000006236               0.000002677               0.000000235              -0.000002157              -0.000001922               0.000000000               0.000000000               0.000000000               0.000000000              -0.000005041              -0.000011813               0.000003799              -0.000000414              -0.000003800              -0.000004214               0.000000000               0.000000000               0.000000000               0.000000000              -0.000008361              -0.000014935               0.000003857              -0.000001268              -0.000004555              -0.000005824               0.000000000               0.000000000               0.000000000               0.000000000              -0.000010195              -0.000015432               0.000002804              -0.000001894              -0.000004513              -0.000006407               0.000000000               0.000000000               0.000000000               0.000000000              -0.000009367              -0.000014959               0.000001371              -0.000001643              -0.000004439              -0.000006081               0.000000000               0.000000000               0.000000000               0.000000000              -0.000005686              -0.000014683               0.000000150              -0.000000297              -0.000004795              -0.000005092               0.000000000               0.000000000               0.000000000               0.000000000              -0.000000570              -0.000014447              -0.000000613               0.000001592              -0.000005346              -0.000003754               0.000000000               0.000000000               0.000000000               0.000000000               0.000003383              -0.000012708              -0.000000967               0.000002857              -0.000005188              -0.000002331               0.000000000               0.000000000               0.000000000               0.000000000               0.000003414              -0.000007539              -0.000001046               0.000002223              -0.000003254              -0.000001031               0.000000000               0.000000000               0.000000000               0.000000000               0.000003848              -0.000000834               0.000000039               0.000001547              -0.000000794               0.000000753               0.000000000               0.000000000               0.000000000               0.000000000               0.000001691              -0.000000986              -0.000001026               0.000000757              -0.000000581               0.000000176               0.000000000               0.000000000               0.000000000               0.000000000               0.000002150               0.000002146              -0.000001070               0.000000538               0.000000536               0.000001074               0.000000000               0.000000000               0.000000000               0.000000000               0.000002418               0.000004943              -0.000000691               0.000000289               0.000001551               0.000001840               0.000000000               0.000000000               0.000000000               0.000000000               0.000001815               0.000004474               0.000000141               0.000000121               0.000001451               0.000001572               0.000000000               0.000000000               0.000000000               0.000000000              -0.000000259              -0.000000662               0.000000851              -0.000000014              -0.000000216              -0.000000230               0.000000000               0.000000000               0.000000000               0.000000000              -0.000003638              -0.000008156               0.000001480              -0.000000345              -0.000002604              -0.000002948               0.000000000               0.000000000               0.000000000               0.000000000              -0.000006500              -0.000013863               0.000002096              -0.000000705              -0.000004386              -0.000005091               0.000000000               0.000000000               0.000000000               0.000000000              -0.000007234              -0.000014946               0.000002209              -0.000000845              -0.000004700              -0.000005545               0.000000000               0.000000000               0.000000000               0.000000000              -0.000005705              -0.000010006               0.000001216              -0.000000889              -0.000003039              -0.000003928               0.000000000               0.000000000               0.000000000               0.000000000              -0.000001884              -0.000000268              -0.000000687              -0.000000673               0.000000135              -0.000000538               0.000000000               0.000000000               0.000000000               0.000000000               0.000004192               0.000010824              -0.000002305               0.000000219               0.000003535               0.000003754               0.000000000               0.000000000               0.000000000               0.000000000               0.000011836               0.000021473              -0.000002888               0.000001754               0.000006573               0.000008327               0.000000000               0.000000000               0.000000000               0.000000000               0.000019191               0.000032371              -0.000002335               0.000003150               0.000009740               0.000012890               0.000000000               0.000000000               0.000000000               0.000000000               0.000023409               0.000045834              -0.000001107               0.000003049               0.000014261               0.000017311               0.000000000               0.000000000               0.000000000               0.000000000               0.000021847               0.000064715              -0.000000102               0.000000103               0.000021537               0.000021640               0.000000000               0.000000000               0.000000000               0.000000000               0.000013035               0.000091177              -0.000000056              -0.000006509               0.000032562               0.000026053               0.000000000               0.000000000               0.000000000               0.000000000               0.000012103               0.000115869               0.000002742              -0.000009945               0.000041937               0.000031993               0.000000000               0.000000000               0.000000000               0.000000000               0.000002816               0.000006214              -0.000002681               0.000000279               0.000001978               0.000002257               0.000000000               0.000000000               0.000000000               0.000000000               0.000002828               0.000006547              -0.000000665               0.000000242               0.000002102               0.000002344               0.000000000               0.000000000               0.000000000               0.000000000               0.000001088               0.000004162               0.000001031              -0.000000112               0.000001425               0.000001313               0.000000000               0.000000000               0.000000000               0.000000000              -0.000001710              -0.000004777               0.000000404              -0.000000044              -0.000001578              -0.000001622               0.000000000               0.000000000               0.000000000               0.000000000              -0.000003867              -0.000012854               0.000000661               0.000000157              -0.000004337              -0.000004180               0.000000000               0.000000000               0.000000000               0.000000000              -0.000005294              -0.000014232               0.000000981              -0.000000206              -0.000004675              -0.000004882               0.000000000               0.000000000               0.000000000               0.000000000              -0.000003365              -0.000006315               0.000000458              -0.000000473              -0.000001948              -0.000002420               0.000000000               0.000000000               0.000000000               0.000000000               0.000001876               0.000010532              -0.000001000              -0.000000613               0.000003715               0.000003102               0.000000000               0.000000000               0.000000000               0.000000000               0.000010011               0.000033236              -0.000002867              -0.000000400               0.000011212               0.000010812               0.000000000               0.000000000               0.000000000               0.000000000               0.000020285               0.000056955              -0.000003518               0.000000488               0.000018822               0.000019310               0.000000000               0.000000000               0.000000000               0.000000000               0.000031565               0.000079216              -0.000002044               0.000001935               0.000025760               0.000027695               0.000000000               0.000000000               0.000000000               0.000000000               0.000041766               0.000101310               0.000001407               0.000002998               0.000032770               0.000035769               0.000000000               0.000000000               0.000000000               0.000000000               0.000047434               0.000125931               0.000005746               0.000002047               0.000041294               0.000043341               0.000000000               0.000000000               0.000000000               0.000000000               0.000045973               0.000156097               0.000009158              -0.000002272               0.000052789               0.000050517               0.000000000               0.000000000               0.000000000               0.000000000               0.000036632               0.000193097               0.000009960              -0.000010400               0.000067832               0.000057432               0.000000000               0.000000000               0.000000000               0.000000000               0.000020189               0.000236395               0.000006801              -0.000021978               0.000086124               0.000064145               0.000000000               0.000000000               0.000000000               0.000000000               0.000017632               0.000271272               0.000008230              -0.000027297               0.000099522               0.000072225               0.000000000               0.000000000               0.000000000               0.000000000               0.000002030               0.000010058               0.000000426              -0.000000496               0.000003518               0.000003022               0.000000000               0.000000000               0.000000000               0.000000000               0.000001693               0.000004199               0.000000450               0.000000110               0.000001363               0.000001473               0.000000000               0.000000000               0.000000000               0.000000000              -0.000001686              -0.000006617              -0.000000027               0.000000195              -0.000002271              -0.000002076               0.000000000               0.000000000               0.000000000               0.000000000              -0.000005998              -0.000015552              -0.000000047              -0.000000305              -0.000005082              -0.000005388               0.000000000               0.000000000               0.000000000               0.000000000              -0.000004953              -0.000010621               0.000000453              -0.000000530              -0.000003364              -0.000003894               0.000000000               0.000000000               0.000000000               0.000000000               0.000001835               0.000008128              -0.000000067              -0.000000328               0.000002819               0.000002491               0.000000000               0.000000000               0.000000000               0.000000000               0.000012987               0.000037905              -0.000001118               0.000000132               0.000012591               0.000012723               0.000000000               0.000000000               0.000000000               0.000000000               0.000026337               0.000073859              -0.000002394               0.000000644               0.000024405               0.000025049               0.000000000               0.000000000               0.000000000               0.000000000               0.000040039               0.000110579              -0.000002239               0.000001192               0.000036462               0.000037654               0.000000000               0.000000000               0.000000000               0.000000000               0.000053322               0.000144895               0.000000609               0.000001884               0.000047670               0.000049554               0.000000000               0.000000000               0.000000000               0.000000000               0.000064800               0.000178050               0.000006128               0.000002044               0.000058668               0.000060712               0.000000000               0.000000000               0.000000000               0.000000000               0.000070866               0.000212978               0.000012855              -0.000000047               0.000071008               0.000070960               0.000000000               0.000000000               0.000000000               0.000000000               0.000069296               0.000252675               0.000018467              -0.000005598               0.000086090               0.000080492               0.000000000               0.000000000               0.000000000               0.000000000               0.000059767               0.000297940               0.000020908              -0.000014830               0.000104256               0.000089426               0.000000000               0.000000000               0.000000000               0.000000000               0.000043470               0.000346692               0.000018905              -0.000027035               0.000124575               0.000097539               0.000000000               0.000000000               0.000000000               0.000000000               0.000022715               0.000395986               0.000011715              -0.000040980               0.000145654               0.000104674               0.000000000               0.000000000               0.000000000               0.000000000               0.000018508               0.000431117               0.000010836              -0.000046949               0.000159354               0.000112405               0.000000000               0.000000000               0.000000000               0.000000000              -0.000000225               0.000005285               0.000003026              -0.000000745               0.000002010               0.000001265               0.000000000               0.000000000               0.000000000               0.000000000              -0.000002829              -0.000006856               0.000000196              -0.000000204              -0.000002217              -0.000002421               0.000000000               0.000000000               0.000000000               0.000000000              -0.000004746              -0.000016112              -0.000000331               0.000000234              -0.000005449              -0.000005215               0.000000000               0.000000000               0.000000000               0.000000000              -0.000002582              -0.000007946               0.000000462               0.000000025              -0.000002657              -0.000002632               0.000000000               0.000000000               0.000000000               0.000000000               0.000006680               0.000019025              -0.000000359               0.000000127               0.000006299               0.000006426               0.000000000               0.000000000               0.000000000               0.000000000               0.000020920               0.000059397              -0.000001127               0.000000420               0.000019659               0.000020079               0.000000000               0.000000000               0.000000000               0.000000000               0.000036971               0.000106921              -0.000002112               0.000000499               0.000035473               0.000035973               0.000000000               0.000000000               0.000000000               0.000000000               0.000053805               0.000156000              -0.000001905               0.000000677               0.000051774               0.000052451               0.000000000               0.000000000               0.000000000               0.000000000               0.000069897               0.000202834               0.000001149               0.000000857               0.000067325               0.000068182               0.000000000               0.000000000               0.000000000               0.000000000               0.000083634               0.000247169               0.000007366               0.000000466               0.000082233               0.000082700               0.000000000               0.000000000               0.000000000               0.000000000               0.000091495               0.000292426               0.000015461              -0.000002243               0.000098222               0.000095979               0.000000000               0.000000000               0.000000000               0.000000000               0.000091245               0.000341656               0.000022833              -0.000008490               0.000116714               0.000108224               0.000000000               0.000000000               0.000000000               0.000000000               0.000082193               0.000395756               0.000027079              -0.000018647               0.000138133               0.000119486               0.000000000               0.000000000               0.000000000               0.000000000               0.000065866               0.000452110               0.000026957              -0.000031814               0.000161307               0.000129493               0.000000000               0.000000000               0.000000000               0.000000000               0.000045031               0.000507486               0.000022193              -0.000046549               0.000184677               0.000138128               0.000000000               0.000000000               0.000000000               0.000000000               0.000022677               0.000558156               0.000012970              -0.000061266               0.000206472               0.000145206               0.000000000               0.000000000               0.000000000               0.000000000               0.000017189               0.000591011               0.000010818              -0.000067430               0.000219478               0.000152048               0.000000000               0.000000000               0.000000000               0.000000000              -0.000005488              -0.000009563               0.000003892              -0.000000862              -0.000002900              -0.000003763               0.000000000               0.000000000               0.000000000               0.000000000              -0.000007278              -0.000017594               0.000000296              -0.000000530              -0.000005688              -0.000006218               0.000000000               0.000000000               0.000000000               0.000000000              -0.000002409              -0.000010035              -0.000000332               0.000000351              -0.000003462              -0.000003111               0.000000000               0.000000000               0.000000000               0.000000000               0.000006979               0.000019714               0.000000080               0.000000153               0.000006520               0.000006673               0.000000000               0.000000000               0.000000000               0.000000000               0.000023062               0.000067687              -0.000000578               0.000000187               0.000022500               0.000022687               0.000000000               0.000000000               0.000000000               0.000000000               0.000044522               0.000126765              -0.000001253               0.000000850               0.000041971               0.000042821               0.000000000               0.000000000               0.000000000               0.000000000               0.000065562               0.000187311              -0.000001497               0.000001172               0.000062046               0.000063218               0.000000000               0.000000000               0.000000000               0.000000000               0.000084567               0.000246247               0.000000677               0.000000932               0.000081771               0.000082702               0.000000000               0.000000000               0.000000000               0.000000000               0.000100350               0.000301470               0.000005831              -0.000000052               0.000100506               0.000100454               0.000000000               0.000000000               0.000000000               0.000000000               0.000110975               0.000356946               0.000013733              -0.000003003               0.000119982               0.000116979               0.000000000               0.000000000               0.000000000               0.000000000               0.000113198               0.000415720               0.000021823              -0.000009516               0.000141744               0.000132228               0.000000000               0.000000000               0.000000000               0.000000000               0.000105928               0.000479315               0.000027456              -0.000020191               0.000166501               0.000146309               0.000000000               0.000000000               0.000000000               0.000000000               0.000090504               0.000545422               0.000028902              -0.000034239               0.000193218               0.000158980               0.000000000               0.000000000               0.000000000               0.000000000               0.000069944               0.000610976               0.000025976              -0.000050143               0.000220371               0.000170228               0.000000000               0.000000000               0.000000000               0.000000000               0.000046915               0.000672246               0.000019288              -0.000066437               0.000246226               0.000179788               0.000000000               0.000000000               0.000000000               0.000000000               0.000023793               0.000725939               0.000010471              -0.000081820               0.000269251               0.000187431               0.000000000               0.000000000               0.000000000               0.000000000               0.000016002               0.000758662               0.000008527              -0.000088832               0.000282496               0.000193664               0.000000000               0.000000000               0.000000000               0.000000000              -0.000008868              -0.000023640               0.000003208              -0.000000370              -0.000007757              -0.000008127               0.000000000               0.000000000               0.000000000               0.000000000              -0.000008049              -0.000018960               0.000000934              -0.000000648              -0.000006104              -0.000006752               0.000000000               0.000000000               0.000000000               0.000000000               0.000002223               0.000005136              -0.000000589               0.000000192               0.000001648               0.000001840               0.000000000               0.000000000               0.000000000               0.000000000               0.000017994               0.000052050              -0.000001103               0.000000241               0.000017269               0.000017511               0.000000000               0.000000000               0.000000000               0.000000000               0.000039708               0.000115935              -0.000002077               0.000000398               0.000038512               0.000038910               0.000000000               0.000000000               0.000000000               0.000000000               0.000063479               0.000184098              -0.000003214               0.000000792               0.000061101               0.000061894               0.000000000               0.000000000               0.000000000               0.000000000               0.000085578               0.000252468              -0.000002324               0.000000533               0.000083977               0.000084511               0.000000000               0.000000000               0.000000000               0.000000000               0.000104989               0.000316881               0.000000518              -0.000000239               0.000105706               0.000105467               0.000000000               0.000000000               0.000000000               0.000000000               0.000121130               0.000379352               0.000006018              -0.000001995               0.000127115               0.000125119               0.000000000               0.000000000               0.000000000               0.000000000               0.000130364               0.000443305               0.000012913              -0.000006526               0.000149942               0.000143416               0.000000000               0.000000000               0.000000000               0.000000000               0.000130678               0.000512489               0.000019512              -0.000015057               0.000175847               0.000160790               0.000000000               0.000000000               0.000000000               0.000000000               0.000122239               0.000586190               0.000023479              -0.000027434               0.000204539               0.000177105               0.000000000               0.000000000               0.000000000               0.000000000               0.000107688               0.000662120               0.000023577              -0.000042382               0.000234832               0.000192450               0.000000000               0.000000000               0.000000000               0.000000000               0.000089430               0.000736289               0.000019593              -0.000058500               0.000264927               0.000206427               0.000000000               0.000000000               0.000000000               0.000000000               0.000069990               0.000805834               0.000012917              -0.000074483               0.000293436               0.000218954               0.000000000               0.000000000               0.000000000               0.000000000               0.000050929               0.000867832               0.000005417              -0.000089381               0.000319068               0.000229687               0.000000000               0.000000000               0.000000000               0.000000000               0.000039410               0.000899856               0.000002235              -0.000097703               0.000332517               0.000234814               0.000000000               0.000000000               0.000000000               0.000000000              -0.000006559              -0.000026718               0.000000323               0.000000880              -0.000009199              -0.000008319               0.000000000               0.000000000               0.000000000               0.000000000              -0.000005620              -0.000013360               0.000001529              -0.000000438              -0.000004308              -0.000004745               0.000000000               0.000000000               0.000000000               0.000000000               0.000005657               0.000019399               0.000000111              -0.000000303               0.000006567               0.000006264               0.000000000               0.000000000               0.000000000               0.000000000               0.000026305               0.000076911              -0.000000383               0.000000251               0.000025553               0.000025804               0.000000000               0.000000000               0.000000000               0.000000000               0.000048025               0.000143313              -0.000000125               0.000000095               0.000047739               0.000047834               0.000000000               0.000000000               0.000000000               0.000000000               0.000073126               0.000213939              -0.000001297               0.000000680               0.000071086               0.000071766               0.000000000               0.000000000               0.000000000               0.000000000               0.000096528               0.000285480              -0.000001009               0.000000513               0.000094988               0.000095501               0.000000000               0.000000000               0.000000000               0.000000000               0.000116922               0.000353343               0.000001151              -0.000000322               0.000117887               0.000117565               0.000000000               0.000000000               0.000000000               0.000000000               0.000135172               0.000420024               0.000005318              -0.000001813               0.000140611               0.000138798               0.000000000               0.000000000               0.000000000               0.000000000               0.000148418               0.000485390               0.000010264              -0.000005017               0.000163468               0.000158450               0.000000000               0.000000000               0.000000000               0.000000000               0.000154744               0.000553657               0.000015429              -0.000011178               0.000188276               0.000177098               0.000000000               0.000000000               0.000000000               0.000000000               0.000153070               0.000625069               0.000019266              -0.000020732               0.000215265               0.000194533               0.000000000               0.000000000               0.000000000               0.000000000               0.000145240               0.000699778               0.000020534              -0.000033007               0.000244259               0.000211252               0.000000000               0.000000000               0.000000000               0.000000000               0.000133362               0.000775459               0.000018183              -0.000046921               0.000274124               0.000227203               0.000000000               0.000000000               0.000000000               0.000000000               0.000119674               0.000851206               0.000013021              -0.000061523               0.000304240               0.000242717               0.000000000               0.000000000               0.000000000               0.000000000               0.000106253               0.000925425               0.000005980              -0.000075833               0.000333750               0.000257917               0.000000000               0.000000000               0.000000000               0.000000000               0.000093675               0.000959839              -0.000000095              -0.000084851               0.000348227               0.000263375               0.000000000               0.000000000               0.000000000               0.000000000              -0.000002141              -0.000018300              -0.000003509               0.000001484              -0.000006595              -0.000005110               0.000000000               0.000000000               0.000000000               0.000000000              -0.000001012              -0.000004962               0.000000717               0.000000241              -0.000001734              -0.000001494               0.000000000               0.000000000               0.000000000               0.000000000               0.000008227               0.000031245               0.000000897              -0.000000821               0.000010689               0.000009868               0.000000000               0.000000000               0.000000000               0.000000000               0.000031749               0.000094429              -0.000000266               0.000000102               0.000031442               0.000031544               0.000000000               0.000000000               0.000000000               0.000000000               0.000053056               0.000159346              -0.000000286              -0.000000022               0.000053122               0.000053100               0.000000000               0.000000000               0.000000000               0.000000000               0.000077270               0.000229408              -0.000000510               0.000000300               0.000076369               0.000076669               0.000000000               0.000000000               0.000000000               0.000000000               0.000101611               0.000299619              -0.000001154               0.000000652               0.000099655               0.000100306               0.000000000               0.000000000               0.000000000               0.000000000               0.000123580               0.000369221               0.000000072               0.000000190               0.000123009               0.000123199               0.000000000               0.000000000               0.000000000               0.000000000               0.000143698               0.000436702               0.000001890              -0.000000701               0.000145800               0.000145099               0.000000000               0.000000000               0.000000000               0.000000000               0.000161451               0.000502866               0.000004844              -0.000002314               0.000168392               0.000166078               0.000000000               0.000000000               0.000000000               0.000000000               0.000175385               0.000569213               0.000008203              -0.000005382               0.000191530               0.000186148               0.000000000               0.000000000               0.000000000               0.000000000               0.000183900               0.000637801               0.000011629              -0.000010763               0.000216186               0.000205423               0.000000000               0.000000000               0.000000000               0.000000000               0.000186388               0.000708299               0.000014045              -0.000018642               0.000242311               0.000223669               0.000000000               0.000000000               0.000000000               0.000000000               0.000184723               0.000781450               0.000014325              -0.000028410               0.000269951               0.000241541               0.000000000               0.000000000               0.000000000               0.000000000               0.000179885               0.000854906               0.000011771              -0.000039406               0.000298101               0.000258695               0.000000000               0.000000000               0.000000000               0.000000000               0.000173427               0.000928771               0.000006694              -0.000051061               0.000326607               0.000275546               0.000000000               0.000000000               0.000000000               0.000000000               0.000163842               0.000962547               0.000000906              -0.000058878               0.000340472               0.000281594               0.000000000               0.000000000               0.000000000               0.000000000              -0.000000043              -0.000006393              -0.000005609               0.000000783              -0.000002392              -0.000001609               0.000000000               0.000000000               0.000000000               0.000000000               0.000003830               0.000004843              -0.000001058               0.000000831               0.000001337               0.000002168               0.000000000               0.000000000               0.000000000               0.000000000               0.000012885               0.000043586               0.000001160              -0.000000616               0.000014734               0.000014118               0.000000000               0.000000000               0.000000000               0.000000000               0.000035474               0.000108022               0.000000063              -0.000000200               0.000036074               0.000035874               0.000000000               0.000000000               0.000000000               0.000000000               0.000057922               0.000174082              -0.000000289              -0.000000039               0.000058040               0.000058000               0.000000000               0.000000000               0.000000000               0.000000000               0.000080707               0.000242356               0.000000496              -0.000000029               0.000080794               0.000080765               0.000000000               0.000000000               0.000000000               0.000000000               0.000105328               0.000311679              -0.000000578               0.000000538               0.000103713               0.000104251               0.000000000               0.000000000               0.000000000               0.000000000               0.000128202               0.000381543              -0.000000590               0.000000383               0.000127052               0.000127435               0.000000000               0.000000000               0.000000000               0.000000000               0.000149402               0.000449361              -0.000000115              -0.000000145               0.000149834               0.000149689               0.000000000               0.000000000               0.000000000               0.000000000               0.000170051               0.000517084               0.000001063              -0.000000866               0.000172648               0.000171782               0.000000000               0.000000000               0.000000000               0.000000000               0.000188602               0.000582726               0.000002668              -0.000002115               0.000194945               0.000192830               0.000000000               0.000000000               0.000000000               0.000000000               0.000204826               0.000649662               0.000004653              -0.000004398               0.000218018               0.000213620               0.000000000               0.000000000               0.000000000               0.000000000               0.000217003               0.000717512               0.000006512              -0.000008313               0.000241939               0.000233626               0.000000000               0.000000000               0.000000000               0.000000000               0.000225450               0.000787590               0.000007826              -0.000013905               0.000267163               0.000253258               0.000000000               0.000000000               0.000000000               0.000000000               0.000230725               0.000858418               0.000007467              -0.000020780               0.000293063               0.000272283               0.000000000               0.000000000               0.000000000               0.000000000               0.000234019               0.000930529               0.000005101              -0.000028559               0.000319693               0.000291134               0.000000000               0.000000000               0.000000000               0.000000000               0.000230563               0.000964337               0.000001466              -0.000034081               0.000332803               0.000298722               0.000000000               0.000000000               0.000000000               0.000000000               0.000001481               0.000004673              -0.000005483              -0.000000029               0.000001567               0.000001539               0.000000000               0.000000000               0.000000000               0.000000000               0.000007136               0.000016208              -0.000002484               0.000000650               0.000005186               0.000005836               0.000000000               0.000000000               0.000000000               0.000000000               0.000018204               0.000055894               0.000001566              -0.000000160               0.000018685               0.000018524               0.000000000               0.000000000               0.000000000               0.000000000               0.000038957               0.000118506               0.000000377              -0.000000204               0.000039570               0.000039365               0.000000000               0.000000000               0.000000000               0.000000000               0.000063012               0.000187879              -0.000000858               0.000000145               0.000062577               0.000062722               0.000000000               0.000000000               0.000000000               0.000000000               0.000083567               0.000253209               0.000000184              -0.000000314               0.000084507               0.000084193               0.000000000               0.000000000               0.000000000               0.000000000               0.000106609               0.000320133              -0.000000067              -0.000000038               0.000106723               0.000106684               0.000000000               0.000000000               0.000000000               0.000000000               0.000130724               0.000389530              -0.000000389               0.000000330               0.000129732               0.000130062               0.000000000               0.000000000               0.000000000               0.000000000               0.000153160               0.000457595              -0.000000370               0.000000236               0.000152452               0.000152687               0.000000000               0.000000000               0.000000000               0.000000000               0.000175434               0.000526137              -0.000000304               0.000000020               0.000175371               0.000175391               0.000000000               0.000000000               0.000000000               0.000000000               0.000196889               0.000593057              -0.000000095              -0.000000299               0.000197783               0.000197485               0.000000000               0.000000000               0.000000000               0.000000000               0.000217511               0.000659555               0.000000537              -0.000000878               0.000220142               0.000219264               0.000000000               0.000000000               0.000000000               0.000000000               0.000236423               0.000725820               0.000001182              -0.000002069               0.000242627               0.000240558               0.000000000               0.000000000               0.000000000               0.000000000               0.000253249               0.000793511               0.000001984              -0.000004221               0.000265908               0.000261687               0.000000000               0.000000000               0.000000000               0.000000000               0.000267688               0.000861999               0.000002325              -0.000007367               0.000289786               0.000282419               0.000000000               0.000000000               0.000000000               0.000000000               0.000280759               0.000931811               0.000001879              -0.000011192               0.000314331               0.000303139               0.000000000               0.000000000               0.000000000               0.000000000               0.000284588               0.000965072               0.000000470              -0.000013913               0.000326325               0.000312412               0.000000000               0.000000000               0.000000000               0.000000000               0.000003808               0.000013595              -0.000003247              -0.000000271               0.000004622               0.000004351               0.000000000               0.000000000               0.000000000               0.000000000               0.000010402               0.000028732              -0.000003179               0.000000309               0.000009474               0.000009783               0.000000000               0.000000000               0.000000000               0.000000000               0.000022354               0.000066725               0.000001156               0.000000042               0.000022227               0.000022270               0.000000000               0.000000000               0.000000000               0.000000000               0.000040612               0.000124849               0.000001455              -0.000000377               0.000041741               0.000041365               0.000000000               0.000000000               0.000000000               0.000000000               0.000066226               0.000197250              -0.000000883               0.000000179               0.000065690               0.000065868               0.000000000               0.000000000               0.000000000               0.000000000               0.000087803               0.000262609              -0.000000336               0.000000100               0.000087502               0.000087602               0.000000000               0.000000000               0.000000000               0.000000000               0.000109567               0.000328437               0.000000156               0.000000033               0.000109467               0.000109500               0.000000000               0.000000000               0.000000000               0.000000000               0.000132931               0.000396717              -0.000000139               0.000000260               0.000132151               0.000132411               0.000000000               0.000000000               0.000000000               0.000000000               0.000155221               0.000463615              -0.000000167               0.000000256               0.000154451               0.000154707               0.000000000               0.000000000               0.000000000               0.000000000               0.000177529               0.000531382              -0.000000216               0.000000151               0.000177075               0.000177226               0.000000000               0.000000000               0.000000000               0.000000000               0.000200062               0.000598917              -0.000000462               0.000000159               0.000199584               0.000199743               0.000000000               0.000000000               0.000000000               0.000000000               0.000222623               0.000665773              -0.000000578               0.000000262               0.000221835               0.000222097               0.000000000               0.000000000               0.000000000               0.000000000               0.000244854               0.000731928              -0.000000641               0.000000329               0.000243864               0.000244193               0.000000000               0.000000000               0.000000000               0.000000000               0.000266460               0.000798344              -0.000000519               0.000000130               0.000266069               0.000266198               0.000000000               0.000000000               0.000000000               0.000000000               0.000286936               0.000865189              -0.000000339              -0.000000548               0.000288576               0.000288028               0.000000000               0.000000000               0.000000000               0.000000000               0.000306395               0.000933061              -0.000000055              -0.000001735               0.000311596               0.000309861               0.000000000               0.000000000               0.000000000               0.000000000               0.000314615               0.000965462              -0.000000277              -0.000002702               0.000322718               0.000320016               0.000000000               0.000000000               0.000000000               0.000000000               0.000004862               0.000015213              -0.000000898              -0.000000078               0.000005097               0.000005019               0.000000000               0.000000000               0.000000000               0.000000000               0.000013504               0.000036500              -0.000002844               0.000000502               0.000011999               0.000012501               0.000000000               0.000000000               0.000000000               0.000000000               0.000026351               0.000076200              -0.000000965               0.000000357               0.000025281               0.000025638               0.000000000               0.000000000               0.000000000               0.000000000               0.000042378               0.000130212               0.000001281              -0.000000385               0.000043532               0.000043147               0.000000000               0.000000000               0.000000000               0.000000000               0.000067427               0.000203296               0.000000002              -0.000000127               0.000067807               0.000067680               0.000000000               0.000000000               0.000000000               0.000000000               0.000090039               0.000270254              -0.000000055              -0.000000017               0.000090090               0.000090072               0.000000000               0.000000000               0.000000000               0.000000000               0.000110756               0.000333860               0.000000449              -0.000000199               0.000111352               0.000111153               0.000000000               0.000000000               0.000000000               0.000000000               0.000133525               0.000401315              -0.000000013              -0.000000093               0.000133801               0.000133709               0.000000000               0.000000000               0.000000000               0.000000000               0.000156505               0.000468145              -0.000000083               0.000000171               0.000155990               0.000156161               0.000000000               0.000000000               0.000000000               0.000000000               0.000178701               0.000534132               0.000000003               0.000000246               0.000177960               0.000178206               0.000000000               0.000000000               0.000000000               0.000000000               0.000200979               0.000601471              -0.000000083               0.000000183               0.000200427               0.000200611               0.000000000               0.000000000               0.000000000               0.000000000               0.000223405               0.000668746              -0.000000216               0.000000184               0.000222852               0.000223035               0.000000000               0.000000000               0.000000000               0.000000000               0.000246167               0.000735487              -0.000000385               0.000000377               0.000245034               0.000245411               0.000000000               0.000000000               0.000000000               0.000000000               0.000269223               0.000801910              -0.000000457               0.000000720               0.000267061               0.000267781               0.000000000               0.000000000               0.000000000               0.000000000               0.000292171               0.000868052              -0.000000425               0.000001058               0.000288995               0.000290053               0.000000000               0.000000000               0.000000000               0.000000000               0.000314626               0.000934491              -0.000000224               0.000001173               0.000311103               0.000312276               0.000000000               0.000000000               0.000000000               0.000000000               0.000324892               0.000966060              -0.000000161               0.000001077               0.000321658               0.000322735               0.000000000               0.000000000               0.000000000               0.000000000               0.000004377               0.000016304              -0.000000842              -0.000000397               0.000005567               0.000005170               0.000000000               0.000000000               0.000000000               0.000000000               0.000012716               0.000040696              -0.000001273              -0.000000319               0.000013672               0.000013353               0.000000000               0.000000000               0.000000000               0.000000000               0.000028683               0.000082995              -0.000000218               0.000000382               0.000027538               0.000027919               0.000000000               0.000000000               0.000000000               0.000000000               0.000045091               0.000135014               0.000000810               0.000000032               0.000044993               0.000045026               0.000000000               0.000000000               0.000000000               0.000000000               0.000068434               0.000206531              -0.000000252              -0.000000153               0.000068894               0.000068741               0.000000000               0.000000000               0.000000000               0.000000000               0.000091391               0.000274589              -0.000000651              -0.000000052               0.000091546               0.000091494               0.000000000               0.000000000               0.000000000               0.000000000               0.000112144               0.000337394               0.000000010              -0.000000120               0.000112504               0.000112383               0.000000000               0.000000000               0.000000000               0.000000000               0.000134302               0.000404029               0.000000131              -0.000000140               0.000134722               0.000134581               0.000000000               0.000000000               0.000000000               0.000000000               0.000157086               0.000471381               0.000000109              -0.000000015               0.000157131               0.000157115               0.000000000               0.000000000               0.000000000               0.000000000               0.000179098               0.000536607               0.000000134               0.000000086               0.000178838               0.000178924               0.000000000               0.000000000               0.000000000               0.000000000               0.000201240               0.000603083               0.000000202               0.000000080               0.000200999               0.000201079               0.000000000               0.000000000               0.000000000               0.000000000               0.000223325               0.000669820               0.000000284               0.000000019               0.000223265               0.000223284               0.000000000               0.000000000               0.000000000               0.000000000               0.000245466               0.000736430               0.000000297              -0.000000004               0.000245476               0.000245471               0.000000000               0.000000000               0.000000000               0.000000000               0.000267836               0.000802940               0.000000199               0.000000071               0.000267620               0.000267691               0.000000000               0.000000000               0.000000000               0.000000000               0.000290348               0.000869182               0.000000075               0.000000233               0.000289647               0.000289880               0.000000000               0.000000000               0.000000000               0.000000000               0.000312908               0.000935229               0.000000013               0.000000437               0.000311594               0.000312031               0.000000000               0.000000000               0.000000000               0.000000000               0.000323638               0.000966487               0.000000036               0.000000553               0.000321975               0.000322528               0.000000000               0.000000000               0.000000000               0.000000000               0.000000000               0.000000000               0.000000000               0.000000000               0.000000000               0.000000000               0.000000000               0.000000000               0.000000000               0.000000000               0.000000000               0.000000000               0.000000000               0.000000000               0.000000000               0.000000000               0.000000000               0.000000000               0.000000000               0.000000000               0.000000000               0.000000000               0.000000000               0.000000000               0.000000000               0.000000000               0.000000000               0.000000000               0.000000000               0.000000000               0.000000000               0.000000000               0.000000000               0.000000000               0.000000000               0.000000000               0.000000000               0.000000000               0.000000000               0.000000000               0.000000000               0.000000000               0.000000000               0.000000000               0.000000000               0.000000000               0.000000000               0.000000000               0.000000000               0.000000000               0.000000000               0.000000000               0.000000000               0.000000000               0.000000000               0.000000000               0.000000000               0.000000000               0.000000000               0.000000000               0.000000000               0.000000000               0.000000000               0.000000000               0.000000000               0.000000000               0.000000000               0.000000000               0.000000000               0.000000000               0.000000000               0.000000000               0.000000000               0.000000000               0.000000000               0.000000000               0.000000000               0.000000000               0.000000000               0.000000000               0.000000000               0.000000000               0.000000000               0.000000000               0.000000000               0.000000000               0.000000000               0.000000000               0.000000000               0.000000000               0.000000000               0.000000000               0.000000000               0.000000000               0.000000000               0.000000000               0.000000000               0.000000000               0.000000000               0.000000000               0.000000000               0.000000000               0.000000000               0.000000000               0.000000000               0.000000000               0.000000000               0.000000000               0.000000000               0.000000000               0.000000000               0.000000000               0.000000000               0.000000000               0.000000000               0.000000000               0.000000000               0.000000000               0.000000000               0.000000000               0.000000000               0.000000000               0.000000000               0.000000000               0.000000000               0.000000000               0.000000000               0.000000000               0.000000000               0.000000000               0.000000000               0.000000000               0.000000000               0.000000000               0.000000000               0.000000000               0.000000000               0.000000000               0.000000000               0.000000000               0.000000000               0.000000000               0.000000000               0.000000000               0.000000000               0.000000000               0.000000000               0.000000000               0.000000000               0.000000000               0.000000000               0.000000000               0.000000000               0.000000000               0.000000000               0.000000000               0.000000000               0.000000000               0.000000000               0.000000000               0.000000000               0.000000000               0.000000000               0.000000000               0.000000000               0.000000000               0.000000000               0.000000000               0.000000000               0.000000000 </DataArray>
</PointData>
</Piece>
</UnstructuredGrid> </VTKFile>
