<?xml version="1.0"?>
<VTKFile type="UnstructuredGrid" version="0.1">
<UnstructuredGrid>
<Piece NumberOfPoints="      1156" NumberOfCells="      1024">
<Points>
<DataArray type="Float64"                                    Name="coordinates"                                                      NumberOfComponents=" 3" format="ascii">
              0.133000000               0.000000000               0.000000000               0.155937500               0.000000000               0.000000000               0.178875000               0.000000000               0.000000000               0.201812500               0.000000000               0.000000000               0.224750000               0.000000000               0.000000000               0.247687500               0.000000000               0.000000000               0.270625000               0.000000000               0.000000000               0.293562500               0.000000000               0.000000000               0.316500000               0.000000000               0.000000000               0.339437500               0.000000000               0.000000000               0.362375000               0.000000000               0.000000000               0.385312500               0.000000000               0.000000000               0.408250000               0.000000000               0.000000000               0.431187500               0.000000000               0.000000000               0.454125000               0.000000000               0.000000000               0.477062500               0.000000000               0.000000000               0.500000000               0.000000000               0.000000000               0.132359569               0.013036280               0.000000000               0.155337096               0.016127762               0.000000000               0.178314623               0.019219245               0.000000000               0.201292150               0.022310727               0.000000000               0.224269676               0.025402210               0.000000000               0.247247203               0.028493692               0.000000000               0.270224730               0.031585175               0.000000000               0.293202257               0.034676657               0.000000000               0.316179784               0.037768140               0.000000000               0.339157311               0.040859622               0.000000000               0.362134838               0.043951105               0.000000000               0.385112365               0.047042587               0.000000000               0.408089892               0.050134070               0.000000000               0.431067419               0.053225552               0.000000000               0.454044946               0.056317035               0.000000000               0.477022473               0.059408517               0.000000000               0.500000000               0.062500000               0.000000000               0.130444442               0.025947013               0.000000000               0.153541665               0.032137825               0.000000000               0.176638887               0.038328636               0.000000000               0.199736109               0.044519448               0.000000000               0.222833332               0.050710260               0.000000000               0.245930554               0.056901071               0.000000000               0.269027776               0.063091883               0.000000000               0.292124999               0.069282695               0.000000000               0.315222221               0.075473506               0.000000000               0.338319444               0.081664318               0.000000000               0.361416666               0.087855130               0.000000000               0.384513888               0.094045942               0.000000000               0.407611111               0.100236753               0.000000000               0.430708333               0.106427565               0.000000000               0.453805555               0.112618377               0.000000000               0.476902778               0.118809188               0.000000000               0.500000000               0.125000000               0.000000000               0.127273065               0.038607862               0.000000000               0.150568498               0.047913621               0.000000000               0.173863932               0.057219379               0.000000000               0.197159365               0.066525138               0.000000000               0.220454798               0.075830897               0.000000000               0.243750232               0.085136655               0.000000000               0.267045665               0.094442414               0.000000000               0.290341099               0.103748172               0.000000000               0.313636532               0.113053931               0.000000000               0.336931966               0.122359690               0.000000000               0.360227399               0.131665448               0.000000000               0.383522833               0.140971207               0.000000000               0.406818266               0.150276966               0.000000000               0.430113700               0.159582724               0.000000000               0.453409133               0.168888483               0.000000000               0.476704567               0.178194241               0.000000000               0.500000000               0.187500000               0.000000000               0.122875978               0.050896897               0.000000000               0.146446229               0.063340840               0.000000000               0.170016481               0.075784784               0.000000000               0.193586732               0.088228728               0.000000000               0.217156983               0.100672672               0.000000000               0.240727235               0.113116616               0.000000000               0.264297486               0.125560560               0.000000000               0.287867738               0.138004504               0.000000000               0.311437989               0.150448448               0.000000000               0.335008240               0.162892392               0.000000000               0.358578492               0.175336336               0.000000000               0.382148743               0.187780280               0.000000000               0.405718994               0.200224224               0.000000000               0.429289246               0.212668168               0.000000000               0.452859497               0.225112112               0.000000000               0.476429749               0.237556056               0.000000000               0.500000000               0.250000000               0.000000000               0.117295528               0.062695766               0.000000000               0.141214558               0.078308531               0.000000000               0.165133587               0.093921295               0.000000000               0.189052617               0.109534060               0.000000000               0.212971646               0.125146824               0.000000000               0.236890676               0.140759589               0.000000000               0.260809705               0.156372354               0.000000000               0.284728735               0.171985118               0.000000000               0.308647764               0.187597883               0.000000000               0.332566794               0.203210648               0.000000000               0.356485823               0.218823412               0.000000000               0.380404853               0.234436177               0.000000000               0.404323882               0.250048941               0.000000000               0.428242912               0.265661706               0.000000000               0.452161941               0.281274471               0.000000000               0.476080971               0.296887235               0.000000000               0.500000000               0.312500000               0.000000000               0.110585458               0.073890841               0.000000000               0.134923867               0.092710163               0.000000000               0.159262276               0.111529486               0.000000000               0.183600685               0.130348808               0.000000000               0.207939094               0.149168131               0.000000000               0.232277503               0.167987453               0.000000000               0.256615912               0.186806776               0.000000000               0.280954320               0.205626098               0.000000000               0.305292729               0.224445420               0.000000000               0.329631138               0.243264743               0.000000000               0.353969547               0.262084065               0.000000000               0.378307956               0.280903388               0.000000000               0.402646365               0.299722710               0.000000000               0.426984773               0.318542033               0.000000000               0.451323182               0.337361355               0.000000000               0.475661591               0.356180678               0.000000000               0.500000000               0.375000000               0.000000000               0.102810390               0.084374307               0.000000000               0.127634741               0.106444663               0.000000000               0.152459092               0.128515018               0.000000000               0.177283442               0.150585374               0.000000000               0.202107793               0.172655730               0.000000000               0.226932143               0.194726086               0.000000000               0.251756494               0.216796442               0.000000000               0.276580845               0.238866798               0.000000000               0.301405195               0.260937153               0.000000000               0.326229546               0.283007509               0.000000000               0.351053896               0.305077865               0.000000000               0.375878247               0.327148221               0.000000000               0.400702598               0.349218577               0.000000000               0.425526948               0.371288933               0.000000000               0.450351299               0.393359288               0.000000000               0.475175649               0.415429644               0.000000000               0.500000000               0.437500000               0.000000000               0.094045202               0.094045202               0.000000000               0.119417377               0.119417377               0.000000000               0.144789552               0.144789552               0.000000000               0.170161727               0.170161727               0.000000000               0.195533901               0.195533901               0.000000000               0.220906076               0.220906076               0.000000000               0.246278251               0.246278251               0.000000000               0.271650426               0.271650426               0.000000000               0.297022601               0.297022601               0.000000000               0.322394776               0.322394776               0.000000000               0.347766951               0.347766951               0.000000000               0.373139126               0.373139126               0.000000000               0.398511300               0.398511300               0.000000000               0.423883475               0.423883475               0.000000000               0.449255650               0.449255650               0.000000000               0.474627825               0.474627825               0.000000000               0.500000000               0.500000000               0.000000000               0.084374307               0.102810390               0.000000000               0.106444663               0.127634741               0.000000000               0.128515018               0.152459092               0.000000000               0.150585374               0.177283442               0.000000000               0.172655730               0.202107793               0.000000000               0.194726086               0.226932143               0.000000000               0.216796442               0.251756494               0.000000000               0.238866798               0.276580845               0.000000000               0.260937153               0.301405195               0.000000000               0.283007509               0.326229546               0.000000000               0.305077865               0.351053896               0.000000000               0.327148221               0.375878247               0.000000000               0.349218577               0.400702598               0.000000000               0.371288933               0.425526948               0.000000000               0.393359288               0.450351299               0.000000000               0.415429644               0.475175649               0.000000000               0.437500000               0.500000000               0.000000000               0.073890841               0.110585458               0.000000000               0.092710163               0.134923867               0.000000000               0.111529486               0.159262276               0.000000000               0.130348808               0.183600685               0.000000000               0.149168131               0.207939094               0.000000000               0.167987453               0.232277503               0.000000000               0.186806776               0.256615912               0.000000000               0.205626098               0.280954320               0.000000000               0.224445420               0.305292729               0.000000000               0.243264743               0.329631138               0.000000000               0.262084065               0.353969547               0.000000000               0.280903388               0.378307956               0.000000000               0.299722710               0.402646365               0.000000000               0.318542033               0.426984773               0.000000000               0.337361355               0.451323182               0.000000000               0.356180678               0.475661591               0.000000000               0.375000000               0.500000000               0.000000000               0.062695766               0.117295528               0.000000000               0.078308531               0.141214558               0.000000000               0.093921295               0.165133587               0.000000000               0.109534060               0.189052617               0.000000000               0.125146824               0.212971646               0.000000000               0.140759589               0.236890676               0.000000000               0.156372354               0.260809705               0.000000000               0.171985118               0.284728735               0.000000000               0.187597883               0.308647764               0.000000000               0.203210648               0.332566794               0.000000000               0.218823412               0.356485823               0.000000000               0.234436177               0.380404853               0.000000000               0.250048941               0.404323882               0.000000000               0.265661706               0.428242912               0.000000000               0.281274471               0.452161941               0.000000000               0.296887235               0.476080971               0.000000000               0.312500000               0.500000000               0.000000000               0.050896897               0.122875978               0.000000000               0.063340840               0.146446229               0.000000000               0.075784784               0.170016481               0.000000000               0.088228728               0.193586732               0.000000000               0.100672672               0.217156983               0.000000000               0.113116616               0.240727235               0.000000000               0.125560560               0.264297486               0.000000000               0.138004504               0.287867738               0.000000000               0.150448448               0.311437989               0.000000000               0.162892392               0.335008240               0.000000000               0.175336336               0.358578492               0.000000000               0.187780280               0.382148743               0.000000000               0.200224224               0.405718994               0.000000000               0.212668168               0.429289246               0.000000000               0.225112112               0.452859497               0.000000000               0.237556056               0.476429749               0.000000000               0.250000000               0.500000000               0.000000000               0.038607862               0.127273065               0.000000000               0.047913621               0.150568498               0.000000000               0.057219379               0.173863932               0.000000000               0.066525138               0.197159365               0.000000000               0.075830897               0.220454798               0.000000000               0.085136655               0.243750232               0.000000000               0.094442414               0.267045665               0.000000000               0.103748172               0.290341099               0.000000000               0.113053931               0.313636532               0.000000000               0.122359690               0.336931966               0.000000000               0.131665448               0.360227399               0.000000000               0.140971207               0.383522833               0.000000000               0.150276966               0.406818266               0.000000000               0.159582724               0.430113700               0.000000000               0.168888483               0.453409133               0.000000000               0.178194241               0.476704567               0.000000000               0.187500000               0.500000000               0.000000000               0.025947013               0.130444442               0.000000000               0.032137825               0.153541665               0.000000000               0.038328636               0.176638887               0.000000000               0.044519448               0.199736109               0.000000000               0.050710260               0.222833332               0.000000000               0.056901071               0.245930554               0.000000000               0.063091883               0.269027776               0.000000000               0.069282695               0.292124999               0.000000000               0.075473506               0.315222221               0.000000000               0.081664318               0.338319444               0.000000000               0.087855130               0.361416666               0.000000000               0.094045942               0.384513888               0.000000000               0.100236753               0.407611111               0.000000000               0.106427565               0.430708333               0.000000000               0.112618377               0.453805555               0.000000000               0.118809188               0.476902778               0.000000000               0.125000000               0.500000000               0.000000000               0.013036280               0.132359569               0.000000000               0.016127762               0.155337096               0.000000000               0.019219245               0.178314623               0.000000000               0.022310727               0.201292150               0.000000000               0.025402210               0.224269676               0.000000000               0.028493692               0.247247203               0.000000000               0.031585175               0.270224730               0.000000000               0.034676657               0.293202257               0.000000000               0.037768140               0.316179784               0.000000000               0.040859622               0.339157311               0.000000000               0.043951105               0.362134838               0.000000000               0.047042587               0.385112365               0.000000000               0.050134070               0.408089892               0.000000000               0.053225552               0.431067419               0.000000000               0.056317035               0.454044946               0.000000000               0.059408517               0.477022473               0.000000000               0.062500000               0.500000000               0.000000000               0.000000000               0.133000000               0.000000000               0.000000000               0.155937500               0.000000000               0.000000000               0.178875000               0.000000000               0.000000000               0.201812500               0.000000000               0.000000000               0.224750000               0.000000000               0.000000000               0.247687500               0.000000000               0.000000000               0.270625000               0.000000000               0.000000000               0.293562500               0.000000000               0.000000000               0.316500000               0.000000000               0.000000000               0.339437500               0.000000000               0.000000000               0.362375000               0.000000000               0.000000000               0.385312500               0.000000000               0.000000000               0.408250000               0.000000000               0.000000000               0.431187500               0.000000000               0.000000000               0.454125000               0.000000000               0.000000000               0.477062500               0.000000000               0.000000000               0.500000000               0.000000000               0.133000000               0.000000000               0.000000000               0.155937500               0.000000000               0.000000000               0.178875000               0.000000000               0.000000000               0.201812500               0.000000000               0.000000000               0.224750000               0.000000000               0.000000000               0.247687500               0.000000000               0.000000000               0.270625000               0.000000000               0.000000000               0.293562500               0.000000000               0.000000000               0.316500000               0.000000000               0.000000000               0.339437500               0.000000000               0.000000000               0.362375000               0.000000000               0.000000000               0.385312500               0.000000000               0.000000000               0.408250000               0.000000000               0.000000000               0.431187500               0.000000000               0.000000000               0.454125000               0.000000000               0.000000000               0.477062500               0.000000000               0.000000000               0.500000000               0.000000000               0.000000000               0.132359569              -0.013036280               0.000000000               0.155337096              -0.016127762               0.000000000               0.178314623              -0.019219245               0.000000000               0.201292150              -0.022310727               0.000000000               0.224269676              -0.025402210               0.000000000               0.247247203              -0.028493692               0.000000000               0.270224730              -0.031585175               0.000000000               0.293202257              -0.034676657               0.000000000               0.316179784              -0.037768140               0.000000000               0.339157311              -0.040859622               0.000000000               0.362134838              -0.043951105               0.000000000               0.385112365              -0.047042587               0.000000000               0.408089892              -0.050134070               0.000000000               0.431067419              -0.053225552               0.000000000               0.454044946              -0.056317035               0.000000000               0.477022473              -0.059408517               0.000000000               0.500000000              -0.062500000               0.000000000               0.130444442              -0.025947013               0.000000000               0.153541665              -0.032137825               0.000000000               0.176638887              -0.038328636               0.000000000               0.199736109              -0.044519448               0.000000000               0.222833332              -0.050710260               0.000000000               0.245930554              -0.056901071               0.000000000               0.269027776              -0.063091883               0.000000000               0.292124999              -0.069282695               0.000000000               0.315222221              -0.075473506               0.000000000               0.338319444              -0.081664318               0.000000000               0.361416666              -0.087855130               0.000000000               0.384513888              -0.094045942               0.000000000               0.407611111              -0.100236753               0.000000000               0.430708333              -0.106427565               0.000000000               0.453805555              -0.112618377               0.000000000               0.476902778              -0.118809188               0.000000000               0.500000000              -0.125000000               0.000000000               0.127273065              -0.038607862               0.000000000               0.150568498              -0.047913621               0.000000000               0.173863932              -0.057219379               0.000000000               0.197159365              -0.066525138               0.000000000               0.220454798              -0.075830897               0.000000000               0.243750232              -0.085136655               0.000000000               0.267045665              -0.094442414               0.000000000               0.290341099              -0.103748172               0.000000000               0.313636532              -0.113053931               0.000000000               0.336931966              -0.122359690               0.000000000               0.360227399              -0.131665448               0.000000000               0.383522833              -0.140971207               0.000000000               0.406818266              -0.150276966               0.000000000               0.430113700              -0.159582724               0.000000000               0.453409133              -0.168888483               0.000000000               0.476704567              -0.178194241               0.000000000               0.500000000              -0.187500000               0.000000000               0.122875978              -0.050896897               0.000000000               0.146446229              -0.063340840               0.000000000               0.170016481              -0.075784784               0.000000000               0.193586732              -0.088228728               0.000000000               0.217156983              -0.100672672               0.000000000               0.240727235              -0.113116616               0.000000000               0.264297486              -0.125560560               0.000000000               0.287867738              -0.138004504               0.000000000               0.311437989              -0.150448448               0.000000000               0.335008240              -0.162892392               0.000000000               0.358578492              -0.175336336               0.000000000               0.382148743              -0.187780280               0.000000000               0.405718994              -0.200224224               0.000000000               0.429289246              -0.212668168               0.000000000               0.452859497              -0.225112112               0.000000000               0.476429749              -0.237556056               0.000000000               0.500000000              -0.250000000               0.000000000               0.117295528              -0.062695766               0.000000000               0.141214558              -0.078308531               0.000000000               0.165133587              -0.093921295               0.000000000               0.189052617              -0.109534060               0.000000000               0.212971646              -0.125146824               0.000000000               0.236890676              -0.140759589               0.000000000               0.260809705              -0.156372354               0.000000000               0.284728735              -0.171985118               0.000000000               0.308647764              -0.187597883               0.000000000               0.332566794              -0.203210648               0.000000000               0.356485823              -0.218823412               0.000000000               0.380404853              -0.234436177               0.000000000               0.404323882              -0.250048941               0.000000000               0.428242912              -0.265661706               0.000000000               0.452161941              -0.281274471               0.000000000               0.476080971              -0.296887235               0.000000000               0.500000000              -0.312500000               0.000000000               0.110585458              -0.073890841               0.000000000               0.134923867              -0.092710163               0.000000000               0.159262276              -0.111529486               0.000000000               0.183600685              -0.130348808               0.000000000               0.207939094              -0.149168131               0.000000000               0.232277503              -0.167987453               0.000000000               0.256615912              -0.186806776               0.000000000               0.280954320              -0.205626098               0.000000000               0.305292729              -0.224445420               0.000000000               0.329631138              -0.243264743               0.000000000               0.353969547              -0.262084065               0.000000000               0.378307956              -0.280903388               0.000000000               0.402646365              -0.299722710               0.000000000               0.426984773              -0.318542033               0.000000000               0.451323182              -0.337361355               0.000000000               0.475661591              -0.356180678               0.000000000               0.500000000              -0.375000000               0.000000000               0.102810390              -0.084374307               0.000000000               0.127634741              -0.106444663               0.000000000               0.152459092              -0.128515018               0.000000000               0.177283442              -0.150585374               0.000000000               0.202107793              -0.172655730               0.000000000               0.226932143              -0.194726086               0.000000000               0.251756494              -0.216796442               0.000000000               0.276580845              -0.238866798               0.000000000               0.301405195              -0.260937153               0.000000000               0.326229546              -0.283007509               0.000000000               0.351053896              -0.305077865               0.000000000               0.375878247              -0.327148221               0.000000000               0.400702598              -0.349218577               0.000000000               0.425526948              -0.371288933               0.000000000               0.450351299              -0.393359288               0.000000000               0.475175649              -0.415429644               0.000000000               0.500000000              -0.437500000               0.000000000               0.094045202              -0.094045202               0.000000000               0.119417377              -0.119417377               0.000000000               0.144789552              -0.144789552               0.000000000               0.170161727              -0.170161727               0.000000000               0.195533901              -0.195533901               0.000000000               0.220906076              -0.220906076               0.000000000               0.246278251              -0.246278251               0.000000000               0.271650426              -0.271650426               0.000000000               0.297022601              -0.297022601               0.000000000               0.322394776              -0.322394776               0.000000000               0.347766951              -0.347766951               0.000000000               0.373139126              -0.373139126               0.000000000               0.398511300              -0.398511300               0.000000000               0.423883475              -0.423883475               0.000000000               0.449255650              -0.449255650               0.000000000               0.474627825              -0.474627825               0.000000000               0.500000000              -0.500000000               0.000000000               0.084374307              -0.102810390               0.000000000               0.106444663              -0.127634741               0.000000000               0.128515018              -0.152459092               0.000000000               0.150585374              -0.177283442               0.000000000               0.172655730              -0.202107793               0.000000000               0.194726086              -0.226932143               0.000000000               0.216796442              -0.251756494               0.000000000               0.238866798              -0.276580845               0.000000000               0.260937153              -0.301405195               0.000000000               0.283007509              -0.326229546               0.000000000               0.305077865              -0.351053896               0.000000000               0.327148221              -0.375878247               0.000000000               0.349218577              -0.400702598               0.000000000               0.371288933              -0.425526948               0.000000000               0.393359288              -0.450351299               0.000000000               0.415429644              -0.475175649               0.000000000               0.437500000              -0.500000000               0.000000000               0.073890841              -0.110585458               0.000000000               0.092710163              -0.134923867               0.000000000               0.111529486              -0.159262276               0.000000000               0.130348808              -0.183600685               0.000000000               0.149168131              -0.207939094               0.000000000               0.167987453              -0.232277503               0.000000000               0.186806776              -0.256615912               0.000000000               0.205626098              -0.280954320               0.000000000               0.224445420              -0.305292729               0.000000000               0.243264743              -0.329631138               0.000000000               0.262084065              -0.353969547               0.000000000               0.280903388              -0.378307956               0.000000000               0.299722710              -0.402646365               0.000000000               0.318542033              -0.426984773               0.000000000               0.337361355              -0.451323182               0.000000000               0.356180678              -0.475661591               0.000000000               0.375000000              -0.500000000               0.000000000               0.062695766              -0.117295528               0.000000000               0.078308531              -0.141214558               0.000000000               0.093921295              -0.165133587               0.000000000               0.109534060              -0.189052617               0.000000000               0.125146824              -0.212971646               0.000000000               0.140759589              -0.236890676               0.000000000               0.156372354              -0.260809705               0.000000000               0.171985118              -0.284728735               0.000000000               0.187597883              -0.308647764               0.000000000               0.203210648              -0.332566794               0.000000000               0.218823412              -0.356485823               0.000000000               0.234436177              -0.380404853               0.000000000               0.250048941              -0.404323882               0.000000000               0.265661706              -0.428242912               0.000000000               0.281274471              -0.452161941               0.000000000               0.296887235              -0.476080971               0.000000000               0.312500000              -0.500000000               0.000000000               0.050896897              -0.122875978               0.000000000               0.063340840              -0.146446229               0.000000000               0.075784784              -0.170016481               0.000000000               0.088228728              -0.193586732               0.000000000               0.100672672              -0.217156983               0.000000000               0.113116616              -0.240727235               0.000000000               0.125560560              -0.264297486               0.000000000               0.138004504              -0.287867738               0.000000000               0.150448448              -0.311437989               0.000000000               0.162892392              -0.335008240               0.000000000               0.175336336              -0.358578492               0.000000000               0.187780280              -0.382148743               0.000000000               0.200224224              -0.405718994               0.000000000               0.212668168              -0.429289246               0.000000000               0.225112112              -0.452859497               0.000000000               0.237556056              -0.476429749               0.000000000               0.250000000              -0.500000000               0.000000000               0.038607862              -0.127273065               0.000000000               0.047913621              -0.150568498               0.000000000               0.057219379              -0.173863932               0.000000000               0.066525138              -0.197159365               0.000000000               0.075830897              -0.220454798               0.000000000               0.085136655              -0.243750232               0.000000000               0.094442414              -0.267045665               0.000000000               0.103748172              -0.290341099               0.000000000               0.113053931              -0.313636532               0.000000000               0.122359690              -0.336931966               0.000000000               0.131665448              -0.360227399               0.000000000               0.140971207              -0.383522833               0.000000000               0.150276966              -0.406818266               0.000000000               0.159582724              -0.430113700               0.000000000               0.168888483              -0.453409133               0.000000000               0.178194241              -0.476704567               0.000000000               0.187500000              -0.500000000               0.000000000               0.025947013              -0.130444442               0.000000000               0.032137825              -0.153541665               0.000000000               0.038328636              -0.176638887               0.000000000               0.044519448              -0.199736109               0.000000000               0.050710260              -0.222833332               0.000000000               0.056901071              -0.245930554               0.000000000               0.063091883              -0.269027776               0.000000000               0.069282695              -0.292124999               0.000000000               0.075473506              -0.315222221               0.000000000               0.081664318              -0.338319444               0.000000000               0.087855130              -0.361416666               0.000000000               0.094045942              -0.384513888               0.000000000               0.100236753              -0.407611111               0.000000000               0.106427565              -0.430708333               0.000000000               0.112618377              -0.453805555               0.000000000               0.118809188              -0.476902778               0.000000000               0.125000000              -0.500000000               0.000000000               0.013036280              -0.132359569               0.000000000               0.016127762              -0.155337096               0.000000000               0.019219245              -0.178314623               0.000000000               0.022310727              -0.201292150               0.000000000               0.025402210              -0.224269676               0.000000000               0.028493692              -0.247247203               0.000000000               0.031585175              -0.270224730               0.000000000               0.034676657              -0.293202257               0.000000000               0.037768140              -0.316179784               0.000000000               0.040859622              -0.339157311               0.000000000               0.043951105              -0.362134838               0.000000000               0.047042587              -0.385112365               0.000000000               0.050134070              -0.408089892               0.000000000               0.053225552              -0.431067419               0.000000000               0.056317035              -0.454044946               0.000000000               0.059408517              -0.477022473               0.000000000               0.062500000              -0.500000000               0.000000000               0.000000000              -0.133000000               0.000000000               0.000000000              -0.155937500               0.000000000               0.000000000              -0.178875000               0.000000000               0.000000000              -0.201812500               0.000000000               0.000000000              -0.224750000               0.000000000               0.000000000              -0.247687500               0.000000000               0.000000000              -0.270625000               0.000000000               0.000000000              -0.293562500               0.000000000               0.000000000              -0.316500000               0.000000000               0.000000000              -0.339437500               0.000000000               0.000000000              -0.362375000               0.000000000               0.000000000              -0.385312500               0.000000000               0.000000000              -0.408250000               0.000000000               0.000000000              -0.431187500               0.000000000               0.000000000              -0.454125000               0.000000000               0.000000000              -0.477062500               0.000000000               0.000000000              -0.500000000               0.000000000              -0.133000000               0.000000000               0.000000000              -0.155937500               0.000000000               0.000000000              -0.178875000               0.000000000               0.000000000              -0.201812500               0.000000000               0.000000000              -0.224750000               0.000000000               0.000000000              -0.247687500               0.000000000               0.000000000              -0.270625000               0.000000000               0.000000000              -0.293562500               0.000000000               0.000000000              -0.316500000               0.000000000               0.000000000              -0.339437500               0.000000000               0.000000000              -0.362375000               0.000000000               0.000000000              -0.385312500               0.000000000               0.000000000              -0.408250000               0.000000000               0.000000000              -0.431187500               0.000000000               0.000000000              -0.454125000               0.000000000               0.000000000              -0.477062500               0.000000000               0.000000000              -0.500000000               0.000000000               0.000000000              -0.132359569              -0.013036280               0.000000000              -0.155337096              -0.016127762               0.000000000              -0.178314623              -0.019219245               0.000000000              -0.201292150              -0.022310727               0.000000000              -0.224269676              -0.025402210               0.000000000              -0.247247203              -0.028493692               0.000000000              -0.270224730              -0.031585175               0.000000000              -0.293202257              -0.034676657               0.000000000              -0.316179784              -0.037768140               0.000000000              -0.339157311              -0.040859622               0.000000000              -0.362134838              -0.043951105               0.000000000              -0.385112365              -0.047042587               0.000000000              -0.408089892              -0.050134070               0.000000000              -0.431067419              -0.053225552               0.000000000              -0.454044946              -0.056317035               0.000000000              -0.477022473              -0.059408517               0.000000000              -0.500000000              -0.062500000               0.000000000              -0.130444442              -0.025947013               0.000000000              -0.153541665              -0.032137825               0.000000000              -0.176638887              -0.038328636               0.000000000              -0.199736109              -0.044519448               0.000000000              -0.222833332              -0.050710260               0.000000000              -0.245930554              -0.056901071               0.000000000              -0.269027776              -0.063091883               0.000000000              -0.292124999              -0.069282695               0.000000000              -0.315222221              -0.075473506               0.000000000              -0.338319444              -0.081664318               0.000000000              -0.361416666              -0.087855130               0.000000000              -0.384513888              -0.094045942               0.000000000              -0.407611111              -0.100236753               0.000000000              -0.430708333              -0.106427565               0.000000000              -0.453805555              -0.112618377               0.000000000              -0.476902778              -0.118809188               0.000000000              -0.500000000              -0.125000000               0.000000000              -0.127273065              -0.038607862               0.000000000              -0.150568498              -0.047913621               0.000000000              -0.173863932              -0.057219379               0.000000000              -0.197159365              -0.066525138               0.000000000              -0.220454798              -0.075830897               0.000000000              -0.243750232              -0.085136655               0.000000000              -0.267045665              -0.094442414               0.000000000              -0.290341099              -0.103748172               0.000000000              -0.313636532              -0.113053931               0.000000000              -0.336931966              -0.122359690               0.000000000              -0.360227399              -0.131665448               0.000000000              -0.383522833              -0.140971207               0.000000000              -0.406818266              -0.150276966               0.000000000              -0.430113700              -0.159582724               0.000000000              -0.453409133              -0.168888483               0.000000000              -0.476704567              -0.178194241               0.000000000              -0.500000000              -0.187500000               0.000000000              -0.122875978              -0.050896897               0.000000000              -0.146446229              -0.063340840               0.000000000              -0.170016481              -0.075784784               0.000000000              -0.193586732              -0.088228728               0.000000000              -0.217156983              -0.100672672               0.000000000              -0.240727235              -0.113116616               0.000000000              -0.264297486              -0.125560560               0.000000000              -0.287867738              -0.138004504               0.000000000              -0.311437989              -0.150448448               0.000000000              -0.335008240              -0.162892392               0.000000000              -0.358578492              -0.175336336               0.000000000              -0.382148743              -0.187780280               0.000000000              -0.405718994              -0.200224224               0.000000000              -0.429289246              -0.212668168               0.000000000              -0.452859497              -0.225112112               0.000000000              -0.476429749              -0.237556056               0.000000000              -0.500000000              -0.250000000               0.000000000              -0.117295528              -0.062695766               0.000000000              -0.141214558              -0.078308531               0.000000000              -0.165133587              -0.093921295               0.000000000              -0.189052617              -0.109534060               0.000000000              -0.212971646              -0.125146824               0.000000000              -0.236890676              -0.140759589               0.000000000              -0.260809705              -0.156372354               0.000000000              -0.284728735              -0.171985118               0.000000000              -0.308647764              -0.187597883               0.000000000              -0.332566794              -0.203210648               0.000000000              -0.356485823              -0.218823412               0.000000000              -0.380404853              -0.234436177               0.000000000              -0.404323882              -0.250048941               0.000000000              -0.428242912              -0.265661706               0.000000000              -0.452161941              -0.281274471               0.000000000              -0.476080971              -0.296887235               0.000000000              -0.500000000              -0.312500000               0.000000000              -0.110585458              -0.073890841               0.000000000              -0.134923867              -0.092710163               0.000000000              -0.159262276              -0.111529486               0.000000000              -0.183600685              -0.130348808               0.000000000              -0.207939094              -0.149168131               0.000000000              -0.232277503              -0.167987453               0.000000000              -0.256615912              -0.186806776               0.000000000              -0.280954320              -0.205626098               0.000000000              -0.305292729              -0.224445420               0.000000000              -0.329631138              -0.243264743               0.000000000              -0.353969547              -0.262084065               0.000000000              -0.378307956              -0.280903388               0.000000000              -0.402646365              -0.299722710               0.000000000              -0.426984773              -0.318542033               0.000000000              -0.451323182              -0.337361355               0.000000000              -0.475661591              -0.356180678               0.000000000              -0.500000000              -0.375000000               0.000000000              -0.102810390              -0.084374307               0.000000000              -0.127634741              -0.106444663               0.000000000              -0.152459092              -0.128515018               0.000000000              -0.177283442              -0.150585374               0.000000000              -0.202107793              -0.172655730               0.000000000              -0.226932143              -0.194726086               0.000000000              -0.251756494              -0.216796442               0.000000000              -0.276580845              -0.238866798               0.000000000              -0.301405195              -0.260937153               0.000000000              -0.326229546              -0.283007509               0.000000000              -0.351053896              -0.305077865               0.000000000              -0.375878247              -0.327148221               0.000000000              -0.400702598              -0.349218577               0.000000000              -0.425526948              -0.371288933               0.000000000              -0.450351299              -0.393359288               0.000000000              -0.475175649              -0.415429644               0.000000000              -0.500000000              -0.437500000               0.000000000              -0.094045202              -0.094045202               0.000000000              -0.119417377              -0.119417377               0.000000000              -0.144789552              -0.144789552               0.000000000              -0.170161727              -0.170161727               0.000000000              -0.195533901              -0.195533901               0.000000000              -0.220906076              -0.220906076               0.000000000              -0.246278251              -0.246278251               0.000000000              -0.271650426              -0.271650426               0.000000000              -0.297022601              -0.297022601               0.000000000              -0.322394776              -0.322394776               0.000000000              -0.347766951              -0.347766951               0.000000000              -0.373139126              -0.373139126               0.000000000              -0.398511300              -0.398511300               0.000000000              -0.423883475              -0.423883475               0.000000000              -0.449255650              -0.449255650               0.000000000              -0.474627825              -0.474627825               0.000000000              -0.500000000              -0.500000000               0.000000000              -0.084374307              -0.102810390               0.000000000              -0.106444663              -0.127634741               0.000000000              -0.128515018              -0.152459092               0.000000000              -0.150585374              -0.177283442               0.000000000              -0.172655730              -0.202107793               0.000000000              -0.194726086              -0.226932143               0.000000000              -0.216796442              -0.251756494               0.000000000              -0.238866798              -0.276580845               0.000000000              -0.260937153              -0.301405195               0.000000000              -0.283007509              -0.326229546               0.000000000              -0.305077865              -0.351053896               0.000000000              -0.327148221              -0.375878247               0.000000000              -0.349218577              -0.400702598               0.000000000              -0.371288933              -0.425526948               0.000000000              -0.393359288              -0.450351299               0.000000000              -0.415429644              -0.475175649               0.000000000              -0.437500000              -0.500000000               0.000000000              -0.073890841              -0.110585458               0.000000000              -0.092710163              -0.134923867               0.000000000              -0.111529486              -0.159262276               0.000000000              -0.130348808              -0.183600685               0.000000000              -0.149168131              -0.207939094               0.000000000              -0.167987453              -0.232277503               0.000000000              -0.186806776              -0.256615912               0.000000000              -0.205626098              -0.280954320               0.000000000              -0.224445420              -0.305292729               0.000000000              -0.243264743              -0.329631138               0.000000000              -0.262084065              -0.353969547               0.000000000              -0.280903388              -0.378307956               0.000000000              -0.299722710              -0.402646365               0.000000000              -0.318542033              -0.426984773               0.000000000              -0.337361355              -0.451323182               0.000000000              -0.356180678              -0.475661591               0.000000000              -0.375000000              -0.500000000               0.000000000              -0.062695766              -0.117295528               0.000000000              -0.078308531              -0.141214558               0.000000000              -0.093921295              -0.165133587               0.000000000              -0.109534060              -0.189052617               0.000000000              -0.125146824              -0.212971646               0.000000000              -0.140759589              -0.236890676               0.000000000              -0.156372354              -0.260809705               0.000000000              -0.171985118              -0.284728735               0.000000000              -0.187597883              -0.308647764               0.000000000              -0.203210648              -0.332566794               0.000000000              -0.218823412              -0.356485823               0.000000000              -0.234436177              -0.380404853               0.000000000              -0.250048941              -0.404323882               0.000000000              -0.265661706              -0.428242912               0.000000000              -0.281274471              -0.452161941               0.000000000              -0.296887235              -0.476080971               0.000000000              -0.312500000              -0.500000000               0.000000000              -0.050896897              -0.122875978               0.000000000              -0.063340840              -0.146446229               0.000000000              -0.075784784              -0.170016481               0.000000000              -0.088228728              -0.193586732               0.000000000              -0.100672672              -0.217156983               0.000000000              -0.113116616              -0.240727235               0.000000000              -0.125560560              -0.264297486               0.000000000              -0.138004504              -0.287867738               0.000000000              -0.150448448              -0.311437989               0.000000000              -0.162892392              -0.335008240               0.000000000              -0.175336336              -0.358578492               0.000000000              -0.187780280              -0.382148743               0.000000000              -0.200224224              -0.405718994               0.000000000              -0.212668168              -0.429289246               0.000000000              -0.225112112              -0.452859497               0.000000000              -0.237556056              -0.476429749               0.000000000              -0.250000000              -0.500000000               0.000000000              -0.038607862              -0.127273065               0.000000000              -0.047913621              -0.150568498               0.000000000              -0.057219379              -0.173863932               0.000000000              -0.066525138              -0.197159365               0.000000000              -0.075830897              -0.220454798               0.000000000              -0.085136655              -0.243750232               0.000000000              -0.094442414              -0.267045665               0.000000000              -0.103748172              -0.290341099               0.000000000              -0.113053931              -0.313636532               0.000000000              -0.122359690              -0.336931966               0.000000000              -0.131665448              -0.360227399               0.000000000              -0.140971207              -0.383522833               0.000000000              -0.150276966              -0.406818266               0.000000000              -0.159582724              -0.430113700               0.000000000              -0.168888483              -0.453409133               0.000000000              -0.178194241              -0.476704567               0.000000000              -0.187500000              -0.500000000               0.000000000              -0.025947013              -0.130444442               0.000000000              -0.032137825              -0.153541665               0.000000000              -0.038328636              -0.176638887               0.000000000              -0.044519448              -0.199736109               0.000000000              -0.050710260              -0.222833332               0.000000000              -0.056901071              -0.245930554               0.000000000              -0.063091883              -0.269027776               0.000000000              -0.069282695              -0.292124999               0.000000000              -0.075473506              -0.315222221               0.000000000              -0.081664318              -0.338319444               0.000000000              -0.087855130              -0.361416666               0.000000000              -0.094045942              -0.384513888               0.000000000              -0.100236753              -0.407611111               0.000000000              -0.106427565              -0.430708333               0.000000000              -0.112618377              -0.453805555               0.000000000              -0.118809188              -0.476902778               0.000000000              -0.125000000              -0.500000000               0.000000000              -0.013036280              -0.132359569               0.000000000              -0.016127762              -0.155337096               0.000000000              -0.019219245              -0.178314623               0.000000000              -0.022310727              -0.201292150               0.000000000              -0.025402210              -0.224269676               0.000000000              -0.028493692              -0.247247203               0.000000000              -0.031585175              -0.270224730               0.000000000              -0.034676657              -0.293202257               0.000000000              -0.037768140              -0.316179784               0.000000000              -0.040859622              -0.339157311               0.000000000              -0.043951105              -0.362134838               0.000000000              -0.047042587              -0.385112365               0.000000000              -0.050134070              -0.408089892               0.000000000              -0.053225552              -0.431067419               0.000000000              -0.056317035              -0.454044946               0.000000000              -0.059408517              -0.477022473               0.000000000              -0.062500000              -0.500000000               0.000000000               0.000000000              -0.133000000               0.000000000               0.000000000              -0.155937500               0.000000000               0.000000000              -0.178875000               0.000000000               0.000000000              -0.201812500               0.000000000               0.000000000              -0.224750000               0.000000000               0.000000000              -0.247687500               0.000000000               0.000000000              -0.270625000               0.000000000               0.000000000              -0.293562500               0.000000000               0.000000000              -0.316500000               0.000000000               0.000000000              -0.339437500               0.000000000               0.000000000              -0.362375000               0.000000000               0.000000000              -0.385312500               0.000000000               0.000000000              -0.408250000               0.000000000               0.000000000              -0.431187500               0.000000000               0.000000000              -0.454125000               0.000000000               0.000000000              -0.477062500               0.000000000               0.000000000              -0.500000000               0.000000000              -0.133000000               0.000000000               0.000000000              -0.155937500               0.000000000               0.000000000              -0.178875000               0.000000000               0.000000000              -0.201812500               0.000000000               0.000000000              -0.224750000               0.000000000               0.000000000              -0.247687500               0.000000000               0.000000000              -0.270625000               0.000000000               0.000000000              -0.293562500               0.000000000               0.000000000              -0.316500000               0.000000000               0.000000000              -0.339437500               0.000000000               0.000000000              -0.362375000               0.000000000               0.000000000              -0.385312500               0.000000000               0.000000000              -0.408250000               0.000000000               0.000000000              -0.431187500               0.000000000               0.000000000              -0.454125000               0.000000000               0.000000000              -0.477062500               0.000000000               0.000000000              -0.500000000               0.000000000               0.000000000              -0.132359569               0.013036280               0.000000000              -0.155337096               0.016127762               0.000000000              -0.178314623               0.019219245               0.000000000              -0.201292150               0.022310727               0.000000000              -0.224269676               0.025402210               0.000000000              -0.247247203               0.028493692               0.000000000              -0.270224730               0.031585175               0.000000000              -0.293202257               0.034676657               0.000000000              -0.316179784               0.037768140               0.000000000              -0.339157311               0.040859622               0.000000000              -0.362134838               0.043951105               0.000000000              -0.385112365               0.047042587               0.000000000              -0.408089892               0.050134070               0.000000000              -0.431067419               0.053225552               0.000000000              -0.454044946               0.056317035               0.000000000              -0.477022473               0.059408517               0.000000000              -0.500000000               0.062500000               0.000000000              -0.130444442               0.025947013               0.000000000              -0.153541665               0.032137825               0.000000000              -0.176638887               0.038328636               0.000000000              -0.199736109               0.044519448               0.000000000              -0.222833332               0.050710260               0.000000000              -0.245930554               0.056901071               0.000000000              -0.269027776               0.063091883               0.000000000              -0.292124999               0.069282695               0.000000000              -0.315222221               0.075473506               0.000000000              -0.338319444               0.081664318               0.000000000              -0.361416666               0.087855130               0.000000000              -0.384513888               0.094045942               0.000000000              -0.407611111               0.100236753               0.000000000              -0.430708333               0.106427565               0.000000000              -0.453805555               0.112618377               0.000000000              -0.476902778               0.118809188               0.000000000              -0.500000000               0.125000000               0.000000000              -0.127273065               0.038607862               0.000000000              -0.150568498               0.047913621               0.000000000              -0.173863932               0.057219379               0.000000000              -0.197159365               0.066525138               0.000000000              -0.220454798               0.075830897               0.000000000              -0.243750232               0.085136655               0.000000000              -0.267045665               0.094442414               0.000000000              -0.290341099               0.103748172               0.000000000              -0.313636532               0.113053931               0.000000000              -0.336931966               0.122359690               0.000000000              -0.360227399               0.131665448               0.000000000              -0.383522833               0.140971207               0.000000000              -0.406818266               0.150276966               0.000000000              -0.430113700               0.159582724               0.000000000              -0.453409133               0.168888483               0.000000000              -0.476704567               0.178194241               0.000000000              -0.500000000               0.187500000               0.000000000              -0.122875978               0.050896897               0.000000000              -0.146446229               0.063340840               0.000000000              -0.170016481               0.075784784               0.000000000              -0.193586732               0.088228728               0.000000000              -0.217156983               0.100672672               0.000000000              -0.240727235               0.113116616               0.000000000              -0.264297486               0.125560560               0.000000000              -0.287867738               0.138004504               0.000000000              -0.311437989               0.150448448               0.000000000              -0.335008240               0.162892392               0.000000000              -0.358578492               0.175336336               0.000000000              -0.382148743               0.187780280               0.000000000              -0.405718994               0.200224224               0.000000000              -0.429289246               0.212668168               0.000000000              -0.452859497               0.225112112               0.000000000              -0.476429749               0.237556056               0.000000000              -0.500000000               0.250000000               0.000000000              -0.117295528               0.062695766               0.000000000              -0.141214558               0.078308531               0.000000000              -0.165133587               0.093921295               0.000000000              -0.189052617               0.109534060               0.000000000              -0.212971646               0.125146824               0.000000000              -0.236890676               0.140759589               0.000000000              -0.260809705               0.156372354               0.000000000              -0.284728735               0.171985118               0.000000000              -0.308647764               0.187597883               0.000000000              -0.332566794               0.203210648               0.000000000              -0.356485823               0.218823412               0.000000000              -0.380404853               0.234436177               0.000000000              -0.404323882               0.250048941               0.000000000              -0.428242912               0.265661706               0.000000000              -0.452161941               0.281274471               0.000000000              -0.476080971               0.296887235               0.000000000              -0.500000000               0.312500000               0.000000000              -0.110585458               0.073890841               0.000000000              -0.134923867               0.092710163               0.000000000              -0.159262276               0.111529486               0.000000000              -0.183600685               0.130348808               0.000000000              -0.207939094               0.149168131               0.000000000              -0.232277503               0.167987453               0.000000000              -0.256615912               0.186806776               0.000000000              -0.280954320               0.205626098               0.000000000              -0.305292729               0.224445420               0.000000000              -0.329631138               0.243264743               0.000000000              -0.353969547               0.262084065               0.000000000              -0.378307956               0.280903388               0.000000000              -0.402646365               0.299722710               0.000000000              -0.426984773               0.318542033               0.000000000              -0.451323182               0.337361355               0.000000000              -0.475661591               0.356180678               0.000000000              -0.500000000               0.375000000               0.000000000              -0.102810390               0.084374307               0.000000000              -0.127634741               0.106444663               0.000000000              -0.152459092               0.128515018               0.000000000              -0.177283442               0.150585374               0.000000000              -0.202107793               0.172655730               0.000000000              -0.226932143               0.194726086               0.000000000              -0.251756494               0.216796442               0.000000000              -0.276580845               0.238866798               0.000000000              -0.301405195               0.260937153               0.000000000              -0.326229546               0.283007509               0.000000000              -0.351053896               0.305077865               0.000000000              -0.375878247               0.327148221               0.000000000              -0.400702598               0.349218577               0.000000000              -0.425526948               0.371288933               0.000000000              -0.450351299               0.393359288               0.000000000              -0.475175649               0.415429644               0.000000000              -0.500000000               0.437500000               0.000000000              -0.094045202               0.094045202               0.000000000              -0.119417377               0.119417377               0.000000000              -0.144789552               0.144789552               0.000000000              -0.170161727               0.170161727               0.000000000              -0.195533901               0.195533901               0.000000000              -0.220906076               0.220906076               0.000000000              -0.246278251               0.246278251               0.000000000              -0.271650426               0.271650426               0.000000000              -0.297022601               0.297022601               0.000000000              -0.322394776               0.322394776               0.000000000              -0.347766951               0.347766951               0.000000000              -0.373139126               0.373139126               0.000000000              -0.398511300               0.398511300               0.000000000              -0.423883475               0.423883475               0.000000000              -0.449255650               0.449255650               0.000000000              -0.474627825               0.474627825               0.000000000              -0.500000000               0.500000000               0.000000000              -0.084374307               0.102810390               0.000000000              -0.106444663               0.127634741               0.000000000              -0.128515018               0.152459092               0.000000000              -0.150585374               0.177283442               0.000000000              -0.172655730               0.202107793               0.000000000              -0.194726086               0.226932143               0.000000000              -0.216796442               0.251756494               0.000000000              -0.238866798               0.276580845               0.000000000              -0.260937153               0.301405195               0.000000000              -0.283007509               0.326229546               0.000000000              -0.305077865               0.351053896               0.000000000              -0.327148221               0.375878247               0.000000000              -0.349218577               0.400702598               0.000000000              -0.371288933               0.425526948               0.000000000              -0.393359288               0.450351299               0.000000000              -0.415429644               0.475175649               0.000000000              -0.437500000               0.500000000               0.000000000              -0.073890841               0.110585458               0.000000000              -0.092710163               0.134923867               0.000000000              -0.111529486               0.159262276               0.000000000              -0.130348808               0.183600685               0.000000000              -0.149168131               0.207939094               0.000000000              -0.167987453               0.232277503               0.000000000              -0.186806776               0.256615912               0.000000000              -0.205626098               0.280954320               0.000000000              -0.224445420               0.305292729               0.000000000              -0.243264743               0.329631138               0.000000000              -0.262084065               0.353969547               0.000000000              -0.280903388               0.378307956               0.000000000              -0.299722710               0.402646365               0.000000000              -0.318542033               0.426984773               0.000000000              -0.337361355               0.451323182               0.000000000              -0.356180678               0.475661591               0.000000000              -0.375000000               0.500000000               0.000000000              -0.062695766               0.117295528               0.000000000              -0.078308531               0.141214558               0.000000000              -0.093921295               0.165133587               0.000000000              -0.109534060               0.189052617               0.000000000              -0.125146824               0.212971646               0.000000000              -0.140759589               0.236890676               0.000000000              -0.156372354               0.260809705               0.000000000              -0.171985118               0.284728735               0.000000000              -0.187597883               0.308647764               0.000000000              -0.203210648               0.332566794               0.000000000              -0.218823412               0.356485823               0.000000000              -0.234436177               0.380404853               0.000000000              -0.250048941               0.404323882               0.000000000              -0.265661706               0.428242912               0.000000000              -0.281274471               0.452161941               0.000000000              -0.296887235               0.476080971               0.000000000              -0.312500000               0.500000000               0.000000000              -0.050896897               0.122875978               0.000000000              -0.063340840               0.146446229               0.000000000              -0.075784784               0.170016481               0.000000000              -0.088228728               0.193586732               0.000000000              -0.100672672               0.217156983               0.000000000              -0.113116616               0.240727235               0.000000000              -0.125560560               0.264297486               0.000000000              -0.138004504               0.287867738               0.000000000              -0.150448448               0.311437989               0.000000000              -0.162892392               0.335008240               0.000000000              -0.175336336               0.358578492               0.000000000              -0.187780280               0.382148743               0.000000000              -0.200224224               0.405718994               0.000000000              -0.212668168               0.429289246               0.000000000              -0.225112112               0.452859497               0.000000000              -0.237556056               0.476429749               0.000000000              -0.250000000               0.500000000               0.000000000              -0.038607862               0.127273065               0.000000000              -0.047913621               0.150568498               0.000000000              -0.057219379               0.173863932               0.000000000              -0.066525138               0.197159365               0.000000000              -0.075830897               0.220454798               0.000000000              -0.085136655               0.243750232               0.000000000              -0.094442414               0.267045665               0.000000000              -0.103748172               0.290341099               0.000000000              -0.113053931               0.313636532               0.000000000              -0.122359690               0.336931966               0.000000000              -0.131665448               0.360227399               0.000000000              -0.140971207               0.383522833               0.000000000              -0.150276966               0.406818266               0.000000000              -0.159582724               0.430113700               0.000000000              -0.168888483               0.453409133               0.000000000              -0.178194241               0.476704567               0.000000000              -0.187500000               0.500000000               0.000000000              -0.025947013               0.130444442               0.000000000              -0.032137825               0.153541665               0.000000000              -0.038328636               0.176638887               0.000000000              -0.044519448               0.199736109               0.000000000              -0.050710260               0.222833332               0.000000000              -0.056901071               0.245930554               0.000000000              -0.063091883               0.269027776               0.000000000              -0.069282695               0.292124999               0.000000000              -0.075473506               0.315222221               0.000000000              -0.081664318               0.338319444               0.000000000              -0.087855130               0.361416666               0.000000000              -0.094045942               0.384513888               0.000000000              -0.100236753               0.407611111               0.000000000              -0.106427565               0.430708333               0.000000000              -0.112618377               0.453805555               0.000000000              -0.118809188               0.476902778               0.000000000              -0.125000000               0.500000000               0.000000000              -0.013036280               0.132359569               0.000000000              -0.016127762               0.155337096               0.000000000              -0.019219245               0.178314623               0.000000000              -0.022310727               0.201292150               0.000000000              -0.025402210               0.224269676               0.000000000              -0.028493692               0.247247203               0.000000000              -0.031585175               0.270224730               0.000000000              -0.034676657               0.293202257               0.000000000              -0.037768140               0.316179784               0.000000000              -0.040859622               0.339157311               0.000000000              -0.043951105               0.362134838               0.000000000              -0.047042587               0.385112365               0.000000000              -0.050134070               0.408089892               0.000000000              -0.053225552               0.431067419               0.000000000              -0.056317035               0.454044946               0.000000000              -0.059408517               0.477022473               0.000000000              -0.062500000               0.500000000               0.000000000               0.000000000               0.133000000               0.000000000               0.000000000               0.155937500               0.000000000               0.000000000               0.178875000               0.000000000               0.000000000               0.201812500               0.000000000               0.000000000               0.224750000               0.000000000               0.000000000               0.247687500               0.000000000               0.000000000               0.270625000               0.000000000               0.000000000               0.293562500               0.000000000               0.000000000               0.316500000               0.000000000               0.000000000               0.339437500               0.000000000               0.000000000               0.362375000               0.000000000               0.000000000               0.385312500               0.000000000               0.000000000               0.408250000               0.000000000               0.000000000               0.431187500               0.000000000               0.000000000               0.454125000               0.000000000               0.000000000               0.477062500               0.000000000               0.000000000               0.500000000               0.000000000 </DataArray>
</Points>
<Cells>
<DataArray type="Int32"                                    Name="connectivity"                                                      NumberOfComponents=" 1" format="ascii">
         0          1         18         17          1          2         19         18          2          3         20         19          3          4         21         20          4          5         22         21          5          6         23         22          6          7         24         23          7          8         25         24          8          9         26         25          9         10         27         26         10         11         28         27         11         12         29         28         12         13         30         29         13         14         31         30         14         15         32         31         15         16         33         32         17         18         35         34         18         19         36         35         19         20         37         36         20         21         38         37         21         22         39         38         22         23         40         39         23         24         41         40         24         25         42         41         25         26         43         42         26         27         44         43         27         28         45         44         28         29         46         45         29         30         47         46         30         31         48         47         31         32         49         48         32         33         50         49         34         35         52         51         35         36         53         52         36         37         54         53         37         38         55         54         38         39         56         55         39         40         57         56         40         41         58         57         41         42         59         58         42         43         60         59         43         44         61         60         44         45         62         61         45         46         63         62         46         47         64         63         47         48         65         64         48         49         66         65         49         50         67         66         51         52         69         68         52         53         70         69         53         54         71         70         54         55         72         71         55         56         73         72         56         57         74         73         57         58         75         74         58         59         76         75         59         60         77         76         60         61         78         77         61         62         79         78         62         63         80         79         63         64         81         80         64         65         82         81         65         66         83         82         66         67         84         83         68         69         86         85         69         70         87         86         70         71         88         87         71         72         89         88         72         73         90         89         73         74         91         90         74         75         92         91         75         76         93         92         76         77         94         93         77         78         95         94         78         79         96         95         79         80         97         96         80         81         98         97         81         82         99         98         82         83        100         99         83         84        101        100         85         86        103        102         86         87        104        103         87         88        105        104         88         89        106        105         89         90        107        106         90         91        108        107         91         92        109        108         92         93        110        109         93         94        111        110         94         95        112        111         95         96        113        112         96         97        114        113         97         98        115        114         98         99        116        115         99        100        117        116        100        101        118        117        102        103        120        119        103        104        121        120        104        105        122        121        105        106        123        122        106        107        124        123        107        108        125        124        108        109        126        125        109        110        127        126        110        111        128        127        111        112        129        128        112        113        130        129        113        114        131        130        114        115        132        131        115        116        133        132        116        117        134        133        117        118        135        134        119        120        137        136        120        121        138        137        121        122        139        138        122        123        140        139        123        124        141        140        124        125        142        141        125        126        143        142        126        127        144        143        127        128        145        144        128        129        146        145        129        130        147        146        130        131        148        147        131        132        149        148        132        133        150        149        133        134        151        150        134        135        152        151        136        137        154        153        137        138        155        154        138        139        156        155        139        140        157        156        140        141        158        157        141        142        159        158        142        143        160        159        143        144        161        160        144        145        162        161        145        146        163        162        146        147        164        163        147        148        165        164        148        149        166        165        149        150        167        166        150        151        168        167        151        152        169        168        153        154        171        170        154        155        172        171        155        156        173        172        156        157        174        173        157        158        175        174        158        159        176        175        159        160        177        176        160        161        178        177        161        162        179        178        162        163        180        179        163        164        181        180        164        165        182        181        165        166        183        182        166        167        184        183        167        168        185        184        168        169        186        185        170        171        188        187        171        172        189        188        172        173        190        189        173        174        191        190        174        175        192        191        175        176        193        192        176        177        194        193        177        178        195        194        178        179        196        195        179        180        197        196        180        181        198        197        181        182        199        198        182        183        200        199        183        184        201        200        184        185        202        201        185        186        203        202        187        188        205        204        188        189        206        205        189        190        207        206        190        191        208        207        191        192        209        208        192        193        210        209        193        194        211        210        194        195        212        211        195        196        213        212        196        197        214        213        197        198        215        214        198        199        216        215        199        200        217        216        200        201        218        217        201        202        219        218        202        203        220        219        204        205        222        221        205        206        223        222        206        207        224        223        207        208        225        224        208        209        226        225        209        210        227        226        210        211        228        227        211        212        229        228        212        213        230        229        213        214        231        230        214        215        232        231        215        216        233        232        216        217        234        233        217        218        235        234        218        219        236        235        219        220        237        236        221        222        239        238        222        223        240        239        223        224        241        240        224        225        242        241        225        226        243        242        226        227        244        243        227        228        245        244        228        229        246        245        229        230        247        246        230        231        248        247        231        232        249        248        232        233        250        249        233        234        251        250        234        235        252        251        235        236        253        252        236        237        254        253        238        239        256        255        239        240        257        256        240        241        258        257        241        242        259        258        242        243        260        259        243        244        261        260        244        245        262        261        245        246        263        262        246        247        264        263        247        248        265        264        248        249        266        265        249        250        267        266        250        251        268        267        251        252        269        268        252        253        270        269        253        254        271        270        255        256        273        272        256        257        274        273        257        258        275        274        258        259        276        275        259        260        277        276        260        261        278        277        261        262        279        278        262        263        280        279        263        264        281        280        264        265        282        281        265        266        283        282        266        267        284        283        267        268        285        284        268        269        286        285        269        270        287        286        270        271        288        287        306        307          1          0        307        308          2          1        308        309          3          2        309        310          4          3        310        311          5          4        311        312          6          5        312        313          7          6        313        314          8          7        314        315          9          8        315        316         10          9        316        317         11         10        317        318         12         11        318        319         13         12        319        320         14         13        320        321         15         14        321        322         16         15        323        324        307        306        324        325        308        307        325        326        309        308        326        327        310        309        327        328        311        310        328        329        312        311        329        330        313        312        330        331        314        313        331        332        315        314        332        333        316        315        333        334        317        316        334        335        318        317        335        336        319        318        336        337        320        319        337        338        321        320        338        339        322        321        340        341        324        323        341        342        325        324        342        343        326        325        343        344        327        326        344        345        328        327        345        346        329        328        346        347        330        329        347        348        331        330        348        349        332        331        349        350        333        332        350        351        334        333        351        352        335        334        352        353        336        335        353        354        337        336        354        355        338        337        355        356        339        338        357        358        341        340        358        359        342        341        359        360        343        342        360        361        344        343        361        362        345        344        362        363        346        345        363        364        347        346        364        365        348        347        365        366        349        348        366        367        350        349        367        368        351        350        368        369        352        351        369        370        353        352        370        371        354        353        371        372        355        354        372        373        356        355        374        375        358        357        375        376        359        358        376        377        360        359        377        378        361        360        378        379        362        361        379        380        363        362        380        381        364        363        381        382        365        364        382        383        366        365        383        384        367        366        384        385        368        367        385        386        369        368        386        387        370        369        387        388        371        370        388        389        372        371        389        390        373        372        391        392        375        374        392        393        376        375        393        394        377        376        394        395        378        377        395        396        379        378        396        397        380        379        397        398        381        380        398        399        382        381        399        400        383        382        400        401        384        383        401        402        385        384        402        403        386        385        403        404        387        386        404        405        388        387        405        406        389        388        406        407        390        389        408        409        392        391        409        410        393        392        410        411        394        393        411        412        395        394        412        413        396        395        413        414        397        396        414        415        398        397        415        416        399        398        416        417        400        399        417        418        401        400        418        419        402        401        419        420        403        402        420        421        404        403        421        422        405        404        422        423        406        405        423        424        407        406        425        426        409        408        426        427        410        409        427        428        411        410        428        429        412        411        429        430        413        412        430        431        414        413        431        432        415        414        432        433        416        415        433        434        417        416        434        435        418        417        435        436        419        418        436        437        420        419        437        438        421        420        438        439        422        421        439        440        423        422        440        441        424        423        442        443        426        425        443        444        427        426        444        445        428        427        445        446        429        428        446        447        430        429        447        448        431        430        448        449        432        431        449        450        433        432        450        451        434        433        451        452        435        434        452        453        436        435        453        454        437        436        454        455        438        437        455        456        439        438        456        457        440        439        457        458        441        440        459        460        443        442        460        461        444        443        461        462        445        444        462        463        446        445        463        464        447        446        464        465        448        447        465        466        449        448        466        467        450        449        467        468        451        450        468        469        452        451        469        470        453        452        470        471        454        453        471        472        455        454        472        473        456        455        473        474        457        456        474        475        458        457        476        477        460        459        477        478        461        460        478        479        462        461        479        480        463        462        480        481        464        463        481        482        465        464        482        483        466        465        483        484        467        466        484        485        468        467        485        486        469        468        486        487        470        469        487        488        471        470        488        489        472        471        489        490        473        472        490        491        474        473        491        492        475        474        493        494        477        476        494        495        478        477        495        496        479        478        496        497        480        479        497        498        481        480        498        499        482        481        499        500        483        482        500        501        484        483        501        502        485        484        502        503        486        485        503        504        487        486        504        505        488        487        505        506        489        488        506        507        490        489        507        508        491        490        508        509        492        491        510        511        494        493        511        512        495        494        512        513        496        495        513        514        497        496        514        515        498        497        515        516        499        498        516        517        500        499        517        518        501        500        518        519        502        501        519        520        503        502        520        521        504        503        521        522        505        504        522        523        506        505        523        524        507        506        524        525        508        507        525        526        509        508        527        528        511        510        528        529        512        511        529        530        513        512        530        531        514        513        531        532        515        514        532        533        516        515        533        534        517        516        534        535        518        517        535        536        519        518        536        537        520        519        537        538        521        520        538        539        522        521        539        540        523        522        540        541        524        523        541        542        525        524        542        543        526        525        544        545        528        527        545        546        529        528        546        547        530        529        547        548        531        530        548        549        532        531        549        550        533        532        550        551        534        533        551        552        535        534        552        553        536        535        553        554        537        536        554        555        538        537        555        556        539        538        556        557        540        539        557        558        541        540        558        559        542        541        559        560        543        542        561        562        545        544        562        563        546        545        563        564        547        546        564        565        548        547        565        566        549        548        566        567        550        549        567        568        551        550        568        569        552        551        569        570        553        552        570        571        554        553        571        572        555        554        572        573        556        555        573        574        557        556        574        575        558        557        575        576        559        558        576        577        560        559        578        579        596        595        579        580        597        596        580        581        598        597        581        582        599        598        582        583        600        599        583        584        601        600        584        585        602        601        585        586        603        602        586        587        604        603        587        588        605        604        588        589        606        605        589        590        607        606        590        591        608        607        591        592        609        608        592        593        610        609        593        594        611        610        595        596        613        612        596        597        614        613        597        598        615        614        598        599        616        615        599        600        617        616        600        601        618        617        601        602        619        618        602        603        620        619        603        604        621        620        604        605        622        621        605        606        623        622        606        607        624        623        607        608        625        624        608        609        626        625        609        610        627        626        610        611        628        627        612        613        630        629        613        614        631        630        614        615        632        631        615        616        633        632        616        617        634        633        617        618        635        634        618        619        636        635        619        620        637        636        620        621        638        637        621        622        639        638        622        623        640        639        623        624        641        640        624        625        642        641        625        626        643        642        626        627        644        643        627        628        645        644        629        630        647        646        630        631        648        647        631        632        649        648        632        633        650        649        633        634        651        650        634        635        652        651        635        636        653        652        636        637        654        653        637        638        655        654        638        639        656        655        639        640        657        656        640        641        658        657        641        642        659        658        642        643        660        659        643        644        661        660        644        645        662        661        646        647        664        663        647        648        665        664        648        649        666        665        649        650        667        666        650        651        668        667        651        652        669        668        652        653        670        669        653        654        671        670        654        655        672        671        655        656        673        672        656        657        674        673        657        658        675        674        658        659        676        675        659        660        677        676        660        661        678        677        661        662        679        678        663        664        681        680        664        665        682        681        665        666        683        682        666        667        684        683        667        668        685        684        668        669        686        685        669        670        687        686        670        671        688        687        671        672        689        688        672        673        690        689        673        674        691        690        674        675        692        691        675        676        693        692        676        677        694        693        677        678        695        694        678        679        696        695        680        681        698        697        681        682        699        698        682        683        700        699        683        684        701        700        684        685        702        701        685        686        703        702        686        687        704        703        687        688        705        704        688        689        706        705        689        690        707        706        690        691        708        707        691        692        709        708        692        693        710        709        693        694        711        710        694        695        712        711        695        696        713        712        697        698        715        714        698        699        716        715        699        700        717        716        700        701        718        717        701        702        719        718        702        703        720        719        703        704        721        720        704        705        722        721        705        706        723        722        706        707        724        723        707        708        725        724        708        709        726        725        709        710        727        726        710        711        728        727        711        712        729        728        712        713        730        729        714        715        732        731        715        716        733        732        716        717        734        733        717        718        735        734        718        719        736        735        719        720        737        736        720        721        738        737        721        722        739        738        722        723        740        739        723        724        741        740        724        725        742        741        725        726        743        742        726        727        744        743        727        728        745        744        728        729        746        745        729        730        747        746        731        732        749        748        732        733        750        749        733        734        751        750        734        735        752        751        735        736        753        752        736        737        754        753        737        738        755        754        738        739        756        755        739        740        757        756        740        741        758        757        741        742        759        758        742        743        760        759        743        744        761        760        744        745        762        761        745        746        763        762        746        747        764        763        748        749        766        765        749        750        767        766        750        751        768        767        751        752        769        768        752        753        770        769        753        754        771        770        754        755        772        771        755        756        773        772        756        757        774        773        757        758        775        774        758        759        776        775        759        760        777        776        760        761        778        777        761        762        779        778        762        763        780        779        763        764        781        780        765        766        783        782        766        767        784        783        767        768        785        784        768        769        786        785        769        770        787        786        770        771        788        787        771        772        789        788        772        773        790        789        773        774        791        790        774        775        792        791        775        776        793        792        776        777        794        793        777        778        795        794        778        779        796        795        779        780        797        796        780        781        798        797        782        783        800        799        783        784        801        800        784        785        802        801        785        786        803        802        786        787        804        803        787        788        805        804        788        789        806        805        789        790        807        806        790        791        808        807        791        792        809        808        792        793        810        809        793        794        811        810        794        795        812        811        795        796        813        812        796        797        814        813        797        798        815        814        799        800        817        816        800        801        818        817        801        802        819        818        802        803        820        819        803        804        821        820        804        805        822        821        805        806        823        822        806        807        824        823        807        808        825        824        808        809        826        825        809        810        827        826        810        811        828        827        811        812        829        828        812        813        830        829        813        814        831        830        814        815        832        831        816        817        834        833        817        818        835        834        818        819        836        835        819        820        837        836        820        821        838        837        821        822        839        838        822        823        840        839        823        824        841        840        824        825        842        841        825        826        843        842        826        827        844        843        827        828        845        844        828        829        846        845        829        830        847        846        830        831        848        847        831        832        849        848        833        834        562        561        834        835        563        562        835        836        564        563        836        837        565        564        837        838        566        565        838        839        567        566        839        840        568        567        840        841        569        568        841        842        570        569        842        843        571        570        843        844        572        571        844        845        573        572        845        846        574        573        846        847        575        574        847        848        576        575        848        849        577        576        884        885        579        578        885        886        580        579        886        887        581        580        887        888        582        581        888        889        583        582        889        890        584        583        890        891        585        584        891        892        586        585        892        893        587        586        893        894        588        587        894        895        589        588        895        896        590        589        896        897        591        590        897        898        592        591        898        899        593        592        899        900        594        593        901        902        885        884        902        903        886        885        903        904        887        886        904        905        888        887        905        906        889        888        906        907        890        889        907        908        891        890        908        909        892        891        909        910        893        892        910        911        894        893        911        912        895        894        912        913        896        895        913        914        897        896        914        915        898        897        915        916        899        898        916        917        900        899        918        919        902        901        919        920        903        902        920        921        904        903        921        922        905        904        922        923        906        905        923        924        907        906        924        925        908        907        925        926        909        908        926        927        910        909        927        928        911        910        928        929        912        911        929        930        913        912        930        931        914        913        931        932        915        914        932        933        916        915        933        934        917        916        935        936        919        918        936        937        920        919        937        938        921        920        938        939        922        921        939        940        923        922        940        941        924        923        941        942        925        924        942        943        926        925        943        944        927        926        944        945        928        927        945        946        929        928        946        947        930        929        947        948        931        930        948        949        932        931        949        950        933        932        950        951        934        933        952        953        936        935        953        954        937        936        954        955        938        937        955        956        939        938        956        957        940        939        957        958        941        940        958        959        942        941        959        960        943        942        960        961        944        943        961        962        945        944        962        963        946        945        963        964        947        946        964        965        948        947        965        966        949        948        966        967        950        949        967        968        951        950        969        970        953        952        970        971        954        953        971        972        955        954        972        973        956        955        973        974        957        956        974        975        958        957        975        976        959        958        976        977        960        959        977        978        961        960        978        979        962        961        979        980        963        962        980        981        964        963        981        982        965        964        982        983        966        965        983        984        967        966        984        985        968        967        986        987        970        969        987        988        971        970        988        989        972        971        989        990        973        972        990        991        974        973        991        992        975        974        992        993        976        975        993        994        977        976        994        995        978        977        995        996        979        978        996        997        980        979        997        998        981        980        998        999        982        981        999       1000        983        982       1000       1001        984        983       1001       1002        985        984       1003       1004        987        986       1004       1005        988        987       1005       1006        989        988       1006       1007        990        989       1007       1008        991        990       1008       1009        992        991       1009       1010        993        992       1010       1011        994        993       1011       1012        995        994       1012       1013        996        995       1013       1014        997        996       1014       1015        998        997       1015       1016        999        998       1016       1017       1000        999       1017       1018       1001       1000       1018       1019       1002       1001       1020       1021       1004       1003       1021       1022       1005       1004       1022       1023       1006       1005       1023       1024       1007       1006       1024       1025       1008       1007       1025       1026       1009       1008       1026       1027       1010       1009       1027       1028       1011       1010       1028       1029       1012       1011       1029       1030       1013       1012       1030       1031       1014       1013       1031       1032       1015       1014       1032       1033       1016       1015       1033       1034       1017       1016       1034       1035       1018       1017       1035       1036       1019       1018       1037       1038       1021       1020       1038       1039       1022       1021       1039       1040       1023       1022       1040       1041       1024       1023       1041       1042       1025       1024       1042       1043       1026       1025       1043       1044       1027       1026       1044       1045       1028       1027       1045       1046       1029       1028       1046       1047       1030       1029       1047       1048       1031       1030       1048       1049       1032       1031       1049       1050       1033       1032       1050       1051       1034       1033       1051       1052       1035       1034       1052       1053       1036       1035       1054       1055       1038       1037       1055       1056       1039       1038       1056       1057       1040       1039       1057       1058       1041       1040       1058       1059       1042       1041       1059       1060       1043       1042       1060       1061       1044       1043       1061       1062       1045       1044       1062       1063       1046       1045       1063       1064       1047       1046       1064       1065       1048       1047       1065       1066       1049       1048       1066       1067       1050       1049       1067       1068       1051       1050       1068       1069       1052       1051       1069       1070       1053       1052       1071       1072       1055       1054       1072       1073       1056       1055       1073       1074       1057       1056       1074       1075       1058       1057       1075       1076       1059       1058       1076       1077       1060       1059       1077       1078       1061       1060       1078       1079       1062       1061       1079       1080       1063       1062       1080       1081       1064       1063       1081       1082       1065       1064       1082       1083       1066       1065       1083       1084       1067       1066       1084       1085       1068       1067       1085       1086       1069       1068       1086       1087       1070       1069       1088       1089       1072       1071       1089       1090       1073       1072       1090       1091       1074       1073       1091       1092       1075       1074       1092       1093       1076       1075       1093       1094       1077       1076       1094       1095       1078       1077       1095       1096       1079       1078       1096       1097       1080       1079       1097       1098       1081       1080       1098       1099       1082       1081       1099       1100       1083       1082       1100       1101       1084       1083       1101       1102       1085       1084       1102       1103       1086       1085       1103       1104       1087       1086       1105       1106       1089       1088       1106       1107       1090       1089       1107       1108       1091       1090       1108       1109       1092       1091       1109       1110       1093       1092       1110       1111       1094       1093       1111       1112       1095       1094       1112       1113       1096       1095       1113       1114       1097       1096       1114       1115       1098       1097       1115       1116       1099       1098       1116       1117       1100       1099       1117       1118       1101       1100       1118       1119       1102       1101       1119       1120       1103       1102       1120       1121       1104       1103       1122       1123       1106       1105       1123       1124       1107       1106       1124       1125       1108       1107       1125       1126       1109       1108       1126       1127       1110       1109       1127       1128       1111       1110       1128       1129       1112       1111       1129       1130       1113       1112       1130       1131       1114       1113       1131       1132       1115       1114       1132       1133       1116       1115       1133       1134       1117       1116       1134       1135       1118       1117       1135       1136       1119       1118       1136       1137       1120       1119       1137       1138       1121       1120        272        273       1123       1122        273        274       1124       1123        274        275       1125       1124        275        276       1126       1125        276        277       1127       1126        277        278       1128       1127        278        279       1129       1128        279        280       1130       1129        280        281       1131       1130        281        282       1132       1131        282        283       1133       1132        283        284       1134       1133        284        285       1135       1134        285        286       1136       1135        286        287       1137       1136        287        288       1138       1137 </DataArray>
<DataArray type="Int32"                                    Name="offsets"                                                      NumberOfComponents=" 1" format="ascii">
         4          8         12         16         20         24         28         32         36         40         44         48         52         56         60         64         68         72         76         80         84         88         92         96        100        104        108        112        116        120        124        128        132        136        140        144        148        152        156        160        164        168        172        176        180        184        188        192        196        200        204        208        212        216        220        224        228        232        236        240        244        248        252        256        260        264        268        272        276        280        284        288        292        296        300        304        308        312        316        320        324        328        332        336        340        344        348        352        356        360        364        368        372        376        380        384        388        392        396        400        404        408        412        416        420        424        428        432        436        440        444        448        452        456        460        464        468        472        476        480        484        488        492        496        500        504        508        512        516        520        524        528        532        536        540        544        548        552        556        560        564        568        572        576        580        584        588        592        596        600        604        608        612        616        620        624        628        632        636        640        644        648        652        656        660        664        668        672        676        680        684        688        692        696        700        704        708        712        716        720        724        728        732        736        740        744        748        752        756        760        764        768        772        776        780        784        788        792        796        800        804        808        812        816        820        824        828        832        836        840        844        848        852        856        860        864        868        872        876        880        884        888        892        896        900        904        908        912        916        920        924        928        932        936        940        944        948        952        956        960        964        968        972        976        980        984        988        992        996       1000       1004       1008       1012       1016       1020       1024       1028       1032       1036       1040       1044       1048       1052       1056       1060       1064       1068       1072       1076       1080       1084       1088       1092       1096       1100       1104       1108       1112       1116       1120       1124       1128       1132       1136       1140       1144       1148       1152       1156       1160       1164       1168       1172       1176       1180       1184       1188       1192       1196       1200       1204       1208       1212       1216       1220       1224       1228       1232       1236       1240       1244       1248       1252       1256       1260       1264       1268       1272       1276       1280       1284       1288       1292       1296       1300       1304       1308       1312       1316       1320       1324       1328       1332       1336       1340       1344       1348       1352       1356       1360       1364       1368       1372       1376       1380       1384       1388       1392       1396       1400       1404       1408       1412       1416       1420       1424       1428       1432       1436       1440       1444       1448       1452       1456       1460       1464       1468       1472       1476       1480       1484       1488       1492       1496       1500       1504       1508       1512       1516       1520       1524       1528       1532       1536       1540       1544       1548       1552       1556       1560       1564       1568       1572       1576       1580       1584       1588       1592       1596       1600       1604       1608       1612       1616       1620       1624       1628       1632       1636       1640       1644       1648       1652       1656       1660       1664       1668       1672       1676       1680       1684       1688       1692       1696       1700       1704       1708       1712       1716       1720       1724       1728       1732       1736       1740       1744       1748       1752       1756       1760       1764       1768       1772       1776       1780       1784       1788       1792       1796       1800       1804       1808       1812       1816       1820       1824       1828       1832       1836       1840       1844       1848       1852       1856       1860       1864       1868       1872       1876       1880       1884       1888       1892       1896       1900       1904       1908       1912       1916       1920       1924       1928       1932       1936       1940       1944       1948       1952       1956       1960       1964       1968       1972       1976       1980       1984       1988       1992       1996       2000       2004       2008       2012       2016       2020       2024       2028       2032       2036       2040       2044       2048       2052       2056       2060       2064       2068       2072       2076       2080       2084       2088       2092       2096       2100       2104       2108       2112       2116       2120       2124       2128       2132       2136       2140       2144       2148       2152       2156       2160       2164       2168       2172       2176       2180       2184       2188       2192       2196       2200       2204       2208       2212       2216       2220       2224       2228       2232       2236       2240       2244       2248       2252       2256       2260       2264       2268       2272       2276       2280       2284       2288       2292       2296       2300       2304       2308       2312       2316       2320       2324       2328       2332       2336       2340       2344       2348       2352       2356       2360       2364       2368       2372       2376       2380       2384       2388       2392       2396       2400       2404       2408       2412       2416       2420       2424       2428       2432       2436       2440       2444       2448       2452       2456       2460       2464       2468       2472       2476       2480       2484       2488       2492       2496       2500       2504       2508       2512       2516       2520       2524       2528       2532       2536       2540       2544       2548       2552       2556       2560       2564       2568       2572       2576       2580       2584       2588       2592       2596       2600       2604       2608       2612       2616       2620       2624       2628       2632       2636       2640       2644       2648       2652       2656       2660       2664       2668       2672       2676       2680       2684       2688       2692       2696       2700       2704       2708       2712       2716       2720       2724       2728       2732       2736       2740       2744       2748       2752       2756       2760       2764       2768       2772       2776       2780       2784       2788       2792       2796       2800       2804       2808       2812       2816       2820       2824       2828       2832       2836       2840       2844       2848       2852       2856       2860       2864       2868       2872       2876       2880       2884       2888       2892       2896       2900       2904       2908       2912       2916       2920       2924       2928       2932       2936       2940       2944       2948       2952       2956       2960       2964       2968       2972       2976       2980       2984       2988       2992       2996       3000       3004       3008       3012       3016       3020       3024       3028       3032       3036       3040       3044       3048       3052       3056       3060       3064       3068       3072       3076       3080       3084       3088       3092       3096       3100       3104       3108       3112       3116       3120       3124       3128       3132       3136       3140       3144       3148       3152       3156       3160       3164       3168       3172       3176       3180       3184       3188       3192       3196       3200       3204       3208       3212       3216       3220       3224       3228       3232       3236       3240       3244       3248       3252       3256       3260       3264       3268       3272       3276       3280       3284       3288       3292       3296       3300       3304       3308       3312       3316       3320       3324       3328       3332       3336       3340       3344       3348       3352       3356       3360       3364       3368       3372       3376       3380       3384       3388       3392       3396       3400       3404       3408       3412       3416       3420       3424       3428       3432       3436       3440       3444       3448       3452       3456       3460       3464       3468       3472       3476       3480       3484       3488       3492       3496       3500       3504       3508       3512       3516       3520       3524       3528       3532       3536       3540       3544       3548       3552       3556       3560       3564       3568       3572       3576       3580       3584       3588       3592       3596       3600       3604       3608       3612       3616       3620       3624       3628       3632       3636       3640       3644       3648       3652       3656       3660       3664       3668       3672       3676       3680       3684       3688       3692       3696       3700       3704       3708       3712       3716       3720       3724       3728       3732       3736       3740       3744       3748       3752       3756       3760       3764       3768       3772       3776       3780       3784       3788       3792       3796       3800       3804       3808       3812       3816       3820       3824       3828       3832       3836       3840       3844       3848       3852       3856       3860       3864       3868       3872       3876       3880       3884       3888       3892       3896       3900       3904       3908       3912       3916       3920       3924       3928       3932       3936       3940       3944       3948       3952       3956       3960       3964       3968       3972       3976       3980       3984       3988       3992       3996       4000       4004       4008       4012       4016       4020       4024       4028       4032       4036       4040       4044       4048       4052       4056       4060       4064       4068       4072       4076       4080       4084       4088       4092       4096 </DataArray>
<DataArray type="UInt8"                                    Name="types"                                                      NumberOfComponents=" 1" format="ascii">
         9          9          9          9          9          9          9          9          9          9          9          9          9          9          9          9          9          9          9          9          9          9          9          9          9          9          9          9          9          9          9          9          9          9          9          9          9          9          9          9          9          9          9          9          9          9          9          9          9          9          9          9          9          9          9          9          9          9          9          9          9          9          9          9          9          9          9          9          9          9          9          9          9          9          9          9          9          9          9          9          9          9          9          9          9          9          9          9          9          9          9          9          9          9          9          9          9          9          9          9          9          9          9          9          9          9          9          9          9          9          9          9          9          9          9          9          9          9          9          9          9          9          9          9          9          9          9          9          9          9          9          9          9          9          9          9          9          9          9          9          9          9          9          9          9          9          9          9          9          9          9          9          9          9          9          9          9          9          9          9          9          9          9          9          9          9          9          9          9          9          9          9          9          9          9          9          9          9          9          9          9          9          9          9          9          9          9          9          9          9          9          9          9          9          9          9          9          9          9          9          9          9          9          9          9          9          9          9          9          9          9          9          9          9          9          9          9          9          9          9          9          9          9          9          9          9          9          9          9          9          9          9          9          9          9          9          9          9          9          9          9          9          9          9          9          9          9          9          9          9          9          9          9          9          9          9          9          9          9          9          9          9          9          9          9          9          9          9          9          9          9          9          9          9          9          9          9          9          9          9          9          9          9          9          9          9          9          9          9          9          9          9          9          9          9          9          9          9          9          9          9          9          9          9          9          9          9          9          9          9          9          9          9          9          9          9          9          9          9          9          9          9          9          9          9          9          9          9          9          9          9          9          9          9          9          9          9          9          9          9          9          9          9          9          9          9          9          9          9          9          9          9          9          9          9          9          9          9          9          9          9          9          9          9          9          9          9          9          9          9          9          9          9          9          9          9          9          9          9          9          9          9          9          9          9          9          9          9          9          9          9          9          9          9          9          9          9          9          9          9          9          9          9          9          9          9          9          9          9          9          9          9          9          9          9          9          9          9          9          9          9          9          9          9          9          9          9          9          9          9          9          9          9          9          9          9          9          9          9          9          9          9          9          9          9          9          9          9          9          9          9          9          9          9          9          9          9          9          9          9          9          9          9          9          9          9          9          9          9          9          9          9          9          9          9          9          9          9          9          9          9          9          9          9          9          9          9          9          9          9          9          9          9          9          9          9          9          9          9          9          9          9          9          9          9          9          9          9          9          9          9          9          9          9          9          9          9          9          9          9          9          9          9          9          9          9          9          9          9          9          9          9          9          9          9          9          9          9          9          9          9          9          9          9          9          9          9          9          9          9          9          9          9          9          9          9          9          9          9          9          9          9          9          9          9          9          9          9          9          9          9          9          9          9          9          9          9          9          9          9          9          9          9          9          9          9          9          9          9          9          9          9          9          9          9          9          9          9          9          9          9          9          9          9          9          9          9          9          9          9          9          9          9          9          9          9          9          9          9          9          9          9          9          9          9          9          9          9          9          9          9          9          9          9          9          9          9          9          9          9          9          9          9          9          9          9          9          9          9          9          9          9          9          9          9          9          9          9          9          9          9          9          9          9          9          9          9          9          9          9          9          9          9          9          9          9          9          9          9          9          9          9          9          9          9          9          9          9          9          9          9          9          9          9          9          9          9          9          9          9          9          9          9          9          9          9          9          9          9          9          9          9          9          9          9          9          9          9          9          9          9          9          9          9          9          9          9          9          9          9          9          9          9          9          9          9          9          9          9          9          9          9          9          9          9          9          9          9          9          9          9          9          9          9          9          9          9          9          9          9          9          9          9          9          9          9          9          9          9          9          9          9          9          9          9          9          9          9          9          9          9          9          9          9          9          9          9          9          9          9          9          9          9          9          9          9          9          9          9          9          9          9          9          9          9          9          9          9          9          9          9          9          9          9          9          9          9          9          9          9          9          9          9          9          9          9          9          9          9          9          9          9          9          9          9          9          9          9          9          9          9          9          9          9          9          9          9          9          9          9          9          9          9          9          9          9          9          9          9          9          9          9          9          9          9          9          9          9          9          9          9          9          9          9          9          9          9          9          9          9          9          9          9          9          9          9          9          9          9          9          9          9          9          9          9          9          9          9          9          9          9          9          9          9          9          9          9          9          9          9          9          9          9          9          9          9          9          9          9          9          9          9          9          9          9          9          9          9          9          9          9          9          9          9          9          9          9          9          9          9          9          9          9          9          9          9          9          9          9          9          9          9          9          9          9          9          9          9          9          9          9          9          9          9          9          9          9          9          9          9          9          9          9          9          9          9          9          9          9          9          9          9          9          9          9          9          9          9          9          9          9          9          9          9          9          9          9          9          9          9          9          9          9          9          9          9          9          9          9          9          9          9          9          9          9          9          9          9          9          9          9          9          9          9 </DataArray>
</Cells>
<CellData>
<DataArray type="Int32"                                    Name="material"                                                      NumberOfComponents=" 1" format="ascii">
         1          1          1          1          1          1          1          1          1          1          1          1          1          1          1          1          1          1          1          1          1          1          1          1          1          1          1          1          1          1          1          1          1          1          1          1          1          1          1          1          1          1          1          1          1          1          1          1          1          1          1          1          1          1          1          1          1          1          1          1          1          1          1          1          1          1          1          1          1          1          1          1          1          1          1          1          1          1          1          1          1          1          1          1          1          1          1          1          1          1          1          1          1          1          1          1          1          1          1          1          1          1          1          1          1          1          1          1          1          1          1          1          1          1          1          1          1          1          1          1          1          1          1          1          1          1          1          1          1          1          1          1          1          1          1          1          1          1          1          1          1          1          1          1          1          1          1          1          1          1          1          1          1          1          1          1          1          1          1          1          1          1          1          1          1          1          1          1          1          1          1          1          1          1          1          1          1          1          1          1          1          1          1          1          1          1          1          1          1          1          1          1          1          1          1          1          1          1          1          1          1          1          1          1          1          1          1          1          1          1          1          1          1          1          1          1          1          1          1          1          1          1          1          1          1          1          1          1          1          1          1          1          1          1          1          1          1          1          1          1          1          1          1          1          1          1          1          1          1          1          1          1          1          1          1          1          1          1          1          1          1          1          1          1          1          1          1          1          1          1          1          1          1          1          1          1          1          1          1          1          1          1          1          1          1          1          1          1          1          1          1          1          1          1          1          1          1          1          1          1          1          1          1          1          1          1          1          1          1          1          1          1          1          1          1          1          1          1          1          1          1          1          1          1          1          1          1          1          1          1          1          1          1          1          1          1          1          1          1          1          1          1          1          1          1          1          1          1          1          1          1          1          1          1          1          1          1          1          1          1          1          1          1          1          1          1          1          1          1          1          1          1          1          1          1          1          1          1          1          1          1          1          1          1          1          1          1          1          1          1          1          1          1          1          1          1          1          1          1          1          1          1          1          1          1          1          1          1          1          1          1          1          1          1          1          1          1          1          1          1          1          1          1          1          1          1          1          1          1          1          1          1          1          1          1          1          1          1          1          1          1          1          1          1          1          1          1          1          1          1          1          1          1          1          1          1          1          1          1          1          1          1          1          1          1          1          1          1          1          1          1          1          1          1          1          1          1          1          1          1          1          1          1          1          1          1          1          1          1          1          1          1          1          1          1          1          1          1          1          1          1          1          1          1          1          1          1          1          1          1          1          1          1          1          1          1          1          1          1          1          1          1          1          1          1          1          1          1          1          1          1          1          1          1          1          1          1          1          1          1          1          1          1          1          1          1          1          1          1          1          1          1          1          1          1          1          1          1          1          1          1          1          1          1          1          1          1          1          1          1          1          1          1          1          1          1          1          1          1          1          1          1          1          1          1          1          1          1          1          1          1          1          1          1          1          1          1          1          1          1          1          1          1          1          1          1          1          1          1          1          1          1          1          1          1          1          1          1          1          1          1          1          1          1          1          1          1          1          1          1          1          1          1          1          1          1          1          1          1          1          1          1          1          1          1          1          1          1          1          1          1          1          1          1          1          1          1          1          1          1          1          1          1          1          1          1          1          1          1          1          1          1          1          1          1          1          1          1          1          1          1          1          1          1          1          1          1          1          1          1          1          1          1          1          1          1          1          1          1          1          1          1          1          1          1          1          1          1          1          1          1          1          1          1          1          1          1          1          1          1          1          1          1          1          1          1          1          1          1          1          1          1          1          1          1          1          1          1          1          1          1          1          1          1          1          1          1          1          1          1          1          1          1          1          1          1          1          1          1          1          1          1          1          1          1          1          1          1          1          1          1          1          1          1          1          1          1          1          1          1          1          1          1          1          1          1          1          1          1          1          1          1          1          1          1          1          1          1          1          1          1          1          1          1          1          1          1          1          1          1          1          1          1          1          1          1          1          1          1          1          1          1          1          1          1          1          1          1          1          1          1          1          1          1          1          1          1          1          1          1          1          1          1          1          1          1          1          1          1          1          1          1          1          1          1          1          1          1          1          1          1          1          1          1          1          1          1          1          1          1          1          1          1          1          1          1          1          1          1          1          1          1          1          1          1          1          1          1          1          1          1          1          1          1          1          1          1          1          1          1          1          1          1          1          1          1          1          1          1          1          1          1          1          1          1          1          1          1          1          1          1          1          1          1          1          1          1          1          1          1          1          1          1          1          1          1          1          1          1          1          1          1          1          1          1          1          1          1          1          1          1          1          1          1          1          1          1          1          1          1          1          1          1          1          1          1          1          1          1          1          1          1          1          1          1          1          1          1          1          1          1          1          1          1          1          1          1          1          1          1          1          1          1          1          1          1          1          1          1          1          1          1          1          1          1          1          1          1          1          1          1          1          1          1          1          1          1          1          1          1          1          1          1          1 </DataArray>
</CellData>
<PointData>
<DataArray type="Float64"                                    Name="u"                                                      NumberOfComponents=" 3" format="ascii">
             -0.000669910              -0.000000000               0.999999984              -0.000718741               0.000000000               0.999999984              -0.000740024              -0.000000000               0.999999984              -0.000751736               0.000000000               0.999999984              -0.000760775               0.000000000               0.999999984              -0.000769859               0.000000000               0.999999984              -0.000779950               0.000000000               0.999999984              -0.000791258               0.000000000               0.999999984              -0.000803623               0.000000000               0.999999984              -0.000816783               0.000000000               0.999999984              -0.000830496              -0.000000000               0.999999984              -0.000844666              -0.000000000               0.999999984              -0.000859229              -0.000000000               0.999999984              -0.000873799               0.000000000               0.999999984              -0.000887969              -0.000000000               0.999999984              -0.000901251               0.000000000               0.999999984              -0.000912897              -0.000000000               0.999999984              -0.000666269               0.000126142               0.999999984              -0.000711480               0.000103098               0.999999984              -0.000730350               0.000093193               0.999999984              -0.000740587               0.000090055               0.999999984              -0.000748696               0.000090491               0.999999984              -0.000757050               0.000092824               0.999999984              -0.000766500               0.000096005               0.999999984              -0.000777191               0.000099481               0.999999984              -0.000788938               0.000102769               0.999999984              -0.000801431               0.000105464               0.999999984              -0.000814466               0.000107408               0.999999984              -0.000827793               0.000108594               0.999999984              -0.000841134               0.000108641               0.999999984              -0.000854222               0.000107128               0.999999984              -0.000866711               0.000103378               0.999999984              -0.000878186               0.000096844               0.999999984              -0.000888100               0.000086299               0.999999984              -0.000655173               0.000251231               0.999999984              -0.000689915               0.000205664               0.999999984              -0.000702418               0.000187039               0.999999984              -0.000708880               0.000181746               0.999999984              -0.000714567               0.000183283               0.999999984              -0.000721241               0.000188336               0.999999984              -0.000729304               0.000194942               0.999999984              -0.000738615               0.000201970               0.999999984              -0.000748794               0.000208549               0.999999984              -0.000759410               0.000213986               0.999999984              -0.000770234               0.000217942               0.999999984              -0.000780937               0.000220233               0.999999984              -0.000791253               0.000220363               0.999999984              -0.000800834               0.000217609               0.999999984              -0.000809321               0.000211026               0.999999984              -0.000816418               0.000199537               0.999999984              -0.000821779               0.000181923               0.999999984              -0.000636929               0.000374088               0.999999984              -0.000655214               0.000307280               0.999999984              -0.000658541               0.000281933               0.999999984              -0.000659922               0.000276076               0.999999984              -0.000662749               0.000279822               0.999999984              -0.000667578               0.000288196               0.999999984              -0.000674041               0.000298447               0.999999984              -0.000681549               0.000309083               0.999999984              -0.000689479               0.000318793               0.999999984              -0.000697428               0.000326856               0.999999984              -0.000705016               0.000332763               0.999999984              -0.000711860               0.000336192               0.999999984              -0.000717525               0.000336621               0.999999984              -0.000721727               0.000333233               0.999999984              -0.000724241               0.000324879               0.999999984              -0.000724870               0.000310754               0.999999984              -0.000723723               0.000290315               0.999999984              -0.000612030               0.000493491               0.999999984              -0.000609104               0.000407639               0.999999984              -0.000602270               0.000378001               0.999999984              -0.000598890               0.000373247               0.999999984              -0.000599360               0.000380156               0.999999984              -0.000602716               0.000392296               0.999999984              -0.000607706               0.000406343               0.999999984              -0.000613417               0.000420240               0.999999984              -0.000619033               0.000432818               0.999999984              -0.000623906               0.000443050               0.999999984              -0.000627475               0.000450509               0.999999984              -0.000629364               0.000454817               0.999999984              -0.000629199               0.000455505               0.999999984              -0.000626783               0.000451754               0.999999984              -0.000622034               0.000442776               0.999999984              -0.000615202               0.000428425               0.999999984              -0.000606830               0.000408877               0.999999984              -0.000580853               0.000608298               0.999999984              -0.000554006               0.000506647               0.999999984              -0.000537929               0.000475147               0.999999984              -0.000531153               0.000472831               0.999999984              -0.000530431               0.000483402               0.999999984              -0.000533162               0.000499361               0.999999984              -0.000537243               0.000516793               0.999999984              -0.000541203               0.000533466               0.999999984              -0.000544008               0.000548182               0.999999984              -0.000545017               0.000560140               0.999999984              -0.000543754               0.000568826               0.999999984              -0.000539911               0.000573773               0.999999984              -0.000533181               0.000574470               0.999999984              -0.000523495               0.000570527               0.999999984              -0.000511181               0.000561762               0.999999984              -0.000496893               0.000548726               0.999999984              -0.000481385               0.000532424               0.999999984              -0.000543890               0.000717410               0.999999984              -0.000492736               0.000604332               0.999999984              -0.000469645               0.000572952               0.999999984              -0.000461674               0.000573751               0.999999984              -0.000461413               0.000587908               0.999999984              -0.000464318               0.000607238               0.999999984              -0.000467662               0.000627368               0.999999984              -0.000469619               0.000646168               0.999999984              -0.000469138               0.000662515               0.999999984              -0.000465647               0.000675773               0.999999984              -0.000458799               0.000685370               0.999999984              -0.000448330               0.000690623               0.999999984              -0.000434262               0.000691157               0.999999984              -0.000416955               0.000687280               0.999999984              -0.000397170               0.000679511               0.999999984              -0.000375674               0.000668812               0.999999984              -0.000353154               0.000656227               0.999999984              -0.000502038               0.000819554               0.999999984              -0.000428236               0.000700410               0.999999984              -0.000401347               0.000670508               0.999999984              -0.000394750               0.000674271               0.999999984              -0.000396032               0.000691549               0.999999984              -0.000399524               0.000713579               0.999999984              -0.000401884               0.000736002               0.999999984              -0.000401295               0.000756434               0.999999984              -0.000396834               0.000773979               0.999999984              -0.000388084               0.000788004               0.999999984              -0.000374759               0.000797988               0.999999984              -0.000356877               0.000803087               0.999999984              -0.000334949               0.000803583               0.999999984              -0.000309829               0.000800369               0.999999984              -0.000282439               0.000794334               0.999999984              -0.000253561               0.000786350               0.999999984              -0.000223929               0.000777386               0.999999984              -0.000456632               0.000912968               0.999999984              -0.000362733               0.000794719               0.999999984              -0.000336723               0.000766442               0.999999984              -0.000333149               0.000772506               0.999999984              -0.000336694               0.000792178               0.999999984              -0.000340630               0.000816411               0.999999984              -0.000341365               0.000840690               0.999999984              -0.000337442               0.000862603               0.999999984              -0.000328217               0.000880921               0.999999984              -0.000313264               0.000895189               0.999999984              -0.000292468               0.000904858               0.999999984              -0.000266323               0.000909875               0.999999984              -0.000235951               0.000910898               0.999999984              -0.000202506               0.000909088               0.999999984              -0.000167128               0.000905456               0.999999984              -0.000130827               0.000900757               0.999999984              -0.000094144               0.000895612               0.999999984              -0.000409795               0.001001154               0.999999984              -0.000308456               0.000898999               0.999999984              -0.000279198               0.000865727               0.999999984              -0.000274501               0.000865382               0.999999984              -0.000277727               0.000880207               0.999999984              -0.000282127               0.000901562               0.999999984              -0.000284093               0.000924859               0.999999984              -0.000282175               0.000947539               0.999999984              -0.000275500               0.000968020               0.999999984              -0.000263513               0.000985605               0.999999984              -0.000245941               0.000999888               0.999999984              -0.000222939               0.001010591               0.999999984              -0.000195151               0.001017927               0.999999984              -0.000163158               0.001022396               0.999999984              -0.000128308               0.001024826               0.999999984              -0.000091542               0.001025995               0.999999984              -0.000053832               0.001026498               0.999999984              -0.000358580               0.001081171               0.999999984              -0.000257172               0.000999664               0.999999984              -0.000224767               0.000967394               0.999999984              -0.000217995               0.000962990               0.999999984              -0.000220050               0.000973957               0.999999984              -0.000224121               0.000992817               0.999999984              -0.000226842               0.001015151               0.999999984              -0.000226532               0.001038336               0.999999984              -0.000222038               0.001060704               0.999999984              -0.000212720               0.001081202               0.999999984              -0.000198174               0.001099427               0.999999984              -0.000178297               0.001114912               0.999999984              -0.000153272               0.001127685               0.999999984              -0.000123465               0.001137852               0.999999984              -0.000089503               0.001145968               0.999999984              -0.000052379               0.001152632               0.999999984              -0.000013255               0.001158588               0.999999984              -0.000304044               0.001151175               0.999999984              -0.000208801               0.001093688               0.999999984              -0.000175029               0.001066797               0.999999984              -0.000165793               0.001061707               0.999999984              -0.000166036               0.001070499               0.999999984              -0.000169160               0.001087656               0.999999984              -0.000171880               0.001109384               0.999999984              -0.000172479               0.001133207               0.999999984              -0.000169632               0.001157414               0.999999984              -0.000162596               0.001180765               0.999999984              -0.000150873               0.001202704               0.999999984              -0.000134174               0.001222713               0.999999984              -0.000112254               0.001240502               0.999999984              -0.000085048               0.001256056               0.999999984              -0.000052583               0.001269632               0.999999984              -0.000015303               0.001281651               0.999999984               0.000025782               0.001292723               0.999999984              -0.000246638               0.001209999               0.999999984              -0.000163342               0.001177157               0.999999984              -0.000130700               0.001159003               0.999999984              -0.000119861               0.001156008               0.999999984              -0.000118271               0.001164517               0.999999984              -0.000119947               0.001181188               0.999999984              -0.000122074               0.001202995               0.999999984              -0.000122971               0.001227716               0.999999984              -0.000121269               0.001253786               0.999999984              -0.000116061               0.001280121               0.999999984              -0.000106868               0.001305836               0.999999984              -0.000093350               0.001330410               0.999999984              -0.000074960               0.001353405               0.999999984              -0.000051044               0.001374469               0.999999984              -0.000021182               0.001393605               0.999999984               0.000014964               0.001411141               0.999999984               0.000057357               0.001427476               0.999999984              -0.000186974               0.001256611               0.999999984              -0.000120424               0.001246254               0.999999984              -0.000092025               0.001238328               0.999999984              -0.000081167               0.001239471               0.999999984              -0.000078335               0.001249477               0.999999984              -0.000078719               0.001266676               0.999999984              -0.000079981               0.001289180               0.999999984              -0.000080653               0.001315193               0.999999984              -0.000079607               0.001343274               0.999999984              -0.000075994               0.001372448               0.999999984              -0.000069214               0.001401859               0.999999984              -0.000058883               0.001430963               0.999999984              -0.000044379               0.001459190               0.999999984              -0.000024931               0.001486150               0.999999984               0.000000568               0.001511471               0.999999984               0.000033157               0.001535086               0.999999984               0.000073878               0.001557150               0.999999984              -0.000125606               0.001290394               0.999999984              -0.000079343               0.001297918               0.999999984              -0.000058291               0.001299521               0.999999984              -0.000049444               0.001305440               0.999999984              -0.000046515               0.001317776               0.999999984              -0.000046155               0.001336231               0.999999984              -0.000046624               0.001359770               0.999999984              -0.000046955               0.001387135               0.999999984              -0.000046367               0.001417064               0.999999984              -0.000044110               0.001448836               0.999999984              -0.000039718               0.001481628               0.999999984              -0.000032644               0.001514785               0.999999984              -0.000022480               0.001547803               0.999999984              -0.000008522               0.001580297               0.999999984               0.000010484               0.001611734               0.999999984               0.000035850               0.001641694               0.999999984               0.000069302               0.001669733               0.999999984              -0.000063076               0.001310890               0.999999984              -0.000039392               0.001329917               0.999999984              -0.000028160               0.001338177               0.999999984              -0.000023265               0.001347834               0.999999984              -0.000021420               0.001362305               0.999999984              -0.000021009               0.001382032               0.999999984              -0.000021033               0.001406520               0.999999984              -0.000021054               0.001434897               0.999999984              -0.000020860               0.001466187               0.999999984              -0.000019836               0.001499721               0.999999984              -0.000017636               0.001534913               0.999999984              -0.000014078               0.001571112               0.999999984              -0.000008787               0.001607731               0.999999984              -0.000001343               0.001644400               0.999999984               0.000008860               0.001680446               0.999999984               0.000022982               0.001715241               0.999999984               0.000042249               0.001747926               0.999999984              -0.000000000               0.001317679               0.999999984               0.000000000               0.001340671               0.999999984              -0.000000000               0.001351287               0.999999984              -0.000000000               0.001362320               0.999999984              -0.000000000               0.001377721               0.999999984              -0.000000000               0.001398026               0.999999984               0.000000000               0.001422916               0.999999984               0.000000000               0.001451670               0.999999984              -0.000000000               0.001483460               0.999999984               0.000000000               0.001517743               0.999999984              -0.000000000               0.001553778               0.999999984              -0.000000000               0.001591062               0.999999984              -0.000000000               0.001629036               0.999999984               0.000000000               0.001667152               0.999999984               0.000000000               0.001704854               0.999999984              -0.000000000               0.001741467               0.999999984               0.000000000               0.001775933               0.999999984              -0.000669910              -0.000000000               0.999999984              -0.000718741               0.000000000               0.999999984              -0.000740024              -0.000000000               0.999999984              -0.000751736               0.000000000               0.999999984              -0.000760775               0.000000000               0.999999984              -0.000769859               0.000000000               0.999999984              -0.000779950               0.000000000               0.999999984              -0.000791258               0.000000000               0.999999984              -0.000803623               0.000000000               0.999999984              -0.000816783               0.000000000               0.999999984              -0.000830496              -0.000000000               0.999999984              -0.000844666              -0.000000000               0.999999984              -0.000859229              -0.000000000               0.999999984              -0.000873799               0.000000000               0.999999984              -0.000887969              -0.000000000               0.999999984              -0.000901251               0.000000000               0.999999984              -0.000912897              -0.000000000               0.999999984              -0.000666269              -0.000126142               0.999999984              -0.000711480              -0.000103098               0.999999984              -0.000730350              -0.000093193               0.999999984              -0.000740587              -0.000090055               0.999999984              -0.000748696              -0.000090491               0.999999984              -0.000757050              -0.000092824               0.999999984              -0.000766500              -0.000096005               0.999999984              -0.000777191              -0.000099481               0.999999984              -0.000788938              -0.000102769               0.999999984              -0.000801431              -0.000105464               0.999999984              -0.000814466              -0.000107408               0.999999984              -0.000827793              -0.000108594               0.999999984              -0.000841134              -0.000108641               0.999999984              -0.000854222              -0.000107128               0.999999984              -0.000866711              -0.000103378               0.999999984              -0.000878186              -0.000096844               0.999999984              -0.000888100              -0.000086299               0.999999984              -0.000655173              -0.000251231               0.999999984              -0.000689915              -0.000205664               0.999999984              -0.000702418              -0.000187039               0.999999984              -0.000708880              -0.000181746               0.999999984              -0.000714567              -0.000183283               0.999999984              -0.000721241              -0.000188336               0.999999984              -0.000729304              -0.000194942               0.999999984              -0.000738615              -0.000201970               0.999999984              -0.000748794              -0.000208549               0.999999984              -0.000759410              -0.000213986               0.999999984              -0.000770234              -0.000217942               0.999999984              -0.000780937              -0.000220233               0.999999984              -0.000791253              -0.000220363               0.999999984              -0.000800834              -0.000217609               0.999999984              -0.000809321              -0.000211026               0.999999984              -0.000816418              -0.000199537               0.999999984              -0.000821779              -0.000181923               0.999999984              -0.000636929              -0.000374088               0.999999984              -0.000655214              -0.000307280               0.999999984              -0.000658541              -0.000281933               0.999999984              -0.000659922              -0.000276076               0.999999984              -0.000662749              -0.000279822               0.999999984              -0.000667578              -0.000288196               0.999999984              -0.000674041              -0.000298447               0.999999984              -0.000681549              -0.000309083               0.999999984              -0.000689479              -0.000318793               0.999999984              -0.000697428              -0.000326856               0.999999984              -0.000705016              -0.000332763               0.999999984              -0.000711860              -0.000336192               0.999999984              -0.000717525              -0.000336621               0.999999984              -0.000721727              -0.000333233               0.999999984              -0.000724241              -0.000324879               0.999999984              -0.000724870              -0.000310754               0.999999984              -0.000723723              -0.000290315               0.999999984              -0.000612030              -0.000493491               0.999999984              -0.000609104              -0.000407639               0.999999984              -0.000602270              -0.000378001               0.999999984              -0.000598890              -0.000373247               0.999999984              -0.000599360              -0.000380156               0.999999984              -0.000602716              -0.000392296               0.999999984              -0.000607706              -0.000406343               0.999999984              -0.000613417              -0.000420240               0.999999984              -0.000619033              -0.000432818               0.999999984              -0.000623906              -0.000443050               0.999999984              -0.000627475              -0.000450509               0.999999984              -0.000629364              -0.000454817               0.999999984              -0.000629199              -0.000455505               0.999999984              -0.000626783              -0.000451754               0.999999984              -0.000622034              -0.000442776               0.999999984              -0.000615202              -0.000428425               0.999999984              -0.000606830              -0.000408877               0.999999984              -0.000580853              -0.000608298               0.999999984              -0.000554006              -0.000506647               0.999999984              -0.000537929              -0.000475147               0.999999984              -0.000531153              -0.000472831               0.999999984              -0.000530431              -0.000483402               0.999999984              -0.000533162              -0.000499361               0.999999984              -0.000537243              -0.000516793               0.999999984              -0.000541203              -0.000533466               0.999999984              -0.000544008              -0.000548182               0.999999984              -0.000545017              -0.000560140               0.999999984              -0.000543754              -0.000568826               0.999999984              -0.000539911              -0.000573773               0.999999984              -0.000533181              -0.000574470               0.999999984              -0.000523495              -0.000570527               0.999999984              -0.000511181              -0.000561762               0.999999984              -0.000496893              -0.000548726               0.999999984              -0.000481385              -0.000532424               0.999999984              -0.000543890              -0.000717410               0.999999984              -0.000492736              -0.000604332               0.999999984              -0.000469645              -0.000572952               0.999999984              -0.000461674              -0.000573751               0.999999984              -0.000461413              -0.000587908               0.999999984              -0.000464318              -0.000607238               0.999999984              -0.000467662              -0.000627368               0.999999984              -0.000469619              -0.000646168               0.999999984              -0.000469138              -0.000662515               0.999999984              -0.000465647              -0.000675773               0.999999984              -0.000458799              -0.000685370               0.999999984              -0.000448330              -0.000690623               0.999999984              -0.000434262              -0.000691157               0.999999984              -0.000416955              -0.000687280               0.999999984              -0.000397170              -0.000679511               0.999999984              -0.000375674              -0.000668812               0.999999984              -0.000353154              -0.000656227               0.999999984              -0.000502038              -0.000819554               0.999999984              -0.000428236              -0.000700410               0.999999984              -0.000401347              -0.000670508               0.999999984              -0.000394750              -0.000674271               0.999999984              -0.000396032              -0.000691549               0.999999984              -0.000399524              -0.000713579               0.999999984              -0.000401884              -0.000736002               0.999999984              -0.000401295              -0.000756434               0.999999984              -0.000396834              -0.000773979               0.999999984              -0.000388084              -0.000788004               0.999999984              -0.000374759              -0.000797988               0.999999984              -0.000356877              -0.000803087               0.999999984              -0.000334949              -0.000803583               0.999999984              -0.000309829              -0.000800369               0.999999984              -0.000282439              -0.000794334               0.999999984              -0.000253561              -0.000786350               0.999999984              -0.000223929              -0.000777386               0.999999984              -0.000456632              -0.000912968               0.999999984              -0.000362733              -0.000794719               0.999999984              -0.000336723              -0.000766442               0.999999984              -0.000333149              -0.000772506               0.999999984              -0.000336694              -0.000792178               0.999999984              -0.000340630              -0.000816411               0.999999984              -0.000341365              -0.000840690               0.999999984              -0.000337442              -0.000862603               0.999999984              -0.000328217              -0.000880921               0.999999984              -0.000313264              -0.000895189               0.999999984              -0.000292468              -0.000904858               0.999999984              -0.000266323              -0.000909875               0.999999984              -0.000235951              -0.000910898               0.999999984              -0.000202506              -0.000909088               0.999999984              -0.000167128              -0.000905456               0.999999984              -0.000130827              -0.000900757               0.999999984              -0.000094144              -0.000895612               0.999999984              -0.000409795              -0.001001154               0.999999984              -0.000308456              -0.000898999               0.999999984              -0.000279198              -0.000865727               0.999999984              -0.000274501              -0.000865382               0.999999984              -0.000277727              -0.000880207               0.999999984              -0.000282127              -0.000901562               0.999999984              -0.000284093              -0.000924859               0.999999984              -0.000282175              -0.000947539               0.999999984              -0.000275500              -0.000968020               0.999999984              -0.000263513              -0.000985605               0.999999984              -0.000245941              -0.000999888               0.999999984              -0.000222939              -0.001010591               0.999999984              -0.000195151              -0.001017927               0.999999984              -0.000163158              -0.001022396               0.999999984              -0.000128308              -0.001024826               0.999999984              -0.000091542              -0.001025995               0.999999984              -0.000053832              -0.001026498               0.999999984              -0.000358580              -0.001081171               0.999999984              -0.000257172              -0.000999664               0.999999984              -0.000224767              -0.000967394               0.999999984              -0.000217995              -0.000962990               0.999999984              -0.000220050              -0.000973957               0.999999984              -0.000224121              -0.000992817               0.999999984              -0.000226842              -0.001015151               0.999999984              -0.000226532              -0.001038336               0.999999984              -0.000222038              -0.001060704               0.999999984              -0.000212720              -0.001081202               0.999999984              -0.000198174              -0.001099427               0.999999984              -0.000178297              -0.001114912               0.999999984              -0.000153272              -0.001127685               0.999999984              -0.000123465              -0.001137852               0.999999984              -0.000089503              -0.001145968               0.999999984              -0.000052379              -0.001152632               0.999999984              -0.000013255              -0.001158588               0.999999984              -0.000304044              -0.001151175               0.999999984              -0.000208801              -0.001093688               0.999999984              -0.000175029              -0.001066797               0.999999984              -0.000165793              -0.001061707               0.999999984              -0.000166036              -0.001070499               0.999999984              -0.000169160              -0.001087656               0.999999984              -0.000171880              -0.001109384               0.999999984              -0.000172479              -0.001133207               0.999999984              -0.000169632              -0.001157414               0.999999984              -0.000162596              -0.001180765               0.999999984              -0.000150873              -0.001202704               0.999999984              -0.000134174              -0.001222713               0.999999984              -0.000112254              -0.001240502               0.999999984              -0.000085048              -0.001256056               0.999999984              -0.000052583              -0.001269632               0.999999984              -0.000015303              -0.001281651               0.999999984               0.000025782              -0.001292723               0.999999984              -0.000246638              -0.001209999               0.999999984              -0.000163342              -0.001177157               0.999999984              -0.000130700              -0.001159003               0.999999984              -0.000119861              -0.001156008               0.999999984              -0.000118271              -0.001164517               0.999999984              -0.000119947              -0.001181188               0.999999984              -0.000122074              -0.001202995               0.999999984              -0.000122971              -0.001227716               0.999999984              -0.000121269              -0.001253786               0.999999984              -0.000116061              -0.001280121               0.999999984              -0.000106868              -0.001305836               0.999999984              -0.000093350              -0.001330410               0.999999984              -0.000074960              -0.001353405               0.999999984              -0.000051044              -0.001374469               0.999999984              -0.000021182              -0.001393605               0.999999984               0.000014964              -0.001411141               0.999999984               0.000057357              -0.001427476               0.999999984              -0.000186974              -0.001256611               0.999999984              -0.000120424              -0.001246254               0.999999984              -0.000092025              -0.001238328               0.999999984              -0.000081167              -0.001239471               0.999999984              -0.000078335              -0.001249477               0.999999984              -0.000078719              -0.001266676               0.999999984              -0.000079981              -0.001289180               0.999999984              -0.000080653              -0.001315193               0.999999984              -0.000079607              -0.001343274               0.999999984              -0.000075994              -0.001372448               0.999999984              -0.000069214              -0.001401859               0.999999984              -0.000058883              -0.001430963               0.999999984              -0.000044379              -0.001459190               0.999999984              -0.000024931              -0.001486150               0.999999984               0.000000568              -0.001511471               0.999999984               0.000033157              -0.001535086               0.999999984               0.000073878              -0.001557150               0.999999984              -0.000125606              -0.001290394               0.999999984              -0.000079343              -0.001297918               0.999999984              -0.000058291              -0.001299521               0.999999984              -0.000049444              -0.001305440               0.999999984              -0.000046515              -0.001317776               0.999999984              -0.000046155              -0.001336231               0.999999984              -0.000046624              -0.001359770               0.999999984              -0.000046955              -0.001387135               0.999999984              -0.000046367              -0.001417064               0.999999984              -0.000044110              -0.001448836               0.999999984              -0.000039718              -0.001481628               0.999999984              -0.000032644              -0.001514785               0.999999984              -0.000022480              -0.001547803               0.999999984              -0.000008522              -0.001580297               0.999999984               0.000010484              -0.001611734               0.999999984               0.000035850              -0.001641694               0.999999984               0.000069302              -0.001669733               0.999999984              -0.000063076              -0.001310890               0.999999984              -0.000039392              -0.001329917               0.999999984              -0.000028160              -0.001338177               0.999999984              -0.000023265              -0.001347834               0.999999984              -0.000021420              -0.001362305               0.999999984              -0.000021009              -0.001382032               0.999999984              -0.000021033              -0.001406520               0.999999984              -0.000021054              -0.001434897               0.999999984              -0.000020860              -0.001466187               0.999999984              -0.000019836              -0.001499721               0.999999984              -0.000017636              -0.001534913               0.999999984              -0.000014078              -0.001571112               0.999999984              -0.000008787              -0.001607731               0.999999984              -0.000001343              -0.001644400               0.999999984               0.000008860              -0.001680446               0.999999984               0.000022982              -0.001715241               0.999999984               0.000042249              -0.001747926               0.999999984               0.000000000              -0.001317679               0.999999984              -0.000000000              -0.001340671               0.999999984               0.000000000              -0.001351287               0.999999984               0.000000000              -0.001362320               0.999999984               0.000000000              -0.001377721               0.999999984              -0.000000000              -0.001398026               0.999999984               0.000000000              -0.001422916               0.999999984               0.000000000              -0.001451670               0.999999984               0.000000000              -0.001483460               0.999999984              -0.000000000              -0.001517743               0.999999984              -0.000000000              -0.001553778               0.999999984               0.000000000              -0.001591062               0.999999984              -0.000000000              -0.001629036               0.999999984              -0.000000000              -0.001667152               0.999999984               0.000000000              -0.001704854               0.999999984              -0.000000000              -0.001741467               0.999999984               0.000000000              -0.001775933               0.999999984               0.000669910              -0.000000000               0.999999984               0.000718741               0.000000000               0.999999984               0.000740024               0.000000000               0.999999984               0.000751736               0.000000000               0.999999984               0.000760775               0.000000000               0.999999984               0.000769859               0.000000000               0.999999984               0.000779950               0.000000000               0.999999984               0.000791258              -0.000000000               0.999999984               0.000803623               0.000000000               0.999999984               0.000816783               0.000000000               0.999999984               0.000830496              -0.000000000               0.999999984               0.000844666              -0.000000000               0.999999984               0.000859229               0.000000000               0.999999984               0.000873799              -0.000000000               0.999999984               0.000887969               0.000000000               0.999999984               0.000901251               0.000000000               0.999999984               0.000912897               0.000000000               0.999999984               0.000666269              -0.000126142               0.999999984               0.000711480              -0.000103098               0.999999984               0.000730350              -0.000093193               0.999999984               0.000740587              -0.000090055               0.999999984               0.000748696              -0.000090491               0.999999984               0.000757050              -0.000092824               0.999999984               0.000766500              -0.000096005               0.999999984               0.000777191              -0.000099481               0.999999984               0.000788938              -0.000102769               0.999999984               0.000801431              -0.000105464               0.999999984               0.000814466              -0.000107408               0.999999984               0.000827793              -0.000108594               0.999999984               0.000841134              -0.000108641               0.999999984               0.000854222              -0.000107128               0.999999984               0.000866711              -0.000103378               0.999999984               0.000878186              -0.000096844               0.999999984               0.000888100              -0.000086299               0.999999984               0.000655173              -0.000251231               0.999999984               0.000689915              -0.000205664               0.999999984               0.000702418              -0.000187039               0.999999984               0.000708880              -0.000181746               0.999999984               0.000714567              -0.000183283               0.999999984               0.000721241              -0.000188336               0.999999984               0.000729304              -0.000194942               0.999999984               0.000738615              -0.000201970               0.999999984               0.000748794              -0.000208549               0.999999984               0.000759410              -0.000213986               0.999999984               0.000770234              -0.000217942               0.999999984               0.000780937              -0.000220233               0.999999984               0.000791253              -0.000220363               0.999999984               0.000800834              -0.000217609               0.999999984               0.000809321              -0.000211026               0.999999984               0.000816418              -0.000199537               0.999999984               0.000821779              -0.000181923               0.999999984               0.000636929              -0.000374088               0.999999984               0.000655214              -0.000307280               0.999999984               0.000658541              -0.000281933               0.999999984               0.000659922              -0.000276076               0.999999984               0.000662749              -0.000279822               0.999999984               0.000667578              -0.000288196               0.999999984               0.000674041              -0.000298447               0.999999984               0.000681549              -0.000309083               0.999999984               0.000689479              -0.000318793               0.999999984               0.000697428              -0.000326856               0.999999984               0.000705016              -0.000332763               0.999999984               0.000711860              -0.000336192               0.999999984               0.000717525              -0.000336621               0.999999984               0.000721727              -0.000333233               0.999999984               0.000724241              -0.000324879               0.999999984               0.000724870              -0.000310754               0.999999984               0.000723723              -0.000290315               0.999999984               0.000612030              -0.000493491               0.999999984               0.000609104              -0.000407639               0.999999984               0.000602270              -0.000378001               0.999999984               0.000598890              -0.000373247               0.999999984               0.000599360              -0.000380156               0.999999984               0.000602716              -0.000392296               0.999999984               0.000607706              -0.000406343               0.999999984               0.000613417              -0.000420240               0.999999984               0.000619033              -0.000432818               0.999999984               0.000623906              -0.000443050               0.999999984               0.000627475              -0.000450509               0.999999984               0.000629364              -0.000454817               0.999999984               0.000629199              -0.000455505               0.999999984               0.000626783              -0.000451754               0.999999984               0.000622034              -0.000442776               0.999999984               0.000615202              -0.000428425               0.999999984               0.000606830              -0.000408877               0.999999984               0.000580853              -0.000608298               0.999999984               0.000554006              -0.000506647               0.999999984               0.000537929              -0.000475147               0.999999984               0.000531153              -0.000472831               0.999999984               0.000530431              -0.000483402               0.999999984               0.000533162              -0.000499361               0.999999984               0.000537243              -0.000516793               0.999999984               0.000541203              -0.000533466               0.999999984               0.000544008              -0.000548182               0.999999984               0.000545017              -0.000560140               0.999999984               0.000543754              -0.000568826               0.999999984               0.000539911              -0.000573773               0.999999984               0.000533181              -0.000574470               0.999999984               0.000523495              -0.000570527               0.999999984               0.000511181              -0.000561762               0.999999984               0.000496893              -0.000548726               0.999999984               0.000481385              -0.000532424               0.999999984               0.000543890              -0.000717410               0.999999984               0.000492736              -0.000604332               0.999999984               0.000469645              -0.000572952               0.999999984               0.000461674              -0.000573751               0.999999984               0.000461413              -0.000587908               0.999999984               0.000464318              -0.000607238               0.999999984               0.000467662              -0.000627368               0.999999984               0.000469619              -0.000646168               0.999999984               0.000469138              -0.000662515               0.999999984               0.000465647              -0.000675773               0.999999984               0.000458799              -0.000685370               0.999999984               0.000448330              -0.000690623               0.999999984               0.000434262              -0.000691157               0.999999984               0.000416955              -0.000687280               0.999999984               0.000397170              -0.000679511               0.999999984               0.000375674              -0.000668812               0.999999984               0.000353154              -0.000656227               0.999999984               0.000502038              -0.000819554               0.999999984               0.000428236              -0.000700410               0.999999984               0.000401347              -0.000670508               0.999999984               0.000394750              -0.000674271               0.999999984               0.000396032              -0.000691549               0.999999984               0.000399524              -0.000713579               0.999999984               0.000401884              -0.000736002               0.999999984               0.000401295              -0.000756434               0.999999984               0.000396834              -0.000773979               0.999999984               0.000388084              -0.000788004               0.999999984               0.000374759              -0.000797988               0.999999984               0.000356877              -0.000803087               0.999999984               0.000334949              -0.000803583               0.999999984               0.000309829              -0.000800369               0.999999984               0.000282439              -0.000794334               0.999999984               0.000253561              -0.000786350               0.999999984               0.000223929              -0.000777386               0.999999984               0.000456632              -0.000912968               0.999999984               0.000362733              -0.000794719               0.999999984               0.000336723              -0.000766442               0.999999984               0.000333149              -0.000772506               0.999999984               0.000336694              -0.000792178               0.999999984               0.000340630              -0.000816411               0.999999984               0.000341365              -0.000840690               0.999999984               0.000337442              -0.000862603               0.999999984               0.000328217              -0.000880921               0.999999984               0.000313264              -0.000895189               0.999999984               0.000292468              -0.000904858               0.999999984               0.000266323              -0.000909875               0.999999984               0.000235951              -0.000910898               0.999999984               0.000202506              -0.000909088               0.999999984               0.000167128              -0.000905456               0.999999984               0.000130827              -0.000900757               0.999999984               0.000094144              -0.000895612               0.999999984               0.000409795              -0.001001154               0.999999984               0.000308456              -0.000898999               0.999999984               0.000279198              -0.000865727               0.999999984               0.000274501              -0.000865382               0.999999984               0.000277727              -0.000880207               0.999999984               0.000282127              -0.000901562               0.999999984               0.000284093              -0.000924859               0.999999984               0.000282175              -0.000947539               0.999999984               0.000275500              -0.000968020               0.999999984               0.000263513              -0.000985605               0.999999984               0.000245941              -0.000999888               0.999999984               0.000222939              -0.001010591               0.999999984               0.000195151              -0.001017927               0.999999984               0.000163158              -0.001022396               0.999999984               0.000128308              -0.001024826               0.999999984               0.000091542              -0.001025995               0.999999984               0.000053832              -0.001026498               0.999999984               0.000358580              -0.001081171               0.999999984               0.000257172              -0.000999664               0.999999984               0.000224767              -0.000967394               0.999999984               0.000217995              -0.000962990               0.999999984               0.000220050              -0.000973957               0.999999984               0.000224121              -0.000992817               0.999999984               0.000226842              -0.001015151               0.999999984               0.000226532              -0.001038336               0.999999984               0.000222038              -0.001060704               0.999999984               0.000212720              -0.001081202               0.999999984               0.000198174              -0.001099427               0.999999984               0.000178297              -0.001114912               0.999999984               0.000153272              -0.001127685               0.999999984               0.000123465              -0.001137852               0.999999984               0.000089503              -0.001145968               0.999999984               0.000052379              -0.001152632               0.999999984               0.000013255              -0.001158588               0.999999984               0.000304044              -0.001151175               0.999999984               0.000208801              -0.001093688               0.999999984               0.000175029              -0.001066797               0.999999984               0.000165793              -0.001061707               0.999999984               0.000166036              -0.001070499               0.999999984               0.000169160              -0.001087656               0.999999984               0.000171880              -0.001109384               0.999999984               0.000172479              -0.001133207               0.999999984               0.000169632              -0.001157414               0.999999984               0.000162596              -0.001180765               0.999999984               0.000150873              -0.001202704               0.999999984               0.000134174              -0.001222713               0.999999984               0.000112254              -0.001240502               0.999999984               0.000085048              -0.001256056               0.999999984               0.000052583              -0.001269632               0.999999984               0.000015303              -0.001281651               0.999999984              -0.000025782              -0.001292723               0.999999984               0.000246638              -0.001209999               0.999999984               0.000163342              -0.001177157               0.999999984               0.000130700              -0.001159003               0.999999984               0.000119861              -0.001156008               0.999999984               0.000118271              -0.001164517               0.999999984               0.000119947              -0.001181188               0.999999984               0.000122074              -0.001202995               0.999999984               0.000122971              -0.001227716               0.999999984               0.000121269              -0.001253786               0.999999984               0.000116061              -0.001280121               0.999999984               0.000106868              -0.001305836               0.999999984               0.000093350              -0.001330410               0.999999984               0.000074960              -0.001353405               0.999999984               0.000051044              -0.001374469               0.999999984               0.000021182              -0.001393605               0.999999984              -0.000014964              -0.001411141               0.999999984              -0.000057357              -0.001427476               0.999999984               0.000186974              -0.001256611               0.999999984               0.000120424              -0.001246254               0.999999984               0.000092025              -0.001238328               0.999999984               0.000081167              -0.001239471               0.999999984               0.000078335              -0.001249477               0.999999984               0.000078719              -0.001266676               0.999999984               0.000079981              -0.001289180               0.999999984               0.000080653              -0.001315193               0.999999984               0.000079607              -0.001343274               0.999999984               0.000075994              -0.001372448               0.999999984               0.000069214              -0.001401859               0.999999984               0.000058883              -0.001430963               0.999999984               0.000044379              -0.001459190               0.999999984               0.000024931              -0.001486150               0.999999984              -0.000000568              -0.001511471               0.999999984              -0.000033157              -0.001535086               0.999999984              -0.000073878              -0.001557150               0.999999984               0.000125606              -0.001290394               0.999999984               0.000079343              -0.001297918               0.999999984               0.000058291              -0.001299521               0.999999984               0.000049444              -0.001305440               0.999999984               0.000046515              -0.001317776               0.999999984               0.000046155              -0.001336231               0.999999984               0.000046624              -0.001359770               0.999999984               0.000046955              -0.001387135               0.999999984               0.000046367              -0.001417064               0.999999984               0.000044110              -0.001448836               0.999999984               0.000039718              -0.001481628               0.999999984               0.000032644              -0.001514785               0.999999984               0.000022480              -0.001547803               0.999999984               0.000008522              -0.001580297               0.999999984              -0.000010484              -0.001611734               0.999999984              -0.000035850              -0.001641694               0.999999984              -0.000069302              -0.001669733               0.999999984               0.000063076              -0.001310890               0.999999984               0.000039392              -0.001329917               0.999999984               0.000028160              -0.001338177               0.999999984               0.000023265              -0.001347834               0.999999984               0.000021420              -0.001362305               0.999999984               0.000021009              -0.001382032               0.999999984               0.000021033              -0.001406520               0.999999984               0.000021054              -0.001434897               0.999999984               0.000020860              -0.001466187               0.999999984               0.000019836              -0.001499721               0.999999984               0.000017636              -0.001534913               0.999999984               0.000014078              -0.001571112               0.999999984               0.000008787              -0.001607731               0.999999984               0.000001343              -0.001644400               0.999999984              -0.000008860              -0.001680446               0.999999984              -0.000022982              -0.001715241               0.999999984              -0.000042249              -0.001747926               0.999999984               0.000000000              -0.001317679               0.999999984              -0.000000000              -0.001340671               0.999999984               0.000000000              -0.001351287               0.999999984               0.000000000              -0.001362320               0.999999984               0.000000000              -0.001377721               0.999999984              -0.000000000              -0.001398026               0.999999984               0.000000000              -0.001422916               0.999999984               0.000000000              -0.001451670               0.999999984               0.000000000              -0.001483460               0.999999984              -0.000000000              -0.001517743               0.999999984              -0.000000000              -0.001553778               0.999999984               0.000000000              -0.001591062               0.999999984              -0.000000000              -0.001629036               0.999999984              -0.000000000              -0.001667152               0.999999984               0.000000000              -0.001704854               0.999999984              -0.000000000              -0.001741467               0.999999984               0.000000000              -0.001775933               0.999999984               0.000669910              -0.000000000               0.999999984               0.000718741               0.000000000               0.999999984               0.000740024               0.000000000               0.999999984               0.000751736               0.000000000               0.999999984               0.000760775               0.000000000               0.999999984               0.000769859               0.000000000               0.999999984               0.000779950               0.000000000               0.999999984               0.000791258              -0.000000000               0.999999984               0.000803623               0.000000000               0.999999984               0.000816783               0.000000000               0.999999984               0.000830496              -0.000000000               0.999999984               0.000844666              -0.000000000               0.999999984               0.000859229               0.000000000               0.999999984               0.000873799              -0.000000000               0.999999984               0.000887969               0.000000000               0.999999984               0.000901251               0.000000000               0.999999984               0.000912897               0.000000000               0.999999984               0.000666269               0.000126142               0.999999984               0.000711480               0.000103098               0.999999984               0.000730350               0.000093193               0.999999984               0.000740587               0.000090055               0.999999984               0.000748696               0.000090491               0.999999984               0.000757050               0.000092824               0.999999984               0.000766500               0.000096005               0.999999984               0.000777191               0.000099481               0.999999984               0.000788938               0.000102769               0.999999984               0.000801431               0.000105464               0.999999984               0.000814466               0.000107408               0.999999984               0.000827793               0.000108594               0.999999984               0.000841134               0.000108641               0.999999984               0.000854222               0.000107128               0.999999984               0.000866711               0.000103378               0.999999984               0.000878186               0.000096844               0.999999984               0.000888100               0.000086299               0.999999984               0.000655173               0.000251231               0.999999984               0.000689915               0.000205664               0.999999984               0.000702418               0.000187039               0.999999984               0.000708880               0.000181746               0.999999984               0.000714567               0.000183283               0.999999984               0.000721241               0.000188336               0.999999984               0.000729304               0.000194942               0.999999984               0.000738615               0.000201970               0.999999984               0.000748794               0.000208549               0.999999984               0.000759410               0.000213986               0.999999984               0.000770234               0.000217942               0.999999984               0.000780937               0.000220233               0.999999984               0.000791253               0.000220363               0.999999984               0.000800834               0.000217609               0.999999984               0.000809321               0.000211026               0.999999984               0.000816418               0.000199537               0.999999984               0.000821779               0.000181923               0.999999984               0.000636929               0.000374088               0.999999984               0.000655214               0.000307280               0.999999984               0.000658541               0.000281933               0.999999984               0.000659922               0.000276076               0.999999984               0.000662749               0.000279822               0.999999984               0.000667578               0.000288196               0.999999984               0.000674041               0.000298447               0.999999984               0.000681549               0.000309083               0.999999984               0.000689479               0.000318793               0.999999984               0.000697428               0.000326856               0.999999984               0.000705016               0.000332763               0.999999984               0.000711860               0.000336192               0.999999984               0.000717525               0.000336621               0.999999984               0.000721727               0.000333233               0.999999984               0.000724241               0.000324879               0.999999984               0.000724870               0.000310754               0.999999984               0.000723723               0.000290315               0.999999984               0.000612030               0.000493491               0.999999984               0.000609104               0.000407639               0.999999984               0.000602270               0.000378001               0.999999984               0.000598890               0.000373247               0.999999984               0.000599360               0.000380156               0.999999984               0.000602716               0.000392296               0.999999984               0.000607706               0.000406343               0.999999984               0.000613417               0.000420240               0.999999984               0.000619033               0.000432818               0.999999984               0.000623906               0.000443050               0.999999984               0.000627475               0.000450509               0.999999984               0.000629364               0.000454817               0.999999984               0.000629199               0.000455505               0.999999984               0.000626783               0.000451754               0.999999984               0.000622034               0.000442776               0.999999984               0.000615202               0.000428425               0.999999984               0.000606830               0.000408877               0.999999984               0.000580853               0.000608298               0.999999984               0.000554006               0.000506647               0.999999984               0.000537929               0.000475147               0.999999984               0.000531153               0.000472831               0.999999984               0.000530431               0.000483402               0.999999984               0.000533162               0.000499361               0.999999984               0.000537243               0.000516793               0.999999984               0.000541203               0.000533466               0.999999984               0.000544008               0.000548182               0.999999984               0.000545017               0.000560140               0.999999984               0.000543754               0.000568826               0.999999984               0.000539911               0.000573773               0.999999984               0.000533181               0.000574470               0.999999984               0.000523495               0.000570527               0.999999984               0.000511181               0.000561762               0.999999984               0.000496893               0.000548726               0.999999984               0.000481385               0.000532424               0.999999984               0.000543890               0.000717410               0.999999984               0.000492736               0.000604332               0.999999984               0.000469645               0.000572952               0.999999984               0.000461674               0.000573751               0.999999984               0.000461413               0.000587908               0.999999984               0.000464318               0.000607238               0.999999984               0.000467662               0.000627368               0.999999984               0.000469619               0.000646168               0.999999984               0.000469138               0.000662515               0.999999984               0.000465647               0.000675773               0.999999984               0.000458799               0.000685370               0.999999984               0.000448330               0.000690623               0.999999984               0.000434262               0.000691157               0.999999984               0.000416955               0.000687280               0.999999984               0.000397170               0.000679511               0.999999984               0.000375674               0.000668812               0.999999984               0.000353154               0.000656227               0.999999984               0.000502038               0.000819554               0.999999984               0.000428236               0.000700410               0.999999984               0.000401347               0.000670508               0.999999984               0.000394750               0.000674271               0.999999984               0.000396032               0.000691549               0.999999984               0.000399524               0.000713579               0.999999984               0.000401884               0.000736002               0.999999984               0.000401295               0.000756434               0.999999984               0.000396834               0.000773979               0.999999984               0.000388084               0.000788004               0.999999984               0.000374759               0.000797988               0.999999984               0.000356877               0.000803087               0.999999984               0.000334949               0.000803583               0.999999984               0.000309829               0.000800369               0.999999984               0.000282439               0.000794334               0.999999984               0.000253561               0.000786350               0.999999984               0.000223929               0.000777386               0.999999984               0.000456632               0.000912968               0.999999984               0.000362733               0.000794719               0.999999984               0.000336723               0.000766442               0.999999984               0.000333149               0.000772506               0.999999984               0.000336694               0.000792178               0.999999984               0.000340630               0.000816411               0.999999984               0.000341365               0.000840690               0.999999984               0.000337442               0.000862603               0.999999984               0.000328217               0.000880921               0.999999984               0.000313264               0.000895189               0.999999984               0.000292468               0.000904858               0.999999984               0.000266323               0.000909875               0.999999984               0.000235951               0.000910898               0.999999984               0.000202506               0.000909088               0.999999984               0.000167128               0.000905456               0.999999984               0.000130827               0.000900757               0.999999984               0.000094144               0.000895612               0.999999984               0.000409795               0.001001154               0.999999984               0.000308456               0.000898999               0.999999984               0.000279198               0.000865727               0.999999984               0.000274501               0.000865382               0.999999984               0.000277727               0.000880207               0.999999984               0.000282127               0.000901562               0.999999984               0.000284093               0.000924859               0.999999984               0.000282175               0.000947539               0.999999984               0.000275500               0.000968020               0.999999984               0.000263513               0.000985605               0.999999984               0.000245941               0.000999888               0.999999984               0.000222939               0.001010591               0.999999984               0.000195151               0.001017927               0.999999984               0.000163158               0.001022396               0.999999984               0.000128308               0.001024826               0.999999984               0.000091542               0.001025995               0.999999984               0.000053832               0.001026498               0.999999984               0.000358580               0.001081171               0.999999984               0.000257172               0.000999664               0.999999984               0.000224767               0.000967394               0.999999984               0.000217995               0.000962990               0.999999984               0.000220050               0.000973957               0.999999984               0.000224121               0.000992817               0.999999984               0.000226842               0.001015151               0.999999984               0.000226532               0.001038336               0.999999984               0.000222038               0.001060704               0.999999984               0.000212720               0.001081202               0.999999984               0.000198174               0.001099427               0.999999984               0.000178297               0.001114912               0.999999984               0.000153272               0.001127685               0.999999984               0.000123465               0.001137852               0.999999984               0.000089503               0.001145968               0.999999984               0.000052379               0.001152632               0.999999984               0.000013255               0.001158588               0.999999984               0.000304044               0.001151175               0.999999984               0.000208801               0.001093688               0.999999984               0.000175029               0.001066797               0.999999984               0.000165793               0.001061707               0.999999984               0.000166036               0.001070499               0.999999984               0.000169160               0.001087656               0.999999984               0.000171880               0.001109384               0.999999984               0.000172479               0.001133207               0.999999984               0.000169632               0.001157414               0.999999984               0.000162596               0.001180765               0.999999984               0.000150873               0.001202704               0.999999984               0.000134174               0.001222713               0.999999984               0.000112254               0.001240502               0.999999984               0.000085048               0.001256056               0.999999984               0.000052583               0.001269632               0.999999984               0.000015303               0.001281651               0.999999984              -0.000025782               0.001292723               0.999999984               0.000246638               0.001209999               0.999999984               0.000163342               0.001177157               0.999999984               0.000130700               0.001159003               0.999999984               0.000119861               0.001156008               0.999999984               0.000118271               0.001164517               0.999999984               0.000119947               0.001181188               0.999999984               0.000122074               0.001202995               0.999999984               0.000122971               0.001227716               0.999999984               0.000121269               0.001253786               0.999999984               0.000116061               0.001280121               0.999999984               0.000106868               0.001305836               0.999999984               0.000093350               0.001330410               0.999999984               0.000074960               0.001353405               0.999999984               0.000051044               0.001374469               0.999999984               0.000021182               0.001393605               0.999999984              -0.000014964               0.001411141               0.999999984              -0.000057357               0.001427476               0.999999984               0.000186974               0.001256611               0.999999984               0.000120424               0.001246254               0.999999984               0.000092025               0.001238328               0.999999984               0.000081167               0.001239471               0.999999984               0.000078335               0.001249477               0.999999984               0.000078719               0.001266676               0.999999984               0.000079981               0.001289180               0.999999984               0.000080653               0.001315193               0.999999984               0.000079607               0.001343274               0.999999984               0.000075994               0.001372448               0.999999984               0.000069214               0.001401859               0.999999984               0.000058883               0.001430963               0.999999984               0.000044379               0.001459190               0.999999984               0.000024931               0.001486150               0.999999984              -0.000000568               0.001511471               0.999999984              -0.000033157               0.001535086               0.999999984              -0.000073878               0.001557150               0.999999984               0.000125606               0.001290394               0.999999984               0.000079343               0.001297918               0.999999984               0.000058291               0.001299521               0.999999984               0.000049444               0.001305440               0.999999984               0.000046515               0.001317776               0.999999984               0.000046155               0.001336231               0.999999984               0.000046624               0.001359770               0.999999984               0.000046955               0.001387135               0.999999984               0.000046367               0.001417064               0.999999984               0.000044110               0.001448836               0.999999984               0.000039718               0.001481628               0.999999984               0.000032644               0.001514785               0.999999984               0.000022480               0.001547803               0.999999984               0.000008522               0.001580297               0.999999984              -0.000010484               0.001611734               0.999999984              -0.000035850               0.001641694               0.999999984              -0.000069302               0.001669733               0.999999984               0.000063076               0.001310890               0.999999984               0.000039392               0.001329917               0.999999984               0.000028160               0.001338177               0.999999984               0.000023265               0.001347834               0.999999984               0.000021420               0.001362305               0.999999984               0.000021009               0.001382032               0.999999984               0.000021033               0.001406520               0.999999984               0.000021054               0.001434897               0.999999984               0.000020860               0.001466187               0.999999984               0.000019836               0.001499721               0.999999984               0.000017636               0.001534913               0.999999984               0.000014078               0.001571112               0.999999984               0.000008787               0.001607731               0.999999984               0.000001343               0.001644400               0.999999984              -0.000008860               0.001680446               0.999999984              -0.000022982               0.001715241               0.999999984              -0.000042249               0.001747926               0.999999984              -0.000000000               0.001317679               0.999999984               0.000000000               0.001340671               0.999999984              -0.000000000               0.001351287               0.999999984              -0.000000000               0.001362320               0.999999984              -0.000000000               0.001377721               0.999999984              -0.000000000               0.001398026               0.999999984               0.000000000               0.001422916               0.999999984               0.000000000               0.001451670               0.999999984              -0.000000000               0.001483460               0.999999984               0.000000000               0.001517743               0.999999984              -0.000000000               0.001553778               0.999999984              -0.000000000               0.001591062               0.999999984              -0.000000000               0.001629036               0.999999984               0.000000000               0.001667152               0.999999984               0.000000000               0.001704854               0.999999984              -0.000000000               0.001741467               0.999999984               0.000000000               0.001775933               0.999999984 </DataArray>
<DataArray type="Float64"                                    Name="defo"                                                      NumberOfComponents=" 3" format="ascii">
             -0.000669910              -0.000000000               0.999999984              -0.000718741               0.000000000               0.999999984              -0.000740024              -0.000000000               0.999999984              -0.000751736               0.000000000               0.999999984              -0.000760775               0.000000000               0.999999984              -0.000769859               0.000000000               0.999999984              -0.000779950               0.000000000               0.999999984              -0.000791258               0.000000000               0.999999984              -0.000803623               0.000000000               0.999999984              -0.000816783               0.000000000               0.999999984              -0.000830496              -0.000000000               0.999999984              -0.000844666              -0.000000000               0.999999984              -0.000859229              -0.000000000               0.999999984              -0.000873799               0.000000000               0.999999984              -0.000887969              -0.000000000               0.999999984              -0.000901251               0.000000000               0.999999984              -0.000912897              -0.000000000               0.999999984              -0.000666269               0.000126142               0.999999984              -0.000711480               0.000103098               0.999999984              -0.000730350               0.000093193               0.999999984              -0.000740587               0.000090055               0.999999984              -0.000748696               0.000090491               0.999999984              -0.000757050               0.000092824               0.999999984              -0.000766500               0.000096005               0.999999984              -0.000777191               0.000099481               0.999999984              -0.000788938               0.000102769               0.999999984              -0.000801431               0.000105464               0.999999984              -0.000814466               0.000107408               0.999999984              -0.000827793               0.000108594               0.999999984              -0.000841134               0.000108641               0.999999984              -0.000854222               0.000107128               0.999999984              -0.000866711               0.000103378               0.999999984              -0.000878186               0.000096844               0.999999984              -0.000888100               0.000086299               0.999999984              -0.000655173               0.000251231               0.999999984              -0.000689915               0.000205664               0.999999984              -0.000702418               0.000187039               0.999999984              -0.000708880               0.000181746               0.999999984              -0.000714567               0.000183283               0.999999984              -0.000721241               0.000188336               0.999999984              -0.000729304               0.000194942               0.999999984              -0.000738615               0.000201970               0.999999984              -0.000748794               0.000208549               0.999999984              -0.000759410               0.000213986               0.999999984              -0.000770234               0.000217942               0.999999984              -0.000780937               0.000220233               0.999999984              -0.000791253               0.000220363               0.999999984              -0.000800834               0.000217609               0.999999984              -0.000809321               0.000211026               0.999999984              -0.000816418               0.000199537               0.999999984              -0.000821779               0.000181923               0.999999984              -0.000636929               0.000374088               0.999999984              -0.000655214               0.000307280               0.999999984              -0.000658541               0.000281933               0.999999984              -0.000659922               0.000276076               0.999999984              -0.000662749               0.000279822               0.999999984              -0.000667578               0.000288196               0.999999984              -0.000674041               0.000298447               0.999999984              -0.000681549               0.000309083               0.999999984              -0.000689479               0.000318793               0.999999984              -0.000697428               0.000326856               0.999999984              -0.000705016               0.000332763               0.999999984              -0.000711860               0.000336192               0.999999984              -0.000717525               0.000336621               0.999999984              -0.000721727               0.000333233               0.999999984              -0.000724241               0.000324879               0.999999984              -0.000724870               0.000310754               0.999999984              -0.000723723               0.000290315               0.999999984              -0.000612030               0.000493491               0.999999984              -0.000609104               0.000407639               0.999999984              -0.000602270               0.000378001               0.999999984              -0.000598890               0.000373247               0.999999984              -0.000599360               0.000380156               0.999999984              -0.000602716               0.000392296               0.999999984              -0.000607706               0.000406343               0.999999984              -0.000613417               0.000420240               0.999999984              -0.000619033               0.000432818               0.999999984              -0.000623906               0.000443050               0.999999984              -0.000627475               0.000450509               0.999999984              -0.000629364               0.000454817               0.999999984              -0.000629199               0.000455505               0.999999984              -0.000626783               0.000451754               0.999999984              -0.000622034               0.000442776               0.999999984              -0.000615202               0.000428425               0.999999984              -0.000606830               0.000408877               0.999999984              -0.000580853               0.000608298               0.999999984              -0.000554006               0.000506647               0.999999984              -0.000537929               0.000475147               0.999999984              -0.000531153               0.000472831               0.999999984              -0.000530431               0.000483402               0.999999984              -0.000533162               0.000499361               0.999999984              -0.000537243               0.000516793               0.999999984              -0.000541203               0.000533466               0.999999984              -0.000544008               0.000548182               0.999999984              -0.000545017               0.000560140               0.999999984              -0.000543754               0.000568826               0.999999984              -0.000539911               0.000573773               0.999999984              -0.000533181               0.000574470               0.999999984              -0.000523495               0.000570527               0.999999984              -0.000511181               0.000561762               0.999999984              -0.000496893               0.000548726               0.999999984              -0.000481385               0.000532424               0.999999984              -0.000543890               0.000717410               0.999999984              -0.000492736               0.000604332               0.999999984              -0.000469645               0.000572952               0.999999984              -0.000461674               0.000573751               0.999999984              -0.000461413               0.000587908               0.999999984              -0.000464318               0.000607238               0.999999984              -0.000467662               0.000627368               0.999999984              -0.000469619               0.000646168               0.999999984              -0.000469138               0.000662515               0.999999984              -0.000465647               0.000675773               0.999999984              -0.000458799               0.000685370               0.999999984              -0.000448330               0.000690623               0.999999984              -0.000434262               0.000691157               0.999999984              -0.000416955               0.000687280               0.999999984              -0.000397170               0.000679511               0.999999984              -0.000375674               0.000668812               0.999999984              -0.000353154               0.000656227               0.999999984              -0.000502038               0.000819554               0.999999984              -0.000428236               0.000700410               0.999999984              -0.000401347               0.000670508               0.999999984              -0.000394750               0.000674271               0.999999984              -0.000396032               0.000691549               0.999999984              -0.000399524               0.000713579               0.999999984              -0.000401884               0.000736002               0.999999984              -0.000401295               0.000756434               0.999999984              -0.000396834               0.000773979               0.999999984              -0.000388084               0.000788004               0.999999984              -0.000374759               0.000797988               0.999999984              -0.000356877               0.000803087               0.999999984              -0.000334949               0.000803583               0.999999984              -0.000309829               0.000800369               0.999999984              -0.000282439               0.000794334               0.999999984              -0.000253561               0.000786350               0.999999984              -0.000223929               0.000777386               0.999999984              -0.000456632               0.000912968               0.999999984              -0.000362733               0.000794719               0.999999984              -0.000336723               0.000766442               0.999999984              -0.000333149               0.000772506               0.999999984              -0.000336694               0.000792178               0.999999984              -0.000340630               0.000816411               0.999999984              -0.000341365               0.000840690               0.999999984              -0.000337442               0.000862603               0.999999984              -0.000328217               0.000880921               0.999999984              -0.000313264               0.000895189               0.999999984              -0.000292468               0.000904858               0.999999984              -0.000266323               0.000909875               0.999999984              -0.000235951               0.000910898               0.999999984              -0.000202506               0.000909088               0.999999984              -0.000167128               0.000905456               0.999999984              -0.000130827               0.000900757               0.999999984              -0.000094144               0.000895612               0.999999984              -0.000409795               0.001001154               0.999999984              -0.000308456               0.000898999               0.999999984              -0.000279198               0.000865727               0.999999984              -0.000274501               0.000865382               0.999999984              -0.000277727               0.000880207               0.999999984              -0.000282127               0.000901562               0.999999984              -0.000284093               0.000924859               0.999999984              -0.000282175               0.000947539               0.999999984              -0.000275500               0.000968020               0.999999984              -0.000263513               0.000985605               0.999999984              -0.000245941               0.000999888               0.999999984              -0.000222939               0.001010591               0.999999984              -0.000195151               0.001017927               0.999999984              -0.000163158               0.001022396               0.999999984              -0.000128308               0.001024826               0.999999984              -0.000091542               0.001025995               0.999999984              -0.000053832               0.001026498               0.999999984              -0.000358580               0.001081171               0.999999984              -0.000257172               0.000999664               0.999999984              -0.000224767               0.000967394               0.999999984              -0.000217995               0.000962990               0.999999984              -0.000220050               0.000973957               0.999999984              -0.000224121               0.000992817               0.999999984              -0.000226842               0.001015151               0.999999984              -0.000226532               0.001038336               0.999999984              -0.000222038               0.001060704               0.999999984              -0.000212720               0.001081202               0.999999984              -0.000198174               0.001099427               0.999999984              -0.000178297               0.001114912               0.999999984              -0.000153272               0.001127685               0.999999984              -0.000123465               0.001137852               0.999999984              -0.000089503               0.001145968               0.999999984              -0.000052379               0.001152632               0.999999984              -0.000013255               0.001158588               0.999999984              -0.000304044               0.001151175               0.999999984              -0.000208801               0.001093688               0.999999984              -0.000175029               0.001066797               0.999999984              -0.000165793               0.001061707               0.999999984              -0.000166036               0.001070499               0.999999984              -0.000169160               0.001087656               0.999999984              -0.000171880               0.001109384               0.999999984              -0.000172479               0.001133207               0.999999984              -0.000169632               0.001157414               0.999999984              -0.000162596               0.001180765               0.999999984              -0.000150873               0.001202704               0.999999984              -0.000134174               0.001222713               0.999999984              -0.000112254               0.001240502               0.999999984              -0.000085048               0.001256056               0.999999984              -0.000052583               0.001269632               0.999999984              -0.000015303               0.001281651               0.999999984               0.000025782               0.001292723               0.999999984              -0.000246638               0.001209999               0.999999984              -0.000163342               0.001177157               0.999999984              -0.000130700               0.001159003               0.999999984              -0.000119861               0.001156008               0.999999984              -0.000118271               0.001164517               0.999999984              -0.000119947               0.001181188               0.999999984              -0.000122074               0.001202995               0.999999984              -0.000122971               0.001227716               0.999999984              -0.000121269               0.001253786               0.999999984              -0.000116061               0.001280121               0.999999984              -0.000106868               0.001305836               0.999999984              -0.000093350               0.001330410               0.999999984              -0.000074960               0.001353405               0.999999984              -0.000051044               0.001374469               0.999999984              -0.000021182               0.001393605               0.999999984               0.000014964               0.001411141               0.999999984               0.000057357               0.001427476               0.999999984              -0.000186974               0.001256611               0.999999984              -0.000120424               0.001246254               0.999999984              -0.000092025               0.001238328               0.999999984              -0.000081167               0.001239471               0.999999984              -0.000078335               0.001249477               0.999999984              -0.000078719               0.001266676               0.999999984              -0.000079981               0.001289180               0.999999984              -0.000080653               0.001315193               0.999999984              -0.000079607               0.001343274               0.999999984              -0.000075994               0.001372448               0.999999984              -0.000069214               0.001401859               0.999999984              -0.000058883               0.001430963               0.999999984              -0.000044379               0.001459190               0.999999984              -0.000024931               0.001486150               0.999999984               0.000000568               0.001511471               0.999999984               0.000033157               0.001535086               0.999999984               0.000073878               0.001557150               0.999999984              -0.000125606               0.001290394               0.999999984              -0.000079343               0.001297918               0.999999984              -0.000058291               0.001299521               0.999999984              -0.000049444               0.001305440               0.999999984              -0.000046515               0.001317776               0.999999984              -0.000046155               0.001336231               0.999999984              -0.000046624               0.001359770               0.999999984              -0.000046955               0.001387135               0.999999984              -0.000046367               0.001417064               0.999999984              -0.000044110               0.001448836               0.999999984              -0.000039718               0.001481628               0.999999984              -0.000032644               0.001514785               0.999999984              -0.000022480               0.001547803               0.999999984              -0.000008522               0.001580297               0.999999984               0.000010484               0.001611734               0.999999984               0.000035850               0.001641694               0.999999984               0.000069302               0.001669733               0.999999984              -0.000063076               0.001310890               0.999999984              -0.000039392               0.001329917               0.999999984              -0.000028160               0.001338177               0.999999984              -0.000023265               0.001347834               0.999999984              -0.000021420               0.001362305               0.999999984              -0.000021009               0.001382032               0.999999984              -0.000021033               0.001406520               0.999999984              -0.000021054               0.001434897               0.999999984              -0.000020860               0.001466187               0.999999984              -0.000019836               0.001499721               0.999999984              -0.000017636               0.001534913               0.999999984              -0.000014078               0.001571112               0.999999984              -0.000008787               0.001607731               0.999999984              -0.000001343               0.001644400               0.999999984               0.000008860               0.001680446               0.999999984               0.000022982               0.001715241               0.999999984               0.000042249               0.001747926               0.999999984              -0.000000000               0.001317679               0.999999984               0.000000000               0.001340671               0.999999984              -0.000000000               0.001351287               0.999999984              -0.000000000               0.001362320               0.999999984              -0.000000000               0.001377721               0.999999984              -0.000000000               0.001398026               0.999999984               0.000000000               0.001422916               0.999999984               0.000000000               0.001451670               0.999999984              -0.000000000               0.001483460               0.999999984               0.000000000               0.001517743               0.999999984              -0.000000000               0.001553778               0.999999984              -0.000000000               0.001591062               0.999999984              -0.000000000               0.001629036               0.999999984               0.000000000               0.001667152               0.999999984               0.000000000               0.001704854               0.999999984              -0.000000000               0.001741467               0.999999984               0.000000000               0.001775933               0.999999984              -0.000669910              -0.000000000               0.999999984              -0.000718741               0.000000000               0.999999984              -0.000740024              -0.000000000               0.999999984              -0.000751736               0.000000000               0.999999984              -0.000760775               0.000000000               0.999999984              -0.000769859               0.000000000               0.999999984              -0.000779950               0.000000000               0.999999984              -0.000791258               0.000000000               0.999999984              -0.000803623               0.000000000               0.999999984              -0.000816783               0.000000000               0.999999984              -0.000830496              -0.000000000               0.999999984              -0.000844666              -0.000000000               0.999999984              -0.000859229              -0.000000000               0.999999984              -0.000873799               0.000000000               0.999999984              -0.000887969              -0.000000000               0.999999984              -0.000901251               0.000000000               0.999999984              -0.000912897              -0.000000000               0.999999984              -0.000666269              -0.000126142               0.999999984              -0.000711480              -0.000103098               0.999999984              -0.000730350              -0.000093193               0.999999984              -0.000740587              -0.000090055               0.999999984              -0.000748696              -0.000090491               0.999999984              -0.000757050              -0.000092824               0.999999984              -0.000766500              -0.000096005               0.999999984              -0.000777191              -0.000099481               0.999999984              -0.000788938              -0.000102769               0.999999984              -0.000801431              -0.000105464               0.999999984              -0.000814466              -0.000107408               0.999999984              -0.000827793              -0.000108594               0.999999984              -0.000841134              -0.000108641               0.999999984              -0.000854222              -0.000107128               0.999999984              -0.000866711              -0.000103378               0.999999984              -0.000878186              -0.000096844               0.999999984              -0.000888100              -0.000086299               0.999999984              -0.000655173              -0.000251231               0.999999984              -0.000689915              -0.000205664               0.999999984              -0.000702418              -0.000187039               0.999999984              -0.000708880              -0.000181746               0.999999984              -0.000714567              -0.000183283               0.999999984              -0.000721241              -0.000188336               0.999999984              -0.000729304              -0.000194942               0.999999984              -0.000738615              -0.000201970               0.999999984              -0.000748794              -0.000208549               0.999999984              -0.000759410              -0.000213986               0.999999984              -0.000770234              -0.000217942               0.999999984              -0.000780937              -0.000220233               0.999999984              -0.000791253              -0.000220363               0.999999984              -0.000800834              -0.000217609               0.999999984              -0.000809321              -0.000211026               0.999999984              -0.000816418              -0.000199537               0.999999984              -0.000821779              -0.000181923               0.999999984              -0.000636929              -0.000374088               0.999999984              -0.000655214              -0.000307280               0.999999984              -0.000658541              -0.000281933               0.999999984              -0.000659922              -0.000276076               0.999999984              -0.000662749              -0.000279822               0.999999984              -0.000667578              -0.000288196               0.999999984              -0.000674041              -0.000298447               0.999999984              -0.000681549              -0.000309083               0.999999984              -0.000689479              -0.000318793               0.999999984              -0.000697428              -0.000326856               0.999999984              -0.000705016              -0.000332763               0.999999984              -0.000711860              -0.000336192               0.999999984              -0.000717525              -0.000336621               0.999999984              -0.000721727              -0.000333233               0.999999984              -0.000724241              -0.000324879               0.999999984              -0.000724870              -0.000310754               0.999999984              -0.000723723              -0.000290315               0.999999984              -0.000612030              -0.000493491               0.999999984              -0.000609104              -0.000407639               0.999999984              -0.000602270              -0.000378001               0.999999984              -0.000598890              -0.000373247               0.999999984              -0.000599360              -0.000380156               0.999999984              -0.000602716              -0.000392296               0.999999984              -0.000607706              -0.000406343               0.999999984              -0.000613417              -0.000420240               0.999999984              -0.000619033              -0.000432818               0.999999984              -0.000623906              -0.000443050               0.999999984              -0.000627475              -0.000450509               0.999999984              -0.000629364              -0.000454817               0.999999984              -0.000629199              -0.000455505               0.999999984              -0.000626783              -0.000451754               0.999999984              -0.000622034              -0.000442776               0.999999984              -0.000615202              -0.000428425               0.999999984              -0.000606830              -0.000408877               0.999999984              -0.000580853              -0.000608298               0.999999984              -0.000554006              -0.000506647               0.999999984              -0.000537929              -0.000475147               0.999999984              -0.000531153              -0.000472831               0.999999984              -0.000530431              -0.000483402               0.999999984              -0.000533162              -0.000499361               0.999999984              -0.000537243              -0.000516793               0.999999984              -0.000541203              -0.000533466               0.999999984              -0.000544008              -0.000548182               0.999999984              -0.000545017              -0.000560140               0.999999984              -0.000543754              -0.000568826               0.999999984              -0.000539911              -0.000573773               0.999999984              -0.000533181              -0.000574470               0.999999984              -0.000523495              -0.000570527               0.999999984              -0.000511181              -0.000561762               0.999999984              -0.000496893              -0.000548726               0.999999984              -0.000481385              -0.000532424               0.999999984              -0.000543890              -0.000717410               0.999999984              -0.000492736              -0.000604332               0.999999984              -0.000469645              -0.000572952               0.999999984              -0.000461674              -0.000573751               0.999999984              -0.000461413              -0.000587908               0.999999984              -0.000464318              -0.000607238               0.999999984              -0.000467662              -0.000627368               0.999999984              -0.000469619              -0.000646168               0.999999984              -0.000469138              -0.000662515               0.999999984              -0.000465647              -0.000675773               0.999999984              -0.000458799              -0.000685370               0.999999984              -0.000448330              -0.000690623               0.999999984              -0.000434262              -0.000691157               0.999999984              -0.000416955              -0.000687280               0.999999984              -0.000397170              -0.000679511               0.999999984              -0.000375674              -0.000668812               0.999999984              -0.000353154              -0.000656227               0.999999984              -0.000502038              -0.000819554               0.999999984              -0.000428236              -0.000700410               0.999999984              -0.000401347              -0.000670508               0.999999984              -0.000394750              -0.000674271               0.999999984              -0.000396032              -0.000691549               0.999999984              -0.000399524              -0.000713579               0.999999984              -0.000401884              -0.000736002               0.999999984              -0.000401295              -0.000756434               0.999999984              -0.000396834              -0.000773979               0.999999984              -0.000388084              -0.000788004               0.999999984              -0.000374759              -0.000797988               0.999999984              -0.000356877              -0.000803087               0.999999984              -0.000334949              -0.000803583               0.999999984              -0.000309829              -0.000800369               0.999999984              -0.000282439              -0.000794334               0.999999984              -0.000253561              -0.000786350               0.999999984              -0.000223929              -0.000777386               0.999999984              -0.000456632              -0.000912968               0.999999984              -0.000362733              -0.000794719               0.999999984              -0.000336723              -0.000766442               0.999999984              -0.000333149              -0.000772506               0.999999984              -0.000336694              -0.000792178               0.999999984              -0.000340630              -0.000816411               0.999999984              -0.000341365              -0.000840690               0.999999984              -0.000337442              -0.000862603               0.999999984              -0.000328217              -0.000880921               0.999999984              -0.000313264              -0.000895189               0.999999984              -0.000292468              -0.000904858               0.999999984              -0.000266323              -0.000909875               0.999999984              -0.000235951              -0.000910898               0.999999984              -0.000202506              -0.000909088               0.999999984              -0.000167128              -0.000905456               0.999999984              -0.000130827              -0.000900757               0.999999984              -0.000094144              -0.000895612               0.999999984              -0.000409795              -0.001001154               0.999999984              -0.000308456              -0.000898999               0.999999984              -0.000279198              -0.000865727               0.999999984              -0.000274501              -0.000865382               0.999999984              -0.000277727              -0.000880207               0.999999984              -0.000282127              -0.000901562               0.999999984              -0.000284093              -0.000924859               0.999999984              -0.000282175              -0.000947539               0.999999984              -0.000275500              -0.000968020               0.999999984              -0.000263513              -0.000985605               0.999999984              -0.000245941              -0.000999888               0.999999984              -0.000222939              -0.001010591               0.999999984              -0.000195151              -0.001017927               0.999999984              -0.000163158              -0.001022396               0.999999984              -0.000128308              -0.001024826               0.999999984              -0.000091542              -0.001025995               0.999999984              -0.000053832              -0.001026498               0.999999984              -0.000358580              -0.001081171               0.999999984              -0.000257172              -0.000999664               0.999999984              -0.000224767              -0.000967394               0.999999984              -0.000217995              -0.000962990               0.999999984              -0.000220050              -0.000973957               0.999999984              -0.000224121              -0.000992817               0.999999984              -0.000226842              -0.001015151               0.999999984              -0.000226532              -0.001038336               0.999999984              -0.000222038              -0.001060704               0.999999984              -0.000212720              -0.001081202               0.999999984              -0.000198174              -0.001099427               0.999999984              -0.000178297              -0.001114912               0.999999984              -0.000153272              -0.001127685               0.999999984              -0.000123465              -0.001137852               0.999999984              -0.000089503              -0.001145968               0.999999984              -0.000052379              -0.001152632               0.999999984              -0.000013255              -0.001158588               0.999999984              -0.000304044              -0.001151175               0.999999984              -0.000208801              -0.001093688               0.999999984              -0.000175029              -0.001066797               0.999999984              -0.000165793              -0.001061707               0.999999984              -0.000166036              -0.001070499               0.999999984              -0.000169160              -0.001087656               0.999999984              -0.000171880              -0.001109384               0.999999984              -0.000172479              -0.001133207               0.999999984              -0.000169632              -0.001157414               0.999999984              -0.000162596              -0.001180765               0.999999984              -0.000150873              -0.001202704               0.999999984              -0.000134174              -0.001222713               0.999999984              -0.000112254              -0.001240502               0.999999984              -0.000085048              -0.001256056               0.999999984              -0.000052583              -0.001269632               0.999999984              -0.000015303              -0.001281651               0.999999984               0.000025782              -0.001292723               0.999999984              -0.000246638              -0.001209999               0.999999984              -0.000163342              -0.001177157               0.999999984              -0.000130700              -0.001159003               0.999999984              -0.000119861              -0.001156008               0.999999984              -0.000118271              -0.001164517               0.999999984              -0.000119947              -0.001181188               0.999999984              -0.000122074              -0.001202995               0.999999984              -0.000122971              -0.001227716               0.999999984              -0.000121269              -0.001253786               0.999999984              -0.000116061              -0.001280121               0.999999984              -0.000106868              -0.001305836               0.999999984              -0.000093350              -0.001330410               0.999999984              -0.000074960              -0.001353405               0.999999984              -0.000051044              -0.001374469               0.999999984              -0.000021182              -0.001393605               0.999999984               0.000014964              -0.001411141               0.999999984               0.000057357              -0.001427476               0.999999984              -0.000186974              -0.001256611               0.999999984              -0.000120424              -0.001246254               0.999999984              -0.000092025              -0.001238328               0.999999984              -0.000081167              -0.001239471               0.999999984              -0.000078335              -0.001249477               0.999999984              -0.000078719              -0.001266676               0.999999984              -0.000079981              -0.001289180               0.999999984              -0.000080653              -0.001315193               0.999999984              -0.000079607              -0.001343274               0.999999984              -0.000075994              -0.001372448               0.999999984              -0.000069214              -0.001401859               0.999999984              -0.000058883              -0.001430963               0.999999984              -0.000044379              -0.001459190               0.999999984              -0.000024931              -0.001486150               0.999999984               0.000000568              -0.001511471               0.999999984               0.000033157              -0.001535086               0.999999984               0.000073878              -0.001557150               0.999999984              -0.000125606              -0.001290394               0.999999984              -0.000079343              -0.001297918               0.999999984              -0.000058291              -0.001299521               0.999999984              -0.000049444              -0.001305440               0.999999984              -0.000046515              -0.001317776               0.999999984              -0.000046155              -0.001336231               0.999999984              -0.000046624              -0.001359770               0.999999984              -0.000046955              -0.001387135               0.999999984              -0.000046367              -0.001417064               0.999999984              -0.000044110              -0.001448836               0.999999984              -0.000039718              -0.001481628               0.999999984              -0.000032644              -0.001514785               0.999999984              -0.000022480              -0.001547803               0.999999984              -0.000008522              -0.001580297               0.999999984               0.000010484              -0.001611734               0.999999984               0.000035850              -0.001641694               0.999999984               0.000069302              -0.001669733               0.999999984              -0.000063076              -0.001310890               0.999999984              -0.000039392              -0.001329917               0.999999984              -0.000028160              -0.001338177               0.999999984              -0.000023265              -0.001347834               0.999999984              -0.000021420              -0.001362305               0.999999984              -0.000021009              -0.001382032               0.999999984              -0.000021033              -0.001406520               0.999999984              -0.000021054              -0.001434897               0.999999984              -0.000020860              -0.001466187               0.999999984              -0.000019836              -0.001499721               0.999999984              -0.000017636              -0.001534913               0.999999984              -0.000014078              -0.001571112               0.999999984              -0.000008787              -0.001607731               0.999999984              -0.000001343              -0.001644400               0.999999984               0.000008860              -0.001680446               0.999999984               0.000022982              -0.001715241               0.999999984               0.000042249              -0.001747926               0.999999984               0.000000000              -0.001317679               0.999999984              -0.000000000              -0.001340671               0.999999984               0.000000000              -0.001351287               0.999999984               0.000000000              -0.001362320               0.999999984               0.000000000              -0.001377721               0.999999984              -0.000000000              -0.001398026               0.999999984               0.000000000              -0.001422916               0.999999984               0.000000000              -0.001451670               0.999999984               0.000000000              -0.001483460               0.999999984              -0.000000000              -0.001517743               0.999999984              -0.000000000              -0.001553778               0.999999984               0.000000000              -0.001591062               0.999999984              -0.000000000              -0.001629036               0.999999984              -0.000000000              -0.001667152               0.999999984               0.000000000              -0.001704854               0.999999984              -0.000000000              -0.001741467               0.999999984               0.000000000              -0.001775933               0.999999984               0.000669910              -0.000000000               0.999999984               0.000718741               0.000000000               0.999999984               0.000740024               0.000000000               0.999999984               0.000751736               0.000000000               0.999999984               0.000760775               0.000000000               0.999999984               0.000769859               0.000000000               0.999999984               0.000779950               0.000000000               0.999999984               0.000791258              -0.000000000               0.999999984               0.000803623               0.000000000               0.999999984               0.000816783               0.000000000               0.999999984               0.000830496              -0.000000000               0.999999984               0.000844666              -0.000000000               0.999999984               0.000859229               0.000000000               0.999999984               0.000873799              -0.000000000               0.999999984               0.000887969               0.000000000               0.999999984               0.000901251               0.000000000               0.999999984               0.000912897               0.000000000               0.999999984               0.000666269              -0.000126142               0.999999984               0.000711480              -0.000103098               0.999999984               0.000730350              -0.000093193               0.999999984               0.000740587              -0.000090055               0.999999984               0.000748696              -0.000090491               0.999999984               0.000757050              -0.000092824               0.999999984               0.000766500              -0.000096005               0.999999984               0.000777191              -0.000099481               0.999999984               0.000788938              -0.000102769               0.999999984               0.000801431              -0.000105464               0.999999984               0.000814466              -0.000107408               0.999999984               0.000827793              -0.000108594               0.999999984               0.000841134              -0.000108641               0.999999984               0.000854222              -0.000107128               0.999999984               0.000866711              -0.000103378               0.999999984               0.000878186              -0.000096844               0.999999984               0.000888100              -0.000086299               0.999999984               0.000655173              -0.000251231               0.999999984               0.000689915              -0.000205664               0.999999984               0.000702418              -0.000187039               0.999999984               0.000708880              -0.000181746               0.999999984               0.000714567              -0.000183283               0.999999984               0.000721241              -0.000188336               0.999999984               0.000729304              -0.000194942               0.999999984               0.000738615              -0.000201970               0.999999984               0.000748794              -0.000208549               0.999999984               0.000759410              -0.000213986               0.999999984               0.000770234              -0.000217942               0.999999984               0.000780937              -0.000220233               0.999999984               0.000791253              -0.000220363               0.999999984               0.000800834              -0.000217609               0.999999984               0.000809321              -0.000211026               0.999999984               0.000816418              -0.000199537               0.999999984               0.000821779              -0.000181923               0.999999984               0.000636929              -0.000374088               0.999999984               0.000655214              -0.000307280               0.999999984               0.000658541              -0.000281933               0.999999984               0.000659922              -0.000276076               0.999999984               0.000662749              -0.000279822               0.999999984               0.000667578              -0.000288196               0.999999984               0.000674041              -0.000298447               0.999999984               0.000681549              -0.000309083               0.999999984               0.000689479              -0.000318793               0.999999984               0.000697428              -0.000326856               0.999999984               0.000705016              -0.000332763               0.999999984               0.000711860              -0.000336192               0.999999984               0.000717525              -0.000336621               0.999999984               0.000721727              -0.000333233               0.999999984               0.000724241              -0.000324879               0.999999984               0.000724870              -0.000310754               0.999999984               0.000723723              -0.000290315               0.999999984               0.000612030              -0.000493491               0.999999984               0.000609104              -0.000407639               0.999999984               0.000602270              -0.000378001               0.999999984               0.000598890              -0.000373247               0.999999984               0.000599360              -0.000380156               0.999999984               0.000602716              -0.000392296               0.999999984               0.000607706              -0.000406343               0.999999984               0.000613417              -0.000420240               0.999999984               0.000619033              -0.000432818               0.999999984               0.000623906              -0.000443050               0.999999984               0.000627475              -0.000450509               0.999999984               0.000629364              -0.000454817               0.999999984               0.000629199              -0.000455505               0.999999984               0.000626783              -0.000451754               0.999999984               0.000622034              -0.000442776               0.999999984               0.000615202              -0.000428425               0.999999984               0.000606830              -0.000408877               0.999999984               0.000580853              -0.000608298               0.999999984               0.000554006              -0.000506647               0.999999984               0.000537929              -0.000475147               0.999999984               0.000531153              -0.000472831               0.999999984               0.000530431              -0.000483402               0.999999984               0.000533162              -0.000499361               0.999999984               0.000537243              -0.000516793               0.999999984               0.000541203              -0.000533466               0.999999984               0.000544008              -0.000548182               0.999999984               0.000545017              -0.000560140               0.999999984               0.000543754              -0.000568826               0.999999984               0.000539911              -0.000573773               0.999999984               0.000533181              -0.000574470               0.999999984               0.000523495              -0.000570527               0.999999984               0.000511181              -0.000561762               0.999999984               0.000496893              -0.000548726               0.999999984               0.000481385              -0.000532424               0.999999984               0.000543890              -0.000717410               0.999999984               0.000492736              -0.000604332               0.999999984               0.000469645              -0.000572952               0.999999984               0.000461674              -0.000573751               0.999999984               0.000461413              -0.000587908               0.999999984               0.000464318              -0.000607238               0.999999984               0.000467662              -0.000627368               0.999999984               0.000469619              -0.000646168               0.999999984               0.000469138              -0.000662515               0.999999984               0.000465647              -0.000675773               0.999999984               0.000458799              -0.000685370               0.999999984               0.000448330              -0.000690623               0.999999984               0.000434262              -0.000691157               0.999999984               0.000416955              -0.000687280               0.999999984               0.000397170              -0.000679511               0.999999984               0.000375674              -0.000668812               0.999999984               0.000353154              -0.000656227               0.999999984               0.000502038              -0.000819554               0.999999984               0.000428236              -0.000700410               0.999999984               0.000401347              -0.000670508               0.999999984               0.000394750              -0.000674271               0.999999984               0.000396032              -0.000691549               0.999999984               0.000399524              -0.000713579               0.999999984               0.000401884              -0.000736002               0.999999984               0.000401295              -0.000756434               0.999999984               0.000396834              -0.000773979               0.999999984               0.000388084              -0.000788004               0.999999984               0.000374759              -0.000797988               0.999999984               0.000356877              -0.000803087               0.999999984               0.000334949              -0.000803583               0.999999984               0.000309829              -0.000800369               0.999999984               0.000282439              -0.000794334               0.999999984               0.000253561              -0.000786350               0.999999984               0.000223929              -0.000777386               0.999999984               0.000456632              -0.000912968               0.999999984               0.000362733              -0.000794719               0.999999984               0.000336723              -0.000766442               0.999999984               0.000333149              -0.000772506               0.999999984               0.000336694              -0.000792178               0.999999984               0.000340630              -0.000816411               0.999999984               0.000341365              -0.000840690               0.999999984               0.000337442              -0.000862603               0.999999984               0.000328217              -0.000880921               0.999999984               0.000313264              -0.000895189               0.999999984               0.000292468              -0.000904858               0.999999984               0.000266323              -0.000909875               0.999999984               0.000235951              -0.000910898               0.999999984               0.000202506              -0.000909088               0.999999984               0.000167128              -0.000905456               0.999999984               0.000130827              -0.000900757               0.999999984               0.000094144              -0.000895612               0.999999984               0.000409795              -0.001001154               0.999999984               0.000308456              -0.000898999               0.999999984               0.000279198              -0.000865727               0.999999984               0.000274501              -0.000865382               0.999999984               0.000277727              -0.000880207               0.999999984               0.000282127              -0.000901562               0.999999984               0.000284093              -0.000924859               0.999999984               0.000282175              -0.000947539               0.999999984               0.000275500              -0.000968020               0.999999984               0.000263513              -0.000985605               0.999999984               0.000245941              -0.000999888               0.999999984               0.000222939              -0.001010591               0.999999984               0.000195151              -0.001017927               0.999999984               0.000163158              -0.001022396               0.999999984               0.000128308              -0.001024826               0.999999984               0.000091542              -0.001025995               0.999999984               0.000053832              -0.001026498               0.999999984               0.000358580              -0.001081171               0.999999984               0.000257172              -0.000999664               0.999999984               0.000224767              -0.000967394               0.999999984               0.000217995              -0.000962990               0.999999984               0.000220050              -0.000973957               0.999999984               0.000224121              -0.000992817               0.999999984               0.000226842              -0.001015151               0.999999984               0.000226532              -0.001038336               0.999999984               0.000222038              -0.001060704               0.999999984               0.000212720              -0.001081202               0.999999984               0.000198174              -0.001099427               0.999999984               0.000178297              -0.001114912               0.999999984               0.000153272              -0.001127685               0.999999984               0.000123465              -0.001137852               0.999999984               0.000089503              -0.001145968               0.999999984               0.000052379              -0.001152632               0.999999984               0.000013255              -0.001158588               0.999999984               0.000304044              -0.001151175               0.999999984               0.000208801              -0.001093688               0.999999984               0.000175029              -0.001066797               0.999999984               0.000165793              -0.001061707               0.999999984               0.000166036              -0.001070499               0.999999984               0.000169160              -0.001087656               0.999999984               0.000171880              -0.001109384               0.999999984               0.000172479              -0.001133207               0.999999984               0.000169632              -0.001157414               0.999999984               0.000162596              -0.001180765               0.999999984               0.000150873              -0.001202704               0.999999984               0.000134174              -0.001222713               0.999999984               0.000112254              -0.001240502               0.999999984               0.000085048              -0.001256056               0.999999984               0.000052583              -0.001269632               0.999999984               0.000015303              -0.001281651               0.999999984              -0.000025782              -0.001292723               0.999999984               0.000246638              -0.001209999               0.999999984               0.000163342              -0.001177157               0.999999984               0.000130700              -0.001159003               0.999999984               0.000119861              -0.001156008               0.999999984               0.000118271              -0.001164517               0.999999984               0.000119947              -0.001181188               0.999999984               0.000122074              -0.001202995               0.999999984               0.000122971              -0.001227716               0.999999984               0.000121269              -0.001253786               0.999999984               0.000116061              -0.001280121               0.999999984               0.000106868              -0.001305836               0.999999984               0.000093350              -0.001330410               0.999999984               0.000074960              -0.001353405               0.999999984               0.000051044              -0.001374469               0.999999984               0.000021182              -0.001393605               0.999999984              -0.000014964              -0.001411141               0.999999984              -0.000057357              -0.001427476               0.999999984               0.000186974              -0.001256611               0.999999984               0.000120424              -0.001246254               0.999999984               0.000092025              -0.001238328               0.999999984               0.000081167              -0.001239471               0.999999984               0.000078335              -0.001249477               0.999999984               0.000078719              -0.001266676               0.999999984               0.000079981              -0.001289180               0.999999984               0.000080653              -0.001315193               0.999999984               0.000079607              -0.001343274               0.999999984               0.000075994              -0.001372448               0.999999984               0.000069214              -0.001401859               0.999999984               0.000058883              -0.001430963               0.999999984               0.000044379              -0.001459190               0.999999984               0.000024931              -0.001486150               0.999999984              -0.000000568              -0.001511471               0.999999984              -0.000033157              -0.001535086               0.999999984              -0.000073878              -0.001557150               0.999999984               0.000125606              -0.001290394               0.999999984               0.000079343              -0.001297918               0.999999984               0.000058291              -0.001299521               0.999999984               0.000049444              -0.001305440               0.999999984               0.000046515              -0.001317776               0.999999984               0.000046155              -0.001336231               0.999999984               0.000046624              -0.001359770               0.999999984               0.000046955              -0.001387135               0.999999984               0.000046367              -0.001417064               0.999999984               0.000044110              -0.001448836               0.999999984               0.000039718              -0.001481628               0.999999984               0.000032644              -0.001514785               0.999999984               0.000022480              -0.001547803               0.999999984               0.000008522              -0.001580297               0.999999984              -0.000010484              -0.001611734               0.999999984              -0.000035850              -0.001641694               0.999999984              -0.000069302              -0.001669733               0.999999984               0.000063076              -0.001310890               0.999999984               0.000039392              -0.001329917               0.999999984               0.000028160              -0.001338177               0.999999984               0.000023265              -0.001347834               0.999999984               0.000021420              -0.001362305               0.999999984               0.000021009              -0.001382032               0.999999984               0.000021033              -0.001406520               0.999999984               0.000021054              -0.001434897               0.999999984               0.000020860              -0.001466187               0.999999984               0.000019836              -0.001499721               0.999999984               0.000017636              -0.001534913               0.999999984               0.000014078              -0.001571112               0.999999984               0.000008787              -0.001607731               0.999999984               0.000001343              -0.001644400               0.999999984              -0.000008860              -0.001680446               0.999999984              -0.000022982              -0.001715241               0.999999984              -0.000042249              -0.001747926               0.999999984               0.000000000              -0.001317679               0.999999984              -0.000000000              -0.001340671               0.999999984               0.000000000              -0.001351287               0.999999984               0.000000000              -0.001362320               0.999999984               0.000000000              -0.001377721               0.999999984              -0.000000000              -0.001398026               0.999999984               0.000000000              -0.001422916               0.999999984               0.000000000              -0.001451670               0.999999984               0.000000000              -0.001483460               0.999999984              -0.000000000              -0.001517743               0.999999984              -0.000000000              -0.001553778               0.999999984               0.000000000              -0.001591062               0.999999984              -0.000000000              -0.001629036               0.999999984              -0.000000000              -0.001667152               0.999999984               0.000000000              -0.001704854               0.999999984              -0.000000000              -0.001741467               0.999999984               0.000000000              -0.001775933               0.999999984               0.000669910              -0.000000000               0.999999984               0.000718741               0.000000000               0.999999984               0.000740024               0.000000000               0.999999984               0.000751736               0.000000000               0.999999984               0.000760775               0.000000000               0.999999984               0.000769859               0.000000000               0.999999984               0.000779950               0.000000000               0.999999984               0.000791258              -0.000000000               0.999999984               0.000803623               0.000000000               0.999999984               0.000816783               0.000000000               0.999999984               0.000830496              -0.000000000               0.999999984               0.000844666              -0.000000000               0.999999984               0.000859229               0.000000000               0.999999984               0.000873799              -0.000000000               0.999999984               0.000887969               0.000000000               0.999999984               0.000901251               0.000000000               0.999999984               0.000912897               0.000000000               0.999999984               0.000666269               0.000126142               0.999999984               0.000711480               0.000103098               0.999999984               0.000730350               0.000093193               0.999999984               0.000740587               0.000090055               0.999999984               0.000748696               0.000090491               0.999999984               0.000757050               0.000092824               0.999999984               0.000766500               0.000096005               0.999999984               0.000777191               0.000099481               0.999999984               0.000788938               0.000102769               0.999999984               0.000801431               0.000105464               0.999999984               0.000814466               0.000107408               0.999999984               0.000827793               0.000108594               0.999999984               0.000841134               0.000108641               0.999999984               0.000854222               0.000107128               0.999999984               0.000866711               0.000103378               0.999999984               0.000878186               0.000096844               0.999999984               0.000888100               0.000086299               0.999999984               0.000655173               0.000251231               0.999999984               0.000689915               0.000205664               0.999999984               0.000702418               0.000187039               0.999999984               0.000708880               0.000181746               0.999999984               0.000714567               0.000183283               0.999999984               0.000721241               0.000188336               0.999999984               0.000729304               0.000194942               0.999999984               0.000738615               0.000201970               0.999999984               0.000748794               0.000208549               0.999999984               0.000759410               0.000213986               0.999999984               0.000770234               0.000217942               0.999999984               0.000780937               0.000220233               0.999999984               0.000791253               0.000220363               0.999999984               0.000800834               0.000217609               0.999999984               0.000809321               0.000211026               0.999999984               0.000816418               0.000199537               0.999999984               0.000821779               0.000181923               0.999999984               0.000636929               0.000374088               0.999999984               0.000655214               0.000307280               0.999999984               0.000658541               0.000281933               0.999999984               0.000659922               0.000276076               0.999999984               0.000662749               0.000279822               0.999999984               0.000667578               0.000288196               0.999999984               0.000674041               0.000298447               0.999999984               0.000681549               0.000309083               0.999999984               0.000689479               0.000318793               0.999999984               0.000697428               0.000326856               0.999999984               0.000705016               0.000332763               0.999999984               0.000711860               0.000336192               0.999999984               0.000717525               0.000336621               0.999999984               0.000721727               0.000333233               0.999999984               0.000724241               0.000324879               0.999999984               0.000724870               0.000310754               0.999999984               0.000723723               0.000290315               0.999999984               0.000612030               0.000493491               0.999999984               0.000609104               0.000407639               0.999999984               0.000602270               0.000378001               0.999999984               0.000598890               0.000373247               0.999999984               0.000599360               0.000380156               0.999999984               0.000602716               0.000392296               0.999999984               0.000607706               0.000406343               0.999999984               0.000613417               0.000420240               0.999999984               0.000619033               0.000432818               0.999999984               0.000623906               0.000443050               0.999999984               0.000627475               0.000450509               0.999999984               0.000629364               0.000454817               0.999999984               0.000629199               0.000455505               0.999999984               0.000626783               0.000451754               0.999999984               0.000622034               0.000442776               0.999999984               0.000615202               0.000428425               0.999999984               0.000606830               0.000408877               0.999999984               0.000580853               0.000608298               0.999999984               0.000554006               0.000506647               0.999999984               0.000537929               0.000475147               0.999999984               0.000531153               0.000472831               0.999999984               0.000530431               0.000483402               0.999999984               0.000533162               0.000499361               0.999999984               0.000537243               0.000516793               0.999999984               0.000541203               0.000533466               0.999999984               0.000544008               0.000548182               0.999999984               0.000545017               0.000560140               0.999999984               0.000543754               0.000568826               0.999999984               0.000539911               0.000573773               0.999999984               0.000533181               0.000574470               0.999999984               0.000523495               0.000570527               0.999999984               0.000511181               0.000561762               0.999999984               0.000496893               0.000548726               0.999999984               0.000481385               0.000532424               0.999999984               0.000543890               0.000717410               0.999999984               0.000492736               0.000604332               0.999999984               0.000469645               0.000572952               0.999999984               0.000461674               0.000573751               0.999999984               0.000461413               0.000587908               0.999999984               0.000464318               0.000607238               0.999999984               0.000467662               0.000627368               0.999999984               0.000469619               0.000646168               0.999999984               0.000469138               0.000662515               0.999999984               0.000465647               0.000675773               0.999999984               0.000458799               0.000685370               0.999999984               0.000448330               0.000690623               0.999999984               0.000434262               0.000691157               0.999999984               0.000416955               0.000687280               0.999999984               0.000397170               0.000679511               0.999999984               0.000375674               0.000668812               0.999999984               0.000353154               0.000656227               0.999999984               0.000502038               0.000819554               0.999999984               0.000428236               0.000700410               0.999999984               0.000401347               0.000670508               0.999999984               0.000394750               0.000674271               0.999999984               0.000396032               0.000691549               0.999999984               0.000399524               0.000713579               0.999999984               0.000401884               0.000736002               0.999999984               0.000401295               0.000756434               0.999999984               0.000396834               0.000773979               0.999999984               0.000388084               0.000788004               0.999999984               0.000374759               0.000797988               0.999999984               0.000356877               0.000803087               0.999999984               0.000334949               0.000803583               0.999999984               0.000309829               0.000800369               0.999999984               0.000282439               0.000794334               0.999999984               0.000253561               0.000786350               0.999999984               0.000223929               0.000777386               0.999999984               0.000456632               0.000912968               0.999999984               0.000362733               0.000794719               0.999999984               0.000336723               0.000766442               0.999999984               0.000333149               0.000772506               0.999999984               0.000336694               0.000792178               0.999999984               0.000340630               0.000816411               0.999999984               0.000341365               0.000840690               0.999999984               0.000337442               0.000862603               0.999999984               0.000328217               0.000880921               0.999999984               0.000313264               0.000895189               0.999999984               0.000292468               0.000904858               0.999999984               0.000266323               0.000909875               0.999999984               0.000235951               0.000910898               0.999999984               0.000202506               0.000909088               0.999999984               0.000167128               0.000905456               0.999999984               0.000130827               0.000900757               0.999999984               0.000094144               0.000895612               0.999999984               0.000409795               0.001001154               0.999999984               0.000308456               0.000898999               0.999999984               0.000279198               0.000865727               0.999999984               0.000274501               0.000865382               0.999999984               0.000277727               0.000880207               0.999999984               0.000282127               0.000901562               0.999999984               0.000284093               0.000924859               0.999999984               0.000282175               0.000947539               0.999999984               0.000275500               0.000968020               0.999999984               0.000263513               0.000985605               0.999999984               0.000245941               0.000999888               0.999999984               0.000222939               0.001010591               0.999999984               0.000195151               0.001017927               0.999999984               0.000163158               0.001022396               0.999999984               0.000128308               0.001024826               0.999999984               0.000091542               0.001025995               0.999999984               0.000053832               0.001026498               0.999999984               0.000358580               0.001081171               0.999999984               0.000257172               0.000999664               0.999999984               0.000224767               0.000967394               0.999999984               0.000217995               0.000962990               0.999999984               0.000220050               0.000973957               0.999999984               0.000224121               0.000992817               0.999999984               0.000226842               0.001015151               0.999999984               0.000226532               0.001038336               0.999999984               0.000222038               0.001060704               0.999999984               0.000212720               0.001081202               0.999999984               0.000198174               0.001099427               0.999999984               0.000178297               0.001114912               0.999999984               0.000153272               0.001127685               0.999999984               0.000123465               0.001137852               0.999999984               0.000089503               0.001145968               0.999999984               0.000052379               0.001152632               0.999999984               0.000013255               0.001158588               0.999999984               0.000304044               0.001151175               0.999999984               0.000208801               0.001093688               0.999999984               0.000175029               0.001066797               0.999999984               0.000165793               0.001061707               0.999999984               0.000166036               0.001070499               0.999999984               0.000169160               0.001087656               0.999999984               0.000171880               0.001109384               0.999999984               0.000172479               0.001133207               0.999999984               0.000169632               0.001157414               0.999999984               0.000162596               0.001180765               0.999999984               0.000150873               0.001202704               0.999999984               0.000134174               0.001222713               0.999999984               0.000112254               0.001240502               0.999999984               0.000085048               0.001256056               0.999999984               0.000052583               0.001269632               0.999999984               0.000015303               0.001281651               0.999999984              -0.000025782               0.001292723               0.999999984               0.000246638               0.001209999               0.999999984               0.000163342               0.001177157               0.999999984               0.000130700               0.001159003               0.999999984               0.000119861               0.001156008               0.999999984               0.000118271               0.001164517               0.999999984               0.000119947               0.001181188               0.999999984               0.000122074               0.001202995               0.999999984               0.000122971               0.001227716               0.999999984               0.000121269               0.001253786               0.999999984               0.000116061               0.001280121               0.999999984               0.000106868               0.001305836               0.999999984               0.000093350               0.001330410               0.999999984               0.000074960               0.001353405               0.999999984               0.000051044               0.001374469               0.999999984               0.000021182               0.001393605               0.999999984              -0.000014964               0.001411141               0.999999984              -0.000057357               0.001427476               0.999999984               0.000186974               0.001256611               0.999999984               0.000120424               0.001246254               0.999999984               0.000092025               0.001238328               0.999999984               0.000081167               0.001239471               0.999999984               0.000078335               0.001249477               0.999999984               0.000078719               0.001266676               0.999999984               0.000079981               0.001289180               0.999999984               0.000080653               0.001315193               0.999999984               0.000079607               0.001343274               0.999999984               0.000075994               0.001372448               0.999999984               0.000069214               0.001401859               0.999999984               0.000058883               0.001430963               0.999999984               0.000044379               0.001459190               0.999999984               0.000024931               0.001486150               0.999999984              -0.000000568               0.001511471               0.999999984              -0.000033157               0.001535086               0.999999984              -0.000073878               0.001557150               0.999999984               0.000125606               0.001290394               0.999999984               0.000079343               0.001297918               0.999999984               0.000058291               0.001299521               0.999999984               0.000049444               0.001305440               0.999999984               0.000046515               0.001317776               0.999999984               0.000046155               0.001336231               0.999999984               0.000046624               0.001359770               0.999999984               0.000046955               0.001387135               0.999999984               0.000046367               0.001417064               0.999999984               0.000044110               0.001448836               0.999999984               0.000039718               0.001481628               0.999999984               0.000032644               0.001514785               0.999999984               0.000022480               0.001547803               0.999999984               0.000008522               0.001580297               0.999999984              -0.000010484               0.001611734               0.999999984              -0.000035850               0.001641694               0.999999984              -0.000069302               0.001669733               0.999999984               0.000063076               0.001310890               0.999999984               0.000039392               0.001329917               0.999999984               0.000028160               0.001338177               0.999999984               0.000023265               0.001347834               0.999999984               0.000021420               0.001362305               0.999999984               0.000021009               0.001382032               0.999999984               0.000021033               0.001406520               0.999999984               0.000021054               0.001434897               0.999999984               0.000020860               0.001466187               0.999999984               0.000019836               0.001499721               0.999999984               0.000017636               0.001534913               0.999999984               0.000014078               0.001571112               0.999999984               0.000008787               0.001607731               0.999999984               0.000001343               0.001644400               0.999999984              -0.000008860               0.001680446               0.999999984              -0.000022982               0.001715241               0.999999984              -0.000042249               0.001747926               0.999999984              -0.000000000               0.001317679               0.999999984               0.000000000               0.001340671               0.999999984              -0.000000000               0.001351287               0.999999984              -0.000000000               0.001362320               0.999999984              -0.000000000               0.001377721               0.999999984              -0.000000000               0.001398026               0.999999984               0.000000000               0.001422916               0.999999984               0.000000000               0.001451670               0.999999984              -0.000000000               0.001483460               0.999999984               0.000000000               0.001517743               0.999999984              -0.000000000               0.001553778               0.999999984              -0.000000000               0.001591062               0.999999984              -0.000000000               0.001629036               0.999999984               0.000000000               0.001667152               0.999999984               0.000000000               0.001704854               0.999999984              -0.000000000               0.001741467               0.999999984               0.000000000               0.001775933               0.999999984 </DataArray>
<DataArray type="Float64"                                    Name="stress"                                                      NumberOfComponents="10" format="ascii">
              0.002130644               0.023082671               0.000000000              -0.002086337               0.008389593               0.006303255               0.000000000               0.000000000               0.000000000               0.000000000               0.002119292               0.018062628               0.000000000              -0.001463091               0.006508513               0.005045422               0.000000000               0.000000000               0.000000000               0.000000000               0.002795223               0.013994355               0.000000000              -0.000701084               0.004898433               0.004197349               0.000000000               0.000000000               0.000000000               0.000000000               0.002696790               0.011721389               0.000000000              -0.000453876               0.004058383               0.003604506               0.000000000               0.000000000               0.000000000               0.000000000               0.002360713               0.010312659              -0.000000000              -0.000403814               0.003572123               0.003168309               0.000000000               0.000000000               0.000000000               0.000000000               0.001975647               0.009354660              -0.000000000              -0.000428464               0.003261010               0.002832546               0.000000000               0.000000000               0.000000000               0.000000000               0.001609698               0.008643285              -0.000000000              -0.000476773               0.003039990               0.002563218               0.000000000               0.000000000               0.000000000               0.000000000               0.001290859               0.008075939              -0.000000000              -0.000525419               0.002867093               0.002341674               0.000000000               0.000000000               0.000000000               0.000000000               0.001024384               0.007588932              -0.000000000              -0.000564471               0.002717776               0.002153305               0.000000000               0.000000000               0.000000000               0.000000000               0.000799501               0.007139929              -0.000000000              -0.000592677               0.002577512               0.001984835               0.000000000               0.000000000               0.000000000               0.000000000               0.000601872               0.006708564              -0.000000000              -0.000612867               0.002440454               0.001827588               0.000000000               0.000000000               0.000000000               0.000000000               0.000422588               0.006284860               0.000000000              -0.000627135               0.002303977               0.001676842               0.000000000               0.000000000               0.000000000               0.000000000               0.000268021               0.005853355               0.000000000              -0.000631160               0.002161485               0.001530325               0.000000000               0.000000000               0.000000000               0.000000000               0.000147113               0.005396907               0.000000000              -0.000619444               0.002005432               0.001385988               0.000000000               0.000000000               0.000000000               0.000000000               0.000059319               0.004892315               0.000000000              -0.000589293               0.001827186               0.001237893               0.000000000               0.000000000               0.000000000               0.000000000               0.000016265               0.004322142               0.000000000              -0.000534167               0.001618755               0.001084588               0.000000000               0.000000000               0.000000000               0.000000000              -0.000038774               0.003883279              -0.000000000              -0.000499949               0.001461063               0.000961114               0.000000000               0.000000000               0.000000000               0.000000000               0.002213375               0.022625757              -0.001579650              -0.001998199               0.008207910               0.006209711               0.000000000               0.000000000               0.000000000               0.000000000               0.002087871               0.017768413              -0.000789765              -0.001438096               0.006402111               0.004964014               0.000000000               0.000000000               0.000000000               0.000000000               0.002639853               0.013878503              -0.000000666              -0.000744866               0.004874410               0.004129544               0.000000000               0.000000000               0.000000000               0.000000000               0.002489643               0.011697491               0.000332921              -0.000528569               0.004075314               0.003546745               0.000000000               0.000000000               0.000000000               0.000000000               0.002142724               0.010333974               0.000468901              -0.000488224               0.003607365               0.003119141               0.000000000               0.000000000               0.000000000               0.000000000               0.001765763               0.009396387               0.000514599              -0.000512386               0.003302893               0.002790507               0.000000000               0.000000000               0.000000000               0.000000000               0.001414749               0.008693134               0.000518490              -0.000556110               0.003083052               0.002526943               0.000000000               0.000000000               0.000000000               0.000000000               0.001112243               0.008126125               0.000502502              -0.000598673               0.002908239               0.002309566               0.000000000               0.000000000               0.000000000               0.000000000               0.000862735               0.007636982               0.000474494              -0.000631096               0.002756000               0.002124905               0.000000000               0.000000000               0.000000000               0.000000000               0.000653183               0.007186741               0.000442452              -0.000653397               0.002613355               0.001959958               0.000000000               0.000000000               0.000000000               0.000000000               0.000472795               0.006755591               0.000413426              -0.000667149               0.002474224               0.001807075               0.000000000               0.000000000               0.000000000               0.000000000               0.000319896               0.006333719               0.000384340              -0.000671752               0.002335136               0.001663384               0.000000000               0.000000000               0.000000000               0.000000000               0.000194031               0.005908113               0.000348015              -0.000665751               0.002191268               0.001525517               0.000000000               0.000000000               0.000000000               0.000000000               0.000097474               0.005463806               0.000297729              -0.000646421               0.002036724               0.001390303               0.000000000               0.000000000               0.000000000               0.000000000               0.000031490               0.004984149               0.000229490              -0.000611208               0.001865102               0.001253894               0.000000000               0.000000000               0.000000000               0.000000000               0.000003270               0.004454698               0.000132337              -0.000555610               0.001670088               0.001114478               0.000000000               0.000000000               0.000000000               0.000000000              -0.000041517               0.004059089               0.000082412              -0.000522954               0.001527334               0.001004380               0.000000000               0.000000000               0.000000000               0.000000000               0.002408649               0.021303550              -0.002939028              -0.001759697               0.007687678               0.005927980               0.000000000               0.000000000               0.000000000               0.000000000               0.001962117               0.016921618              -0.001468970              -0.001379405               0.006100285               0.004720879               0.000000000               0.000000000               0.000000000               0.000000000               0.002171290               0.013534326              -0.000017875              -0.000877555               0.004803915               0.003926360               0.000000000               0.000000000               0.000000000               0.000000000               0.001897200               0.011607951               0.000573165              -0.000739542               0.004115792               0.003376250               0.000000000               0.000000000               0.000000000               0.000000000               0.001531527               0.010370119               0.000802783              -0.000721941               0.003697318               0.002975378               0.000000000               0.000000000               0.000000000               0.000000000               0.001181487               0.009487467               0.000872203              -0.000742874               0.003410082               0.002667208               0.000000000               0.000000000               0.000000000               0.000000000               0.000878989               0.008804124               0.000870984              -0.000770893               0.003191643               0.002420750               0.000000000               0.000000000               0.000000000               0.000000000               0.000632946               0.008239975               0.000837988              -0.000792640               0.003010844               0.002218204               0.000000000               0.000000000               0.000000000               0.000000000               0.000439778               0.007745254               0.000788318              -0.000803238               0.002849471               0.002046233               0.000000000               0.000000000               0.000000000               0.000000000               0.000284561               0.007292122               0.000732806              -0.000804803               0.002698951               0.001894148               0.000000000               0.000000000               0.000000000               0.000000000               0.000158520               0.006862631               0.000680799              -0.000798382               0.002553648               0.001755266               0.000000000               0.000000000               0.000000000               0.000000000               0.000061915               0.006446098               0.000628335              -0.000782542               0.002409525               0.001626983               0.000000000               0.000000000               0.000000000               0.000000000              -0.000006429               0.006035896               0.000563542              -0.000756896               0.002264244               0.001507348               0.000000000               0.000000000               0.000000000               0.000000000              -0.000045155               0.005624260               0.000475233              -0.000719964               0.002114723               0.001394758               0.000000000               0.000000000               0.000000000               0.000000000              -0.000056213               0.005203093               0.000355802              -0.000671465               0.001958169               0.001286704               0.000000000               0.000000000               0.000000000               0.000000000              -0.000038330               0.004773555               0.000197511              -0.000611066               0.001794858               0.001183791               0.000000000               0.000000000               0.000000000               0.000000000              -0.000052554               0.004477516               0.000119909              -0.000579396               0.001685622               0.001106226               0.000000000               0.000000000               0.000000000               0.000000000               0.002607465               0.019271943              -0.003918830              -0.001431192               0.006900980               0.005469788               0.000000000               0.000000000               0.000000000               0.000000000               0.001707449               0.015635478              -0.001964905              -0.001314139               0.005649820               0.004335681               0.000000000               0.000000000               0.000000000               0.000000000               0.001438657               0.012996549              -0.000066588              -0.001085070               0.004693829               0.003608760               0.000000000               0.000000000               0.000000000               0.000000000               0.001019860               0.011424948               0.000663550              -0.001045668               0.004156834               0.003111165               0.000000000               0.000000000               0.000000000               0.000000000               0.000652462               0.010354775               0.000928490              -0.001049671               0.003801447               0.002751776               0.000000000               0.000000000               0.000000000               0.000000000               0.000365150               0.009546733               0.000998633              -0.001056408               0.003534349               0.002477941               0.000000000               0.000000000               0.000000000               0.000000000               0.000151693               0.008891332               0.000988990              -0.001054529               0.003315258               0.002260728               0.000000000               0.000000000               0.000000000               0.000000000               0.000000294               0.008328155               0.000943889              -0.001040907               0.003122993               0.002082086               0.000000000               0.000000000               0.000000000               0.000000000              -0.000103627               0.007826257               0.000880646              -0.001017140               0.002947773               0.001930633               0.000000000               0.000000000               0.000000000               0.000000000              -0.000175649               0.007364834               0.000813426              -0.000986470               0.002783743               0.001797273               0.000000000               0.000000000               0.000000000               0.000000000              -0.000220271               0.006933909               0.000750313              -0.000949338               0.002627726               0.001678388               0.000000000               0.000000000               0.000000000               0.000000000              -0.000234765               0.006527011               0.000687550              -0.000903911               0.002476952               0.001573041               0.000000000               0.000000000               0.000000000               0.000000000              -0.000222094               0.006139972               0.000611607              -0.000850780               0.002330230               0.001479450               0.000000000               0.000000000               0.000000000               0.000000000              -0.000188809               0.005768515               0.000506785              -0.000791866               0.002186774               0.001394909               0.000000000               0.000000000               0.000000000               0.000000000              -0.000135992               0.005418024               0.000368772              -0.000728248               0.002048740               0.001320491               0.000000000               0.000000000               0.000000000               0.000000000              -0.000070489               0.005105082               0.000199733              -0.000664567               0.001923199               0.001258633               0.000000000               0.000000000               0.000000000               0.000000000              -0.000057209               0.004913904               0.000118889              -0.000635690               0.001849848               0.001214158               0.000000000               0.000000000               0.000000000               0.000000000               0.002680414               0.016772239              -0.004428941              -0.001091376               0.005954481               0.004863106               0.000000000               0.000000000               0.000000000               0.000000000               0.001299505               0.014076747              -0.002254353              -0.001272277               0.005116294               0.003844017               0.000000000               0.000000000               0.000000000               0.000000000               0.000525032               0.012327767              -0.000177685              -0.001344081               0.004557241               0.003213161               0.000000000               0.000000000               0.000000000               0.000000000               0.000007481               0.011142620               0.000570542              -0.001390019               0.004177509               0.002787490               0.000000000               0.000000000               0.000000000               0.000000000              -0.000311204               0.010240949               0.000826108              -0.001396817               0.003879221               0.002482404               0.000000000               0.000000000               0.000000000               0.000000000              -0.000492972               0.009505053               0.000886784              -0.001372993               0.003625984               0.002252991               0.000000000               0.000000000               0.000000000               0.000000000              -0.000586851               0.008871723               0.000870454              -0.001329031               0.003400222               0.002071190               0.000000000               0.000000000               0.000000000               0.000000000              -0.000627479               0.008303606               0.000825493              -0.001273253               0.003192258               0.001919006               0.000000000               0.000000000               0.000000000               0.000000000              -0.000628101               0.007791494               0.000768155              -0.001209472               0.003000296               0.001790824               0.000000000               0.000000000               0.000000000               0.000000000              -0.000598038               0.007326871               0.000708203              -0.001140120               0.002822306               0.001682186               0.000000000               0.000000000               0.000000000               0.000000000              -0.000543961               0.006901841               0.000651739              -0.001066713               0.002656161               0.001589449               0.000000000               0.000000000               0.000000000               0.000000000              -0.000467659               0.006508056               0.000593350              -0.000988877               0.002498956               0.001510079               0.000000000               0.000000000               0.000000000               0.000000000              -0.000372683               0.006141975               0.000520250              -0.000907501               0.002349805               0.001442304               0.000000000               0.000000000               0.000000000               0.000000000              -0.000268538               0.005808980               0.000419844              -0.000826822               0.002211915               0.001385093               0.000000000               0.000000000               0.000000000               0.000000000              -0.000164886               0.005525013               0.000294680              -0.000752457               0.002092471               0.001340015               0.000000000               0.000000000               0.000000000               0.000000000              -0.000076508               0.005308443               0.000152975              -0.000692244               0.002000211               0.001307967               0.000000000               0.000000000               0.000000000               0.000000000              -0.000049682               0.005198958               0.000085938              -0.000668499               0.001955801               0.001287303               0.000000000               0.000000000               0.000000000               0.000000000               0.002493130               0.014064451              -0.004473250              -0.000823135               0.004962481               0.004139346               0.000000000               0.000000000               0.000000000               0.000000000               0.000732124               0.012420823              -0.002364861              -0.001278055               0.004566251               0.003288196               0.000000000               0.000000000               0.000000000               0.000000000              -0.000459777               0.011591830              -0.000371554              -0.001621391               0.004404369               0.002782977               0.000000000               0.000000000               0.000000000               0.000000000              -0.000983415               0.010766588               0.000305248              -0.001714600               0.004160360               0.002445760               0.000000000               0.000000000               0.000000000               0.000000000              -0.001191313               0.010008969               0.000528388              -0.001697860               0.003902243               0.002204383               0.000000000               0.000000000               0.000000000               0.000000000              -0.001238094               0.009326276               0.000583959              -0.001630066               0.003652083               0.002022017               0.000000000               0.000000000               0.000000000               0.000000000              -0.001196324               0.008704801               0.000577621              -0.001536718               0.003413810               0.001877093               0.000000000               0.000000000               0.000000000               0.000000000              -0.001108743               0.008140168               0.000553063              -0.001433296               0.003191128               0.001757831               0.000000000               0.000000000               0.000000000               0.000000000              -0.000997744               0.007630117               0.000524185              -0.001327916               0.002985985               0.001658070               0.000000000               0.000000000               0.000000000               0.000000000              -0.000870244               0.007175767               0.000491711              -0.001223309               0.002799668               0.001576359               0.000000000               0.000000000               0.000000000               0.000000000              -0.000730107               0.006766332               0.000454595              -0.001119579               0.002628614               0.001509035               0.000000000               0.000000000               0.000000000               0.000000000              -0.000580332               0.006388809               0.000409090              -0.001016223               0.002468323               0.001452100               0.000000000               0.000000000               0.000000000               0.000000000              -0.000423956               0.006043956               0.000350344              -0.000914476               0.002319457               0.001404981               0.000000000               0.000000000               0.000000000               0.000000000              -0.000275376               0.005747856               0.000272102              -0.000821746               0.002189848               0.001368102               0.000000000               0.000000000               0.000000000               0.000000000              -0.000151108               0.005517400               0.000179577              -0.000746339               0.002087895               0.001341556               0.000000000               0.000000000               0.000000000               0.000000000              -0.000062862               0.005362413               0.000087680              -0.000693873               0.002018744               0.001324871               0.000000000               0.000000000               0.000000000               0.000000000              -0.000035950               0.005294766               0.000048036              -0.000675325               0.001990013               0.001314687               0.000000000               0.000000000               0.000000000               0.000000000               0.001978778               0.011369545              -0.004129046              -0.000679154               0.004016194               0.003337040               0.000000000               0.000000000               0.000000000               0.000000000               0.000035488               0.010795732              -0.002346541              -0.001336157               0.004043926               0.002707770               0.000000000               0.000000000               0.000000000               0.000000000              -0.001406084               0.010816314              -0.000654486              -0.001879316               0.004231841               0.002352524               0.000000000               0.000000000               0.000000000               0.000000000              -0.001833063               0.010286553              -0.000094878              -0.001973213               0.004086554               0.002113342               0.000000000               0.000000000               0.000000000               0.000000000              -0.001879634               0.009644725               0.000104082              -0.001910449               0.003851693               0.001941244               0.000000000               0.000000000               0.000000000               0.000000000              -0.001770745               0.009008957               0.000176190              -0.001790145               0.003599671               0.001809526               0.000000000               0.000000000               0.000000000               0.000000000              -0.001592545               0.008413229               0.000202381              -0.001648854               0.003354000               0.001705146               0.000000000               0.000000000               0.000000000               0.000000000              -0.001385359               0.007868472               0.000217316              -0.001503065               0.003123819               0.001620755               0.000000000               0.000000000               0.000000000               0.000000000              -0.001172311               0.007378894               0.000228628              -0.001361975               0.002913599               0.001551623               0.000000000               0.000000000               0.000000000               0.000000000              -0.000961118               0.006941476               0.000233293              -0.001228101               0.002723169               0.001495069               0.000000000               0.000000000               0.000000000               0.000000000              -0.000752880               0.006546568               0.000223829              -0.001100648               0.002549050               0.001448402               0.000000000               0.000000000               0.000000000               0.000000000              -0.000555000               0.006183150               0.000199305              -0.000981016               0.002388035               0.001407018               0.000000000               0.000000000               0.000000000               0.000000000              -0.000374075               0.005864230               0.000164612              -0.000873305               0.002245825               0.001372521               0.000000000               0.000000000               0.000000000               0.000000000              -0.000222882               0.005607396               0.000120019              -0.000784503               0.002130615               0.001346111               0.000000000               0.000000000               0.000000000               0.000000000              -0.000111176               0.005420922               0.000070531              -0.000719304               0.002046724               0.001327420               0.000000000               0.000000000               0.000000000               0.000000000              -0.000041117               0.005299136               0.000029516              -0.000677809               0.001992297               0.001314488               0.000000000               0.000000000               0.000000000               0.000000000              -0.000023910               0.005242677               0.000016761              -0.000664299               0.001968974               0.001304675               0.000000000               0.000000000               0.000000000               0.000000000               0.001170794               0.008861085              -0.003493946              -0.000668590               0.003176528               0.002507938               0.000000000               0.000000000               0.000000000               0.000000000              -0.000746537               0.009289623              -0.002247370              -0.001441152               0.003576894               0.002135741               0.000000000               0.000000000               0.000000000               0.000000000              -0.002216351               0.010005889              -0.001020472              -0.002081863               0.004029217               0.001947355               0.000000000               0.000000000               0.000000000               0.000000000              -0.002455155               0.009703231              -0.000568351              -0.002133582               0.003945572               0.001811990               0.000000000               0.000000000               0.000000000               0.000000000              -0.002317308               0.009161292              -0.000361576              -0.002014147               0.003725116               0.001710969               0.000000000               0.000000000               0.000000000               0.000000000              -0.002056793               0.008584072              -0.000246789              -0.001844302               0.003476096               0.001631794               0.000000000               0.000000000               0.000000000               0.000000000              -0.001757491               0.008035158              -0.000170997              -0.001663450               0.003232842               0.001569393               0.000000000               0.000000000               0.000000000               0.000000000              -0.001456464               0.007528582              -0.000110736              -0.001487243               0.003005250               0.001518007               0.000000000               0.000000000               0.000000000               0.000000000              -0.001168722               0.007064431              -0.000056142              -0.001321321               0.002795227               0.001473906               0.000000000               0.000000000               0.000000000               0.000000000              -0.000898329               0.006640639              -0.000010702              -0.001166951               0.002602508               0.001435557               0.000000000               0.000000000               0.000000000               0.000000000              -0.000649649               0.006253489               0.000014656              -0.001025302               0.002426243               0.001400941               0.000000000               0.000000000               0.000000000               0.000000000              -0.000434383               0.005912052               0.000019452              -0.000901898               0.002271297               0.001369399               0.000000000               0.000000000               0.000000000               0.000000000              -0.000261904               0.005632250               0.000016743              -0.000802243               0.002144812               0.001342569               0.000000000               0.000000000               0.000000000               0.000000000              -0.000137463               0.005420076               0.000010163              -0.000729056               0.002049693               0.001320637               0.000000000               0.000000000               0.000000000               0.000000000              -0.000058717               0.005271561               0.000000628              -0.000680962               0.001984157               0.001303195               0.000000000               0.000000000               0.000000000               0.000000000              -0.000019729               0.005172343              -0.000003997              -0.000653940               0.001942077               0.001288137               0.000000000               0.000000000               0.000000000               0.000000000              -0.000016780               0.005122382               0.000000415              -0.000646588               0.001922973               0.001276385               0.000000000               0.000000000               0.000000000               0.000000000               0.000183890               0.006726954              -0.002690318              -0.000771911               0.002499598               0.001727687               0.000000000               0.000000000               0.000000000               0.000000000              -0.001505886               0.007935421              -0.002122757              -0.001556632               0.003163991               0.001607358               0.000000000               0.000000000               0.000000000               0.000000000              -0.002836130               0.009203107              -0.001455270              -0.002213932               0.003805649               0.001591717               0.000000000               0.000000000               0.000000000               0.000000000              -0.002872002               0.009139707              -0.001071078              -0.002219459               0.003786358               0.001566899               0.000000000               0.000000000               0.000000000               0.000000000              -0.002580244               0.008730835              -0.000830557              -0.002058941               0.003596563               0.001537622               0.000000000               0.000000000               0.000000000               0.000000000              -0.002199127               0.008242621              -0.000658470              -0.001854996               0.003365845               0.001510849               0.000000000               0.000000000               0.000000000               0.000000000              -0.001808386               0.007754263              -0.000526079              -0.001647423               0.003133870               0.001486446               0.000000000               0.000000000               0.000000000               0.000000000              -0.001438432               0.007290860              -0.000422962              -0.001450766               0.002913851               0.001463085               0.000000000               0.000000000               0.000000000               0.000000000              -0.001096802               0.006857169              -0.000331877              -0.001268444               0.002708515               0.001440071               0.000000000               0.000000000               0.000000000               0.000000000              -0.000788266               0.006451599              -0.000248391              -0.001102047               0.002517860               0.001415814               0.000000000               0.000000000               0.000000000               0.000000000              -0.000522756               0.006074075              -0.000179983              -0.000955291               0.002343102               0.001387811               0.000000000               0.000000000               0.000000000               0.000000000              -0.000310126               0.005749115              -0.000131492              -0.000834935               0.002194664               0.001359730               0.000000000               0.000000000               0.000000000               0.000000000              -0.000155975               0.005493858              -0.000094180              -0.000745221               0.002079675               0.001334454               0.000000000               0.000000000               0.000000000               0.000000000              -0.000063567               0.005304256              -0.000061644              -0.000686868               0.001997024               0.001310156               0.000000000               0.000000000               0.000000000               0.000000000              -0.000022859               0.005170672              -0.000037411              -0.000654905               0.001941842               0.001286937               0.000000000               0.000000000               0.000000000               0.000000000              -0.000017643               0.005082648              -0.000018752              -0.000641946               0.001908181               0.001266235               0.000000000               0.000000000               0.000000000               0.000000000              -0.000025693               0.005042358              -0.000007447              -0.000639928               0.001894079               0.001254150               0.000000000               0.000000000               0.000000000               0.000000000              -0.000984422               0.004726878              -0.001834401              -0.000960017               0.001895615               0.000935598               0.000000000               0.000000000               0.000000000               0.000000000              -0.002124460               0.006369547              -0.001980409              -0.001592863               0.002654115               0.001061252               0.000000000               0.000000000               0.000000000               0.000000000              -0.003177587               0.008035219              -0.001916471              -0.002195993               0.003410377               0.001214384               0.000000000               0.000000000               0.000000000               0.000000000              -0.003108838               0.008338687              -0.001610914              -0.002208145               0.003515583               0.001307438               0.000000000               0.000000000               0.000000000               0.000000000              -0.002761011               0.008186213              -0.001334095              -0.002058651               0.003414927               0.001356276               0.000000000               0.000000000               0.000000000               0.000000000              -0.002348584               0.007877975              -0.001107296              -0.001865461               0.003247786               0.001382324               0.000000000               0.000000000               0.000000000               0.000000000              -0.001928482               0.007521309              -0.000925007              -0.001663340               0.003061525               0.001398184               0.000000000               0.000000000               0.000000000               0.000000000              -0.001530792               0.007152492              -0.000778725              -0.001468105               0.002873508               0.001405403               0.000000000               0.000000000               0.000000000               0.000000000              -0.001169468               0.006789935              -0.000649234              -0.001287289               0.002692386               0.001405096               0.000000000               0.000000000               0.000000000               0.000000000              -0.000847925               0.006443137              -0.000526335              -0.001123361               0.002522145               0.001398783               0.000000000               0.000000000               0.000000000               0.000000000              -0.000571435               0.006112166              -0.000413482              -0.000978307               0.002363471               0.001385164               0.000000000               0.000000000               0.000000000               0.000000000              -0.000346868               0.005808362              -0.000315683              -0.000856119               0.002221474               0.001365355               0.000000000               0.000000000               0.000000000               0.000000000              -0.000180618               0.005548542              -0.000227939              -0.000761298               0.002103261               0.001341964               0.000000000               0.000000000               0.000000000               0.000000000              -0.000076959               0.005338704              -0.000149917              -0.000696196               0.002011616               0.001315420               0.000000000               0.000000000               0.000000000               0.000000000              -0.000031917               0.005181889              -0.000085331              -0.000659703               0.001947180               0.001287477               0.000000000               0.000000000               0.000000000               0.000000000              -0.000033184               0.005072630              -0.000033879              -0.000646521               0.001906367               0.001259846               0.000000000               0.000000000               0.000000000               0.000000000              -0.000047685               0.005025807              -0.000010314              -0.000646106               0.001890621               0.001244515               0.000000000               0.000000000               0.000000000               0.000000000              -0.002489153               0.002912547              -0.000978519              -0.001297498               0.001403338               0.000105840               0.000000000               0.000000000               0.000000000               0.000000000              -0.002818347               0.004796890              -0.001762473              -0.001656488               0.002151109               0.000494621               0.000000000               0.000000000               0.000000000               0.000000000              -0.003411524               0.006679241              -0.002280248              -0.002114222               0.002931131               0.000816909               0.000000000               0.000000000               0.000000000               0.000000000              -0.003253979               0.007336512              -0.002123905              -0.002137301               0.003157913               0.001020611               0.000000000               0.000000000               0.000000000               0.000000000              -0.002881085               0.007480809              -0.001848550              -0.002015503               0.003165412               0.001149909               0.000000000               0.000000000               0.000000000               0.000000000              -0.002462501               0.007394697              -0.001589236              -0.001847771               0.003080798               0.001233027               0.000000000               0.000000000               0.000000000               0.000000000              -0.002039676               0.007206029              -0.001369974              -0.001665628               0.002957195               0.001291566               0.000000000               0.000000000               0.000000000               0.000000000              -0.001635475               0.006968341              -0.001184087              -0.001484342               0.002817538               0.001333195               0.000000000               0.000000000               0.000000000               0.000000000              -0.001265096               0.006703559              -0.001017619              -0.001312353               0.002671948               0.001359595               0.000000000               0.000000000               0.000000000               0.000000000              -0.000929640               0.006434326              -0.000861716              -0.001152903               0.002529055               0.001376152               0.000000000               0.000000000               0.000000000               0.000000000              -0.000632119               0.006165494              -0.000714246              -0.001007729               0.002391054               0.001383325               0.000000000               0.000000000               0.000000000               0.000000000              -0.000380280               0.005900247              -0.000575669              -0.000880134               0.002260107               0.001379974               0.000000000               0.000000000               0.000000000               0.000000000              -0.000183358               0.005649908              -0.000442144              -0.000774996               0.002141616               0.001366620               0.000000000               0.000000000               0.000000000               0.000000000              -0.000046804               0.005428205              -0.000313343              -0.000696076               0.002041409               0.001345333               0.000000000               0.000000000               0.000000000               0.000000000               0.000018957               0.005245006              -0.000191646              -0.000648515               0.001964490               0.001315974               0.000000000               0.000000000               0.000000000               0.000000000               0.000017260               0.005105141              -0.000084897              -0.000631669               0.001912253               0.001280584               0.000000000               0.000000000               0.000000000               0.000000000              -0.000010142               0.005040313              -0.000032565              -0.000633841               0.001891368               0.001257527               0.000000000               0.000000000               0.000000000               0.000000000              -0.004237512               0.001424259              -0.000193048              -0.001767097               0.001063778              -0.000703319               0.000000000               0.000000000               0.000000000               0.000000000              -0.003646318               0.003309420              -0.001446428              -0.001781043               0.001696809              -0.000084234               0.000000000               0.000000000               0.000000000               0.000000000              -0.003582961               0.005152209              -0.002429280              -0.001987633               0.002379929               0.000392296               0.000000000               0.000000000               0.000000000               0.000000000              -0.003253351               0.006054647              -0.002462576              -0.001976833               0.002677139               0.000700306               0.000000000               0.000000000               0.000000000               0.000000000              -0.002841929               0.006468841              -0.002244383              -0.001874325               0.002781033               0.000906708               0.000000000               0.000000000               0.000000000               0.000000000              -0.002423399               0.006621644              -0.001988963              -0.001736477               0.002786018               0.001049541               0.000000000               0.000000000               0.000000000               0.000000000              -0.002015077               0.006627246              -0.001755239              -0.001584056               0.002737078               0.001153022               0.000000000               0.000000000               0.000000000               0.000000000              -0.001623219               0.006547094              -0.001546623              -0.001427091               0.002658039               0.001230948               0.000000000               0.000000000               0.000000000               0.000000000              -0.001256721               0.006409400              -0.001356311              -0.001272443               0.002560593               0.001288150               0.000000000               0.000000000               0.000000000               0.000000000              -0.000917709               0.006243855              -0.001181117              -0.001124620               0.002456138               0.001331517               0.000000000               0.000000000               0.000000000               0.000000000              -0.000605781               0.006062400              -0.001015960              -0.000984966               0.002349102               0.001364136               0.000000000               0.000000000               0.000000000               0.000000000              -0.000326224               0.005866465              -0.000856080              -0.000855640               0.002240682               0.001385042               0.000000000               0.000000000               0.000000000               0.000000000              -0.000091229               0.005662764              -0.000693199              -0.000742055               0.002134921               0.001392866               0.000000000               0.000000000               0.000000000               0.000000000               0.000085357               0.005463818              -0.000521629              -0.000650967               0.002038243               0.001387276               0.000000000               0.000000000               0.000000000               0.000000000               0.000191244               0.005282871              -0.000342279              -0.000588641               0.001957153               0.001368512               0.000000000               0.000000000               0.000000000               0.000000000               0.000213243               0.005129359              -0.000165716              -0.000561202               0.001896837               0.001335634               0.000000000               0.000000000               0.000000000               0.000000000               0.000185502               0.005050785              -0.000074887              -0.000561783               0.001870839               0.001309056               0.000000000               0.000000000               0.000000000               0.000000000              -0.006098018               0.000329719               0.000410852              -0.002327969               0.000885890              -0.001442079               0.000000000               0.000000000               0.000000000               0.000000000              -0.004551267               0.001989854              -0.001074851              -0.001955454               0.001315093              -0.000640361               0.000000000               0.000000000               0.000000000               0.000000000              -0.003719588               0.003578270              -0.002333464              -0.001842126               0.001806785              -0.000035341               0.000000000               0.000000000               0.000000000               0.000000000              -0.003135196               0.004590085              -0.002541215              -0.001749456               0.002113164               0.000363708               0.000000000               0.000000000               0.000000000               0.000000000              -0.002648714               0.005218585              -0.002411385              -0.001645588               0.002288039               0.000642451               0.000000000               0.000000000               0.000000000               0.000000000              -0.002220258               0.005596329              -0.002194018              -0.001532135               0.002376135               0.000844000               0.000000000               0.000000000               0.000000000               0.000000000              -0.001829666               0.005798648              -0.001975821              -0.001410953               0.002403181               0.000992227               0.000000000               0.000000000               0.000000000               0.000000000              -0.001462500               0.005884951              -0.001770354              -0.001284054               0.002389648               0.001105594               0.000000000               0.000000000               0.000000000               0.000000000              -0.001110016               0.005897130              -0.001577033              -0.001153395               0.002350155               0.001196760               0.000000000               0.000000000               0.000000000               0.000000000              -0.000773442               0.005858932              -0.001399045              -0.001022405               0.002293759               0.001271354               0.000000000               0.000000000               0.000000000               0.000000000              -0.000454208               0.005784517              -0.001234272              -0.000893391               0.002225950               0.001332559               0.000000000               0.000000000               0.000000000               0.000000000              -0.000152992               0.005683780              -0.001073542              -0.000767843               0.002150522               0.001382679               0.000000000               0.000000000               0.000000000               0.000000000               0.000120887               0.005556025              -0.000902768              -0.000649169               0.002068379               0.001419210               0.000000000               0.000000000               0.000000000               0.000000000               0.000354469               0.005410624              -0.000712776              -0.000543401               0.001984657               0.001441256               0.000000000               0.000000000               0.000000000               0.000000000               0.000531703               0.005265520              -0.000497845              -0.000458800               0.001908089               0.001449289               0.000000000               0.000000000               0.000000000               0.000000000               0.000629253               0.005129702              -0.000258357              -0.000405242               0.001844964               0.001439722               0.000000000               0.000000000               0.000000000               0.000000000               0.000647862               0.005059491              -0.000131902              -0.000389487               0.001816309               0.001426822               0.000000000               0.000000000               0.000000000               0.000000000              -0.007882951              -0.000379535               0.000732653              -0.002908663               0.000843037              -0.002065626               0.000000000               0.000000000               0.000000000               0.000000000              -0.005453537               0.000919950              -0.000709574              -0.002160068               0.001026665              -0.001133402               0.000000000               0.000000000               0.000000000               0.000000000              -0.003840234               0.002120344              -0.001993706              -0.001705128               0.001275148              -0.000429980               0.000000000               0.000000000               0.000000000               0.000000000              -0.002953250               0.003125812              -0.002306428              -0.001498193               0.001541323               0.000043130               0.000000000               0.000000000               0.000000000               0.000000000              -0.002359307               0.003886072              -0.002265626              -0.001370497               0.001752176               0.000381679               0.000000000               0.000000000               0.000000000               0.000000000              -0.001901513               0.004439269              -0.002108244              -0.001267974               0.001902399               0.000634425               0.000000000               0.000000000               0.000000000               0.000000000              -0.001519790               0.004820926              -0.001928429              -0.001172535               0.001997804               0.000825268               0.000000000               0.000000000               0.000000000               0.000000000              -0.001177025               0.005068317              -0.001751808              -0.001074922               0.002047729               0.000972807               0.000000000               0.000000000               0.000000000               0.000000000              -0.000845157               0.005226905              -0.001582504              -0.000970296               0.002065716               0.001095420               0.000000000               0.000000000               0.000000000               0.000000000              -0.000516208               0.005322824              -0.001424286              -0.000858930               0.002060566               0.001201637               0.000000000               0.000000000               0.000000000               0.000000000              -0.000191456               0.005369707              -0.001277625              -0.000743008               0.002037554               0.001294545               0.000000000               0.000000000               0.000000000               0.000000000               0.000125663               0.005376213              -0.001133690              -0.000624902               0.002000354               0.001375451               0.000000000               0.000000000               0.000000000               0.000000000               0.000436626               0.005347293              -0.000979890              -0.000504676               0.001950638               0.001445962               0.000000000               0.000000000               0.000000000               0.000000000               0.000737742               0.005288113              -0.000801311              -0.000384360               0.001890807               0.001506446               0.000000000               0.000000000               0.000000000               0.000000000               0.001012632               0.005204604              -0.000583657              -0.000270838               0.001825130               0.001554292               0.000000000               0.000000000               0.000000000               0.000000000               0.001241874               0.005107104              -0.000316954              -0.000172685               0.001759913               0.001587228               0.000000000               0.000000000               0.000000000               0.000000000               0.001369199               0.005065147              -0.000175832              -0.000119694               0.001728263               0.001608570               0.000000000               0.000000000               0.000000000               0.000000000              -0.009381839              -0.000771954               0.000729675              -0.003421693               0.000883240              -0.002538453               0.000000000               0.000000000               0.000000000               0.000000000              -0.006242147               0.000150044              -0.000405444              -0.002359559               0.000836528              -0.001523030               0.000000000               0.000000000               0.000000000               0.000000000              -0.003953654               0.000944182              -0.001449484              -0.001600641               0.000848268              -0.000752373               0.000000000               0.000000000               0.000000000               0.000000000              -0.002768845               0.001867906              -0.001756929              -0.001271803               0.001046562              -0.000225241               0.000000000               0.000000000               0.000000000               0.000000000              -0.002055976               0.002683787              -0.001772935              -0.001106463               0.001263407               0.000156944               0.000000000               0.000000000               0.000000000               0.000000000              -0.001559301               0.003350989              -0.001678863              -0.001003610               0.001451521               0.000447911               0.000000000               0.000000000               0.000000000               0.000000000              -0.001176012               0.003868211              -0.001553573              -0.000924529               0.001597567               0.000673037               0.000000000               0.000000000               0.000000000               0.000000000              -0.000849050               0.004248617              -0.001426872              -0.000849469               0.001699347               0.000849878               0.000000000               0.000000000               0.000000000               0.000000000              -0.000534415               0.004535351              -0.001303097              -0.000767323               0.001767543               0.001000219               0.000000000               0.000000000               0.000000000               0.000000000              -0.000217471               0.004755408              -0.001184648              -0.000675976               0.001810445               0.001134469               0.000000000               0.000000000               0.000000000               0.000000000               0.000104435               0.004913537              -0.001073532              -0.000575028               0.001829505               0.001254477               0.000000000               0.000000000               0.000000000               0.000000000               0.000435985               0.005021986              -0.000964785              -0.000464253               0.001828729               0.001364476               0.000000000               0.000000000               0.000000000               0.000000000               0.000783408               0.005094525              -0.000849846              -0.000343037               0.001812504               0.001469467               0.000000000               0.000000000               0.000000000               0.000000000               0.001150128               0.005129568              -0.000711009              -0.000209898               0.001779805               0.001569907               0.000000000               0.000000000               0.000000000               0.000000000               0.001537909               0.005123854              -0.000531419              -0.000063766               0.001729189               0.001665423               0.000000000               0.000000000               0.000000000               0.000000000               0.001939535               0.005076852              -0.000295029               0.000092718               0.001661361               0.001754079               0.000000000               0.000000000               0.000000000               0.000000000               0.002223713               0.005071632              -0.000171113               0.000199936               0.001623882               0.001823818               0.000000000               0.000000000               0.000000000               0.000000000              -0.010381586              -0.000948415               0.000448512              -0.003774540               0.000942036              -0.002832505               0.000000000               0.000000000               0.000000000               0.000000000              -0.006782975              -0.000310646              -0.000175001              -0.002504783               0.000731374              -0.001773409               0.000000000               0.000000000               0.000000000               0.000000000              -0.004038264               0.000177584              -0.000759183              -0.001536546               0.000571372              -0.000965173               0.000000000               0.000000000               0.000000000               0.000000000              -0.002640599               0.001014520              -0.000948174              -0.001117038               0.000710514              -0.000406524               0.000000000               0.000000000               0.000000000               0.000000000              -0.001834897               0.001842591              -0.000974505              -0.000918408               0.000920326               0.000001918               0.000000000               0.000000000               0.000000000               0.000000000              -0.001303897               0.002564884              -0.000933765              -0.000809570               0.001124809               0.000315239               0.000000000               0.000000000               0.000000000               0.000000000              -0.000908441               0.003161944              -0.000870205              -0.000735907               0.001299273               0.000563366               0.000000000               0.000000000               0.000000000               0.000000000              -0.000585028               0.003631588              -0.000806290              -0.000673333               0.001434961               0.000761629               0.000000000               0.000000000               0.000000000               0.000000000              -0.000287967               0.004004663              -0.000742736              -0.000608569               0.001537731               0.000929161               0.000000000               0.000000000               0.000000000               0.000000000               0.000013828               0.004310120              -0.000678128              -0.000533578               0.001614552               0.001080973               0.000000000               0.000000000               0.000000000               0.000000000               0.000331674               0.004552811              -0.000617557              -0.000444723               0.001665829               0.001221107               0.000000000               0.000000000               0.000000000               0.000000000               0.000674919               0.004739727              -0.000559388              -0.000339371               0.001693017               0.001353646               0.000000000               0.000000000               0.000000000               0.000000000               0.001053176               0.004886081              -0.000497029              -0.000215819               0.001700617               0.001484798               0.000000000               0.000000000               0.000000000               0.000000000               0.001475971               0.004989969              -0.000421680              -0.000070257               0.001686726               0.001616468               0.000000000               0.000000000               0.000000000               0.000000000               0.001958839               0.005044302              -0.000319350               0.000104026               0.001646742               0.001750768               0.000000000               0.000000000               0.000000000               0.000000000               0.002517771               0.005041691              -0.000177037               0.000313950               0.001575897               0.001889846               0.000000000               0.000000000               0.000000000               0.000000000               0.002952438               0.005071181              -0.000103824               0.000473262               0.001532623               0.002005885               0.000000000               0.000000000               0.000000000               0.000000000              -0.010730911              -0.000995185              -0.000000000              -0.003899691               0.000968162              -0.002931529               0.000000000               0.000000000               0.000000000               0.000000000              -0.006974348              -0.000463924              -0.000000000              -0.002557388               0.000697817              -0.001859572               0.000000000               0.000000000               0.000000000               0.000000000              -0.004069099              -0.000089624              -0.000000000              -0.001514708               0.000475025              -0.001039683               0.000000000               0.000000000               0.000000000               0.000000000              -0.002597762               0.000712959               0.000000000              -0.001063279               0.000592075              -0.000471204               0.000000000               0.000000000               0.000000000               0.000000000              -0.001757003               0.001541906               0.000000000              -0.000851613               0.000797834              -0.000053779               0.000000000               0.000000000               0.000000000               0.000000000              -0.001212335               0.002277493               0.000000000              -0.000739310               0.001005593               0.000266283               0.000000000               0.000000000               0.000000000               0.000000000              -0.000808145               0.002899687               0.000000000              -0.000665514               0.001188390               0.000522877               0.000000000               0.000000000               0.000000000               0.000000000              -0.000481772               0.003401277              -0.000000000              -0.000605823               0.001335688               0.000729866               0.000000000               0.000000000               0.000000000               0.000000000              -0.000193285               0.003807203              -0.000000000              -0.000548381               0.001451849               0.000903468               0.000000000               0.000000000               0.000000000               0.000000000               0.000099554               0.004141645               0.000000000              -0.000480372               0.001540658               0.001060287               0.000000000               0.000000000               0.000000000               0.000000000               0.000415468               0.004412722              -0.000000000              -0.000395789               0.001602822               0.001207034               0.000000000               0.000000000               0.000000000               0.000000000               0.000762511               0.004629889               0.000000000              -0.000292794               0.001640879               0.001348085               0.000000000               0.000000000               0.000000000               0.000000000               0.001152862               0.004800945               0.000000000              -0.000167795               0.001656231               0.001488436               0.000000000               0.000000000               0.000000000               0.000000000               0.001599158               0.004927969               0.000000000              -0.000016312               0.001648077               0.001631765               0.000000000               0.000000000               0.000000000               0.000000000               0.002120181               0.005007298              -0.000000000               0.000169154               0.001612698               0.001781852               0.000000000               0.000000000               0.000000000               0.000000000               0.002745631               0.005025467              -0.000000000               0.000401424               0.001541331               0.001942755               0.000000000               0.000000000               0.000000000               0.000000000               0.003244581               0.005070575               0.000000000               0.000582890               0.001495878               0.002078768               0.000000000               0.000000000               0.000000000               0.000000000               0.000000000               0.000000000               0.000000000               0.000000000               0.000000000               0.000000000               0.000000000               0.000000000               0.000000000               0.000000000               0.000000000               0.000000000               0.000000000               0.000000000               0.000000000               0.000000000               0.000000000               0.000000000               0.000000000               0.000000000               0.000000000               0.000000000               0.000000000               0.000000000               0.000000000               0.000000000               0.000000000               0.000000000               0.000000000               0.000000000               0.000000000               0.000000000               0.000000000               0.000000000               0.000000000               0.000000000               0.000000000               0.000000000               0.000000000               0.000000000               0.000000000               0.000000000               0.000000000               0.000000000               0.000000000               0.000000000               0.000000000               0.000000000               0.000000000               0.000000000               0.000000000               0.000000000               0.000000000               0.000000000               0.000000000               0.000000000               0.000000000               0.000000000               0.000000000               0.000000000               0.000000000               0.000000000               0.000000000               0.000000000               0.000000000               0.000000000               0.000000000               0.000000000               0.000000000               0.000000000               0.000000000               0.000000000               0.000000000               0.000000000               0.000000000               0.000000000               0.000000000               0.000000000               0.000000000               0.000000000               0.000000000               0.000000000               0.000000000               0.000000000               0.000000000               0.000000000               0.000000000               0.000000000               0.000000000               0.000000000               0.000000000               0.000000000               0.000000000               0.000000000               0.000000000               0.000000000               0.000000000               0.000000000               0.000000000               0.000000000               0.000000000               0.000000000               0.000000000               0.000000000               0.000000000               0.000000000               0.000000000               0.000000000               0.000000000               0.000000000               0.000000000               0.000000000               0.000000000               0.000000000               0.000000000               0.000000000               0.000000000               0.000000000               0.000000000               0.000000000               0.000000000               0.000000000               0.000000000               0.000000000               0.000000000               0.000000000               0.000000000               0.000000000               0.000000000               0.000000000               0.000000000               0.000000000               0.000000000               0.000000000               0.000000000               0.000000000               0.000000000               0.000000000               0.000000000               0.000000000               0.000000000               0.000000000               0.000000000               0.000000000               0.000000000               0.000000000               0.000000000               0.000000000               0.000000000               0.000000000               0.000000000               0.000000000               0.000000000               0.000000000               0.000000000               0.000000000               0.000000000               0.000000000               0.000000000               0.000000000               0.000000000               0.000000000               0.000000000               0.000000000               0.000000000               0.000000000               0.000000000               0.000000000               0.000000000               0.000000000               0.002213375               0.022625757               0.001579650              -0.001998199               0.008207910               0.006209711               0.000000000               0.000000000               0.000000000               0.000000000               0.002087871               0.017768413               0.000789765              -0.001438096               0.006402111               0.004964014               0.000000000               0.000000000               0.000000000               0.000000000               0.002639853               0.013878503               0.000000666              -0.000744866               0.004874410               0.004129544               0.000000000               0.000000000               0.000000000               0.000000000               0.002489643               0.011697491              -0.000332921              -0.000528569               0.004075314               0.003546745               0.000000000               0.000000000               0.000000000               0.000000000               0.002142724               0.010333974              -0.000468901              -0.000488224               0.003607365               0.003119141               0.000000000               0.000000000               0.000000000               0.000000000               0.001765763               0.009396387              -0.000514599              -0.000512386               0.003302893               0.002790507               0.000000000               0.000000000               0.000000000               0.000000000               0.001414749               0.008693134              -0.000518490              -0.000556110               0.003083052               0.002526943               0.000000000               0.000000000               0.000000000               0.000000000               0.001112243               0.008126125              -0.000502502              -0.000598673               0.002908239               0.002309566               0.000000000               0.000000000               0.000000000               0.000000000               0.000862735               0.007636982              -0.000474494              -0.000631096               0.002756000               0.002124905               0.000000000               0.000000000               0.000000000               0.000000000               0.000653183               0.007186741              -0.000442452              -0.000653397               0.002613355               0.001959958               0.000000000               0.000000000               0.000000000               0.000000000               0.000472795               0.006755591              -0.000413426              -0.000667149               0.002474224               0.001807075               0.000000000               0.000000000               0.000000000               0.000000000               0.000319896               0.006333719              -0.000384340              -0.000671752               0.002335136               0.001663384               0.000000000               0.000000000               0.000000000               0.000000000               0.000194031               0.005908113              -0.000348015              -0.000665751               0.002191268               0.001525517               0.000000000               0.000000000               0.000000000               0.000000000               0.000097474               0.005463806              -0.000297729              -0.000646421               0.002036724               0.001390303               0.000000000               0.000000000               0.000000000               0.000000000               0.000031490               0.004984149              -0.000229490              -0.000611208               0.001865102               0.001253894               0.000000000               0.000000000               0.000000000               0.000000000               0.000003270               0.004454698              -0.000132337              -0.000555610               0.001670088               0.001114478               0.000000000               0.000000000               0.000000000               0.000000000              -0.000041517               0.004059089              -0.000082412              -0.000522954               0.001527334               0.001004380               0.000000000               0.000000000               0.000000000               0.000000000               0.002408649               0.021303550               0.002939028              -0.001759697               0.007687678               0.005927980               0.000000000               0.000000000               0.000000000               0.000000000               0.001962117               0.016921618               0.001468970              -0.001379405               0.006100285               0.004720879               0.000000000               0.000000000               0.000000000               0.000000000               0.002171290               0.013534326               0.000017875              -0.000877555               0.004803915               0.003926360               0.000000000               0.000000000               0.000000000               0.000000000               0.001897200               0.011607951              -0.000573165              -0.000739542               0.004115792               0.003376250               0.000000000               0.000000000               0.000000000               0.000000000               0.001531527               0.010370119              -0.000802783              -0.000721941               0.003697318               0.002975378               0.000000000               0.000000000               0.000000000               0.000000000               0.001181487               0.009487467              -0.000872203              -0.000742874               0.003410082               0.002667208               0.000000000               0.000000000               0.000000000               0.000000000               0.000878989               0.008804124              -0.000870984              -0.000770893               0.003191643               0.002420750               0.000000000               0.000000000               0.000000000               0.000000000               0.000632946               0.008239975              -0.000837988              -0.000792640               0.003010844               0.002218204               0.000000000               0.000000000               0.000000000               0.000000000               0.000439778               0.007745254              -0.000788318              -0.000803238               0.002849471               0.002046233               0.000000000               0.000000000               0.000000000               0.000000000               0.000284561               0.007292122              -0.000732806              -0.000804803               0.002698951               0.001894148               0.000000000               0.000000000               0.000000000               0.000000000               0.000158520               0.006862631              -0.000680799              -0.000798382               0.002553648               0.001755266               0.000000000               0.000000000               0.000000000               0.000000000               0.000061915               0.006446098              -0.000628335              -0.000782542               0.002409525               0.001626983               0.000000000               0.000000000               0.000000000               0.000000000              -0.000006429               0.006035896              -0.000563542              -0.000756896               0.002264244               0.001507348               0.000000000               0.000000000               0.000000000               0.000000000              -0.000045155               0.005624260              -0.000475233              -0.000719964               0.002114723               0.001394758               0.000000000               0.000000000               0.000000000               0.000000000              -0.000056213               0.005203093              -0.000355802              -0.000671465               0.001958169               0.001286704               0.000000000               0.000000000               0.000000000               0.000000000              -0.000038330               0.004773555              -0.000197511              -0.000611066               0.001794858               0.001183791               0.000000000               0.000000000               0.000000000               0.000000000              -0.000052554               0.004477516              -0.000119909              -0.000579396               0.001685622               0.001106226               0.000000000               0.000000000               0.000000000               0.000000000               0.002607465               0.019271943               0.003918830              -0.001431192               0.006900980               0.005469788               0.000000000               0.000000000               0.000000000               0.000000000               0.001707449               0.015635478               0.001964905              -0.001314139               0.005649820               0.004335681               0.000000000               0.000000000               0.000000000               0.000000000               0.001438657               0.012996549               0.000066588              -0.001085070               0.004693829               0.003608760               0.000000000               0.000000000               0.000000000               0.000000000               0.001019860               0.011424948              -0.000663550              -0.001045668               0.004156834               0.003111165               0.000000000               0.000000000               0.000000000               0.000000000               0.000652462               0.010354775              -0.000928490              -0.001049671               0.003801447               0.002751776               0.000000000               0.000000000               0.000000000               0.000000000               0.000365150               0.009546733              -0.000998633              -0.001056408               0.003534349               0.002477941               0.000000000               0.000000000               0.000000000               0.000000000               0.000151693               0.008891332              -0.000988990              -0.001054529               0.003315258               0.002260728               0.000000000               0.000000000               0.000000000               0.000000000               0.000000294               0.008328155              -0.000943889              -0.001040907               0.003122993               0.002082086               0.000000000               0.000000000               0.000000000               0.000000000              -0.000103627               0.007826257              -0.000880646              -0.001017140               0.002947773               0.001930633               0.000000000               0.000000000               0.000000000               0.000000000              -0.000175649               0.007364834              -0.000813426              -0.000986470               0.002783743               0.001797273               0.000000000               0.000000000               0.000000000               0.000000000              -0.000220271               0.006933909              -0.000750313              -0.000949338               0.002627726               0.001678388               0.000000000               0.000000000               0.000000000               0.000000000              -0.000234765               0.006527011              -0.000687550              -0.000903911               0.002476952               0.001573041               0.000000000               0.000000000               0.000000000               0.000000000              -0.000222094               0.006139972              -0.000611607              -0.000850780               0.002330230               0.001479450               0.000000000               0.000000000               0.000000000               0.000000000              -0.000188809               0.005768515              -0.000506785              -0.000791866               0.002186774               0.001394909               0.000000000               0.000000000               0.000000000               0.000000000              -0.000135992               0.005418024              -0.000368772              -0.000728248               0.002048740               0.001320491               0.000000000               0.000000000               0.000000000               0.000000000              -0.000070489               0.005105082              -0.000199733              -0.000664567               0.001923199               0.001258633               0.000000000               0.000000000               0.000000000               0.000000000              -0.000057209               0.004913904              -0.000118889              -0.000635690               0.001849848               0.001214158               0.000000000               0.000000000               0.000000000               0.000000000               0.002680414               0.016772239               0.004428941              -0.001091376               0.005954481               0.004863106               0.000000000               0.000000000               0.000000000               0.000000000               0.001299505               0.014076747               0.002254353              -0.001272277               0.005116294               0.003844017               0.000000000               0.000000000               0.000000000               0.000000000               0.000525032               0.012327767               0.000177685              -0.001344081               0.004557241               0.003213161               0.000000000               0.000000000               0.000000000               0.000000000               0.000007481               0.011142620              -0.000570542              -0.001390019               0.004177509               0.002787490               0.000000000               0.000000000               0.000000000               0.000000000              -0.000311204               0.010240949              -0.000826108              -0.001396817               0.003879221               0.002482404               0.000000000               0.000000000               0.000000000               0.000000000              -0.000492972               0.009505053              -0.000886784              -0.001372993               0.003625984               0.002252991               0.000000000               0.000000000               0.000000000               0.000000000              -0.000586851               0.008871723              -0.000870454              -0.001329031               0.003400222               0.002071190               0.000000000               0.000000000               0.000000000               0.000000000              -0.000627479               0.008303606              -0.000825493              -0.001273253               0.003192258               0.001919006               0.000000000               0.000000000               0.000000000               0.000000000              -0.000628101               0.007791494              -0.000768155              -0.001209472               0.003000296               0.001790824               0.000000000               0.000000000               0.000000000               0.000000000              -0.000598038               0.007326871              -0.000708203              -0.001140120               0.002822306               0.001682186               0.000000000               0.000000000               0.000000000               0.000000000              -0.000543961               0.006901841              -0.000651739              -0.001066713               0.002656161               0.001589449               0.000000000               0.000000000               0.000000000               0.000000000              -0.000467659               0.006508056              -0.000593350              -0.000988877               0.002498956               0.001510079               0.000000000               0.000000000               0.000000000               0.000000000              -0.000372683               0.006141975              -0.000520250              -0.000907501               0.002349805               0.001442304               0.000000000               0.000000000               0.000000000               0.000000000              -0.000268538               0.005808980              -0.000419844              -0.000826822               0.002211915               0.001385093               0.000000000               0.000000000               0.000000000               0.000000000              -0.000164886               0.005525013              -0.000294680              -0.000752457               0.002092471               0.001340015               0.000000000               0.000000000               0.000000000               0.000000000              -0.000076508               0.005308443              -0.000152975              -0.000692244               0.002000211               0.001307967               0.000000000               0.000000000               0.000000000               0.000000000              -0.000049682               0.005198958              -0.000085938              -0.000668499               0.001955801               0.001287303               0.000000000               0.000000000               0.000000000               0.000000000               0.002493130               0.014064451               0.004473250              -0.000823135               0.004962481               0.004139346               0.000000000               0.000000000               0.000000000               0.000000000               0.000732124               0.012420823               0.002364861              -0.001278055               0.004566251               0.003288196               0.000000000               0.000000000               0.000000000               0.000000000              -0.000459777               0.011591830               0.000371554              -0.001621391               0.004404369               0.002782977               0.000000000               0.000000000               0.000000000               0.000000000              -0.000983415               0.010766588              -0.000305248              -0.001714600               0.004160360               0.002445760               0.000000000               0.000000000               0.000000000               0.000000000              -0.001191313               0.010008969              -0.000528388              -0.001697860               0.003902243               0.002204383               0.000000000               0.000000000               0.000000000               0.000000000              -0.001238094               0.009326276              -0.000583959              -0.001630066               0.003652083               0.002022017               0.000000000               0.000000000               0.000000000               0.000000000              -0.001196324               0.008704801              -0.000577621              -0.001536718               0.003413810               0.001877093               0.000000000               0.000000000               0.000000000               0.000000000              -0.001108743               0.008140168              -0.000553063              -0.001433296               0.003191128               0.001757831               0.000000000               0.000000000               0.000000000               0.000000000              -0.000997744               0.007630117              -0.000524185              -0.001327916               0.002985985               0.001658070               0.000000000               0.000000000               0.000000000               0.000000000              -0.000870244               0.007175767              -0.000491711              -0.001223309               0.002799668               0.001576359               0.000000000               0.000000000               0.000000000               0.000000000              -0.000730107               0.006766332              -0.000454595              -0.001119579               0.002628614               0.001509035               0.000000000               0.000000000               0.000000000               0.000000000              -0.000580332               0.006388809              -0.000409090              -0.001016223               0.002468323               0.001452100               0.000000000               0.000000000               0.000000000               0.000000000              -0.000423956               0.006043956              -0.000350344              -0.000914476               0.002319457               0.001404981               0.000000000               0.000000000               0.000000000               0.000000000              -0.000275376               0.005747856              -0.000272102              -0.000821746               0.002189848               0.001368102               0.000000000               0.000000000               0.000000000               0.000000000              -0.000151108               0.005517400              -0.000179577              -0.000746339               0.002087895               0.001341556               0.000000000               0.000000000               0.000000000               0.000000000              -0.000062862               0.005362413              -0.000087680              -0.000693873               0.002018744               0.001324871               0.000000000               0.000000000               0.000000000               0.000000000              -0.000035950               0.005294766              -0.000048036              -0.000675325               0.001990013               0.001314687               0.000000000               0.000000000               0.000000000               0.000000000               0.001978778               0.011369545               0.004129046              -0.000679154               0.004016194               0.003337040               0.000000000               0.000000000               0.000000000               0.000000000               0.000035488               0.010795732               0.002346541              -0.001336157               0.004043926               0.002707770               0.000000000               0.000000000               0.000000000               0.000000000              -0.001406084               0.010816314               0.000654486              -0.001879316               0.004231841               0.002352524               0.000000000               0.000000000               0.000000000               0.000000000              -0.001833063               0.010286553               0.000094878              -0.001973213               0.004086554               0.002113342               0.000000000               0.000000000               0.000000000               0.000000000              -0.001879634               0.009644725              -0.000104082              -0.001910449               0.003851693               0.001941244               0.000000000               0.000000000               0.000000000               0.000000000              -0.001770745               0.009008957              -0.000176190              -0.001790145               0.003599671               0.001809526               0.000000000               0.000000000               0.000000000               0.000000000              -0.001592545               0.008413229              -0.000202381              -0.001648854               0.003354000               0.001705146               0.000000000               0.000000000               0.000000000               0.000000000              -0.001385359               0.007868472              -0.000217316              -0.001503065               0.003123819               0.001620755               0.000000000               0.000000000               0.000000000               0.000000000              -0.001172311               0.007378894              -0.000228628              -0.001361975               0.002913599               0.001551623               0.000000000               0.000000000               0.000000000               0.000000000              -0.000961118               0.006941476              -0.000233293              -0.001228101               0.002723169               0.001495069               0.000000000               0.000000000               0.000000000               0.000000000              -0.000752880               0.006546568              -0.000223829              -0.001100648               0.002549050               0.001448402               0.000000000               0.000000000               0.000000000               0.000000000              -0.000555000               0.006183150              -0.000199305              -0.000981016               0.002388035               0.001407018               0.000000000               0.000000000               0.000000000               0.000000000              -0.000374075               0.005864230              -0.000164612              -0.000873305               0.002245825               0.001372521               0.000000000               0.000000000               0.000000000               0.000000000              -0.000222882               0.005607396              -0.000120019              -0.000784503               0.002130615               0.001346111               0.000000000               0.000000000               0.000000000               0.000000000              -0.000111176               0.005420922              -0.000070531              -0.000719304               0.002046724               0.001327420               0.000000000               0.000000000               0.000000000               0.000000000              -0.000041117               0.005299136              -0.000029516              -0.000677809               0.001992297               0.001314488               0.000000000               0.000000000               0.000000000               0.000000000              -0.000023910               0.005242677              -0.000016761              -0.000664299               0.001968974               0.001304675               0.000000000               0.000000000               0.000000000               0.000000000               0.001170794               0.008861085               0.003493946              -0.000668590               0.003176528               0.002507938               0.000000000               0.000000000               0.000000000               0.000000000              -0.000746537               0.009289623               0.002247370              -0.001441152               0.003576894               0.002135741               0.000000000               0.000000000               0.000000000               0.000000000              -0.002216351               0.010005889               0.001020472              -0.002081863               0.004029217               0.001947355               0.000000000               0.000000000               0.000000000               0.000000000              -0.002455155               0.009703231               0.000568351              -0.002133582               0.003945572               0.001811990               0.000000000               0.000000000               0.000000000               0.000000000              -0.002317308               0.009161292               0.000361576              -0.002014147               0.003725116               0.001710969               0.000000000               0.000000000               0.000000000               0.000000000              -0.002056793               0.008584072               0.000246789              -0.001844302               0.003476096               0.001631794               0.000000000               0.000000000               0.000000000               0.000000000              -0.001757491               0.008035158               0.000170997              -0.001663450               0.003232842               0.001569393               0.000000000               0.000000000               0.000000000               0.000000000              -0.001456464               0.007528582               0.000110736              -0.001487243               0.003005250               0.001518007               0.000000000               0.000000000               0.000000000               0.000000000              -0.001168722               0.007064431               0.000056142              -0.001321321               0.002795227               0.001473906               0.000000000               0.000000000               0.000000000               0.000000000              -0.000898329               0.006640639               0.000010702              -0.001166951               0.002602508               0.001435557               0.000000000               0.000000000               0.000000000               0.000000000              -0.000649649               0.006253489              -0.000014656              -0.001025302               0.002426243               0.001400941               0.000000000               0.000000000               0.000000000               0.000000000              -0.000434383               0.005912052              -0.000019452              -0.000901898               0.002271297               0.001369399               0.000000000               0.000000000               0.000000000               0.000000000              -0.000261904               0.005632250              -0.000016743              -0.000802243               0.002144812               0.001342569               0.000000000               0.000000000               0.000000000               0.000000000              -0.000137463               0.005420076              -0.000010163              -0.000729056               0.002049693               0.001320637               0.000000000               0.000000000               0.000000000               0.000000000              -0.000058717               0.005271561              -0.000000628              -0.000680962               0.001984157               0.001303195               0.000000000               0.000000000               0.000000000               0.000000000              -0.000019729               0.005172343               0.000003997              -0.000653940               0.001942077               0.001288137               0.000000000               0.000000000               0.000000000               0.000000000              -0.000016780               0.005122382              -0.000000415              -0.000646588               0.001922973               0.001276385               0.000000000               0.000000000               0.000000000               0.000000000               0.000183890               0.006726954               0.002690318              -0.000771911               0.002499598               0.001727687               0.000000000               0.000000000               0.000000000               0.000000000              -0.001505886               0.007935421               0.002122757              -0.001556632               0.003163991               0.001607358               0.000000000               0.000000000               0.000000000               0.000000000              -0.002836130               0.009203107               0.001455270              -0.002213932               0.003805649               0.001591717               0.000000000               0.000000000               0.000000000               0.000000000              -0.002872002               0.009139707               0.001071078              -0.002219459               0.003786358               0.001566899               0.000000000               0.000000000               0.000000000               0.000000000              -0.002580244               0.008730835               0.000830557              -0.002058941               0.003596563               0.001537622               0.000000000               0.000000000               0.000000000               0.000000000              -0.002199127               0.008242621               0.000658470              -0.001854996               0.003365845               0.001510849               0.000000000               0.000000000               0.000000000               0.000000000              -0.001808386               0.007754263               0.000526079              -0.001647423               0.003133870               0.001486446               0.000000000               0.000000000               0.000000000               0.000000000              -0.001438432               0.007290860               0.000422962              -0.001450766               0.002913851               0.001463085               0.000000000               0.000000000               0.000000000               0.000000000              -0.001096802               0.006857169               0.000331877              -0.001268444               0.002708515               0.001440071               0.000000000               0.000000000               0.000000000               0.000000000              -0.000788266               0.006451599               0.000248391              -0.001102047               0.002517860               0.001415814               0.000000000               0.000000000               0.000000000               0.000000000              -0.000522756               0.006074075               0.000179983              -0.000955291               0.002343102               0.001387811               0.000000000               0.000000000               0.000000000               0.000000000              -0.000310126               0.005749115               0.000131492              -0.000834935               0.002194664               0.001359730               0.000000000               0.000000000               0.000000000               0.000000000              -0.000155975               0.005493858               0.000094180              -0.000745221               0.002079675               0.001334454               0.000000000               0.000000000               0.000000000               0.000000000              -0.000063567               0.005304256               0.000061644              -0.000686868               0.001997024               0.001310156               0.000000000               0.000000000               0.000000000               0.000000000              -0.000022859               0.005170672               0.000037411              -0.000654905               0.001941842               0.001286937               0.000000000               0.000000000               0.000000000               0.000000000              -0.000017643               0.005082648               0.000018752              -0.000641946               0.001908181               0.001266235               0.000000000               0.000000000               0.000000000               0.000000000              -0.000025693               0.005042358               0.000007447              -0.000639928               0.001894079               0.001254150               0.000000000               0.000000000               0.000000000               0.000000000              -0.000984422               0.004726878               0.001834401              -0.000960017               0.001895615               0.000935598               0.000000000               0.000000000               0.000000000               0.000000000              -0.002124460               0.006369547               0.001980409              -0.001592863               0.002654115               0.001061252               0.000000000               0.000000000               0.000000000               0.000000000              -0.003177587               0.008035219               0.001916471              -0.002195993               0.003410377               0.001214384               0.000000000               0.000000000               0.000000000               0.000000000              -0.003108838               0.008338687               0.001610914              -0.002208145               0.003515583               0.001307438               0.000000000               0.000000000               0.000000000               0.000000000              -0.002761011               0.008186213               0.001334095              -0.002058651               0.003414927               0.001356276               0.000000000               0.000000000               0.000000000               0.000000000              -0.002348584               0.007877975               0.001107296              -0.001865461               0.003247786               0.001382324               0.000000000               0.000000000               0.000000000               0.000000000              -0.001928482               0.007521309               0.000925007              -0.001663340               0.003061525               0.001398184               0.000000000               0.000000000               0.000000000               0.000000000              -0.001530792               0.007152492               0.000778725              -0.001468105               0.002873508               0.001405403               0.000000000               0.000000000               0.000000000               0.000000000              -0.001169468               0.006789935               0.000649234              -0.001287289               0.002692386               0.001405096               0.000000000               0.000000000               0.000000000               0.000000000              -0.000847925               0.006443137               0.000526335              -0.001123361               0.002522145               0.001398783               0.000000000               0.000000000               0.000000000               0.000000000              -0.000571435               0.006112166               0.000413482              -0.000978307               0.002363471               0.001385164               0.000000000               0.000000000               0.000000000               0.000000000              -0.000346868               0.005808362               0.000315683              -0.000856119               0.002221474               0.001365355               0.000000000               0.000000000               0.000000000               0.000000000              -0.000180618               0.005548542               0.000227939              -0.000761298               0.002103261               0.001341964               0.000000000               0.000000000               0.000000000               0.000000000              -0.000076959               0.005338704               0.000149917              -0.000696196               0.002011616               0.001315420               0.000000000               0.000000000               0.000000000               0.000000000              -0.000031917               0.005181889               0.000085331              -0.000659703               0.001947180               0.001287477               0.000000000               0.000000000               0.000000000               0.000000000              -0.000033184               0.005072630               0.000033879              -0.000646521               0.001906367               0.001259846               0.000000000               0.000000000               0.000000000               0.000000000              -0.000047685               0.005025807               0.000010314              -0.000646106               0.001890621               0.001244515               0.000000000               0.000000000               0.000000000               0.000000000              -0.002489153               0.002912547               0.000978519              -0.001297498               0.001403338               0.000105840               0.000000000               0.000000000               0.000000000               0.000000000              -0.002818347               0.004796890               0.001762473              -0.001656488               0.002151109               0.000494621               0.000000000               0.000000000               0.000000000               0.000000000              -0.003411524               0.006679241               0.002280248              -0.002114222               0.002931131               0.000816909               0.000000000               0.000000000               0.000000000               0.000000000              -0.003253979               0.007336512               0.002123905              -0.002137301               0.003157913               0.001020611               0.000000000               0.000000000               0.000000000               0.000000000              -0.002881085               0.007480809               0.001848550              -0.002015503               0.003165412               0.001149909               0.000000000               0.000000000               0.000000000               0.000000000              -0.002462501               0.007394697               0.001589236              -0.001847771               0.003080798               0.001233027               0.000000000               0.000000000               0.000000000               0.000000000              -0.002039676               0.007206029               0.001369974              -0.001665628               0.002957195               0.001291566               0.000000000               0.000000000               0.000000000               0.000000000              -0.001635475               0.006968341               0.001184087              -0.001484342               0.002817538               0.001333195               0.000000000               0.000000000               0.000000000               0.000000000              -0.001265096               0.006703559               0.001017619              -0.001312353               0.002671948               0.001359595               0.000000000               0.000000000               0.000000000               0.000000000              -0.000929640               0.006434326               0.000861716              -0.001152903               0.002529055               0.001376152               0.000000000               0.000000000               0.000000000               0.000000000              -0.000632119               0.006165494               0.000714246              -0.001007729               0.002391054               0.001383325               0.000000000               0.000000000               0.000000000               0.000000000              -0.000380280               0.005900247               0.000575669              -0.000880134               0.002260107               0.001379974               0.000000000               0.000000000               0.000000000               0.000000000              -0.000183358               0.005649908               0.000442144              -0.000774996               0.002141616               0.001366620               0.000000000               0.000000000               0.000000000               0.000000000              -0.000046804               0.005428205               0.000313343              -0.000696076               0.002041409               0.001345333               0.000000000               0.000000000               0.000000000               0.000000000               0.000018957               0.005245006               0.000191646              -0.000648515               0.001964490               0.001315974               0.000000000               0.000000000               0.000000000               0.000000000               0.000017260               0.005105141               0.000084897              -0.000631669               0.001912253               0.001280584               0.000000000               0.000000000               0.000000000               0.000000000              -0.000010142               0.005040313               0.000032565              -0.000633841               0.001891368               0.001257527               0.000000000               0.000000000               0.000000000               0.000000000              -0.004237512               0.001424259               0.000193048              -0.001767097               0.001063778              -0.000703319               0.000000000               0.000000000               0.000000000               0.000000000              -0.003646318               0.003309420               0.001446428              -0.001781043               0.001696809              -0.000084234               0.000000000               0.000000000               0.000000000               0.000000000              -0.003582961               0.005152209               0.002429280              -0.001987633               0.002379929               0.000392296               0.000000000               0.000000000               0.000000000               0.000000000              -0.003253351               0.006054647               0.002462576              -0.001976833               0.002677139               0.000700306               0.000000000               0.000000000               0.000000000               0.000000000              -0.002841929               0.006468841               0.002244383              -0.001874325               0.002781033               0.000906708               0.000000000               0.000000000               0.000000000               0.000000000              -0.002423399               0.006621644               0.001988963              -0.001736477               0.002786018               0.001049541               0.000000000               0.000000000               0.000000000               0.000000000              -0.002015077               0.006627246               0.001755239              -0.001584056               0.002737078               0.001153022               0.000000000               0.000000000               0.000000000               0.000000000              -0.001623219               0.006547094               0.001546623              -0.001427091               0.002658039               0.001230948               0.000000000               0.000000000               0.000000000               0.000000000              -0.001256721               0.006409400               0.001356311              -0.001272443               0.002560593               0.001288150               0.000000000               0.000000000               0.000000000               0.000000000              -0.000917709               0.006243855               0.001181117              -0.001124620               0.002456138               0.001331517               0.000000000               0.000000000               0.000000000               0.000000000              -0.000605781               0.006062400               0.001015960              -0.000984966               0.002349102               0.001364136               0.000000000               0.000000000               0.000000000               0.000000000              -0.000326224               0.005866465               0.000856080              -0.000855640               0.002240682               0.001385042               0.000000000               0.000000000               0.000000000               0.000000000              -0.000091229               0.005662764               0.000693199              -0.000742055               0.002134921               0.001392866               0.000000000               0.000000000               0.000000000               0.000000000               0.000085357               0.005463818               0.000521629              -0.000650967               0.002038243               0.001387276               0.000000000               0.000000000               0.000000000               0.000000000               0.000191244               0.005282871               0.000342279              -0.000588641               0.001957153               0.001368512               0.000000000               0.000000000               0.000000000               0.000000000               0.000213243               0.005129359               0.000165716              -0.000561202               0.001896837               0.001335634               0.000000000               0.000000000               0.000000000               0.000000000               0.000185502               0.005050785               0.000074887              -0.000561783               0.001870839               0.001309056               0.000000000               0.000000000               0.000000000               0.000000000              -0.006098018               0.000329719              -0.000410852              -0.002327969               0.000885890              -0.001442079               0.000000000               0.000000000               0.000000000               0.000000000              -0.004551267               0.001989854               0.001074851              -0.001955454               0.001315093              -0.000640361               0.000000000               0.000000000               0.000000000               0.000000000              -0.003719588               0.003578270               0.002333464              -0.001842126               0.001806785              -0.000035341               0.000000000               0.000000000               0.000000000               0.000000000              -0.003135196               0.004590085               0.002541215              -0.001749456               0.002113164               0.000363708               0.000000000               0.000000000               0.000000000               0.000000000              -0.002648714               0.005218585               0.002411385              -0.001645588               0.002288039               0.000642451               0.000000000               0.000000000               0.000000000               0.000000000              -0.002220258               0.005596329               0.002194018              -0.001532135               0.002376135               0.000844000               0.000000000               0.000000000               0.000000000               0.000000000              -0.001829666               0.005798648               0.001975821              -0.001410953               0.002403181               0.000992227               0.000000000               0.000000000               0.000000000               0.000000000              -0.001462500               0.005884951               0.001770354              -0.001284054               0.002389648               0.001105594               0.000000000               0.000000000               0.000000000               0.000000000              -0.001110016               0.005897130               0.001577033              -0.001153395               0.002350155               0.001196760               0.000000000               0.000000000               0.000000000               0.000000000              -0.000773442               0.005858932               0.001399045              -0.001022405               0.002293759               0.001271354               0.000000000               0.000000000               0.000000000               0.000000000              -0.000454208               0.005784517               0.001234272              -0.000893391               0.002225950               0.001332559               0.000000000               0.000000000               0.000000000               0.000000000              -0.000152992               0.005683780               0.001073542              -0.000767843               0.002150522               0.001382679               0.000000000               0.000000000               0.000000000               0.000000000               0.000120887               0.005556025               0.000902768              -0.000649169               0.002068379               0.001419210               0.000000000               0.000000000               0.000000000               0.000000000               0.000354469               0.005410624               0.000712776              -0.000543401               0.001984657               0.001441256               0.000000000               0.000000000               0.000000000               0.000000000               0.000531703               0.005265520               0.000497845              -0.000458800               0.001908089               0.001449289               0.000000000               0.000000000               0.000000000               0.000000000               0.000629253               0.005129702               0.000258357              -0.000405242               0.001844964               0.001439722               0.000000000               0.000000000               0.000000000               0.000000000               0.000647862               0.005059491               0.000131902              -0.000389487               0.001816309               0.001426822               0.000000000               0.000000000               0.000000000               0.000000000              -0.007882951              -0.000379535              -0.000732653              -0.002908663               0.000843037              -0.002065626               0.000000000               0.000000000               0.000000000               0.000000000              -0.005453537               0.000919950               0.000709574              -0.002160068               0.001026665              -0.001133402               0.000000000               0.000000000               0.000000000               0.000000000              -0.003840234               0.002120344               0.001993706              -0.001705128               0.001275148              -0.000429980               0.000000000               0.000000000               0.000000000               0.000000000              -0.002953250               0.003125812               0.002306428              -0.001498193               0.001541323               0.000043130               0.000000000               0.000000000               0.000000000               0.000000000              -0.002359307               0.003886072               0.002265626              -0.001370497               0.001752176               0.000381679               0.000000000               0.000000000               0.000000000               0.000000000              -0.001901513               0.004439269               0.002108244              -0.001267974               0.001902399               0.000634425               0.000000000               0.000000000               0.000000000               0.000000000              -0.001519790               0.004820926               0.001928429              -0.001172535               0.001997804               0.000825268               0.000000000               0.000000000               0.000000000               0.000000000              -0.001177025               0.005068317               0.001751808              -0.001074922               0.002047729               0.000972807               0.000000000               0.000000000               0.000000000               0.000000000              -0.000845157               0.005226905               0.001582504              -0.000970296               0.002065716               0.001095420               0.000000000               0.000000000               0.000000000               0.000000000              -0.000516208               0.005322824               0.001424286              -0.000858930               0.002060566               0.001201637               0.000000000               0.000000000               0.000000000               0.000000000              -0.000191456               0.005369707               0.001277625              -0.000743008               0.002037554               0.001294545               0.000000000               0.000000000               0.000000000               0.000000000               0.000125663               0.005376213               0.001133690              -0.000624902               0.002000354               0.001375451               0.000000000               0.000000000               0.000000000               0.000000000               0.000436626               0.005347293               0.000979890              -0.000504676               0.001950638               0.001445962               0.000000000               0.000000000               0.000000000               0.000000000               0.000737742               0.005288113               0.000801311              -0.000384360               0.001890807               0.001506446               0.000000000               0.000000000               0.000000000               0.000000000               0.001012632               0.005204604               0.000583657              -0.000270838               0.001825130               0.001554292               0.000000000               0.000000000               0.000000000               0.000000000               0.001241874               0.005107104               0.000316954              -0.000172685               0.001759913               0.001587228               0.000000000               0.000000000               0.000000000               0.000000000               0.001369199               0.005065147               0.000175832              -0.000119694               0.001728263               0.001608570               0.000000000               0.000000000               0.000000000               0.000000000              -0.009381839              -0.000771954              -0.000729675              -0.003421693               0.000883240              -0.002538453               0.000000000               0.000000000               0.000000000               0.000000000              -0.006242147               0.000150044               0.000405444              -0.002359559               0.000836528              -0.001523030               0.000000000               0.000000000               0.000000000               0.000000000              -0.003953654               0.000944182               0.001449484              -0.001600641               0.000848268              -0.000752373               0.000000000               0.000000000               0.000000000               0.000000000              -0.002768845               0.001867906               0.001756929              -0.001271803               0.001046562              -0.000225241               0.000000000               0.000000000               0.000000000               0.000000000              -0.002055976               0.002683787               0.001772935              -0.001106463               0.001263407               0.000156944               0.000000000               0.000000000               0.000000000               0.000000000              -0.001559301               0.003350989               0.001678863              -0.001003610               0.001451521               0.000447911               0.000000000               0.000000000               0.000000000               0.000000000              -0.001176012               0.003868211               0.001553573              -0.000924529               0.001597567               0.000673037               0.000000000               0.000000000               0.000000000               0.000000000              -0.000849050               0.004248617               0.001426872              -0.000849469               0.001699347               0.000849878               0.000000000               0.000000000               0.000000000               0.000000000              -0.000534415               0.004535351               0.001303097              -0.000767323               0.001767543               0.001000219               0.000000000               0.000000000               0.000000000               0.000000000              -0.000217471               0.004755408               0.001184648              -0.000675976               0.001810445               0.001134469               0.000000000               0.000000000               0.000000000               0.000000000               0.000104435               0.004913537               0.001073532              -0.000575028               0.001829505               0.001254477               0.000000000               0.000000000               0.000000000               0.000000000               0.000435985               0.005021986               0.000964785              -0.000464253               0.001828729               0.001364476               0.000000000               0.000000000               0.000000000               0.000000000               0.000783408               0.005094525               0.000849846              -0.000343037               0.001812504               0.001469467               0.000000000               0.000000000               0.000000000               0.000000000               0.001150128               0.005129568               0.000711009              -0.000209898               0.001779805               0.001569907               0.000000000               0.000000000               0.000000000               0.000000000               0.001537909               0.005123854               0.000531419              -0.000063766               0.001729189               0.001665423               0.000000000               0.000000000               0.000000000               0.000000000               0.001939535               0.005076852               0.000295029               0.000092718               0.001661361               0.001754079               0.000000000               0.000000000               0.000000000               0.000000000               0.002223713               0.005071632               0.000171113               0.000199936               0.001623882               0.001823818               0.000000000               0.000000000               0.000000000               0.000000000              -0.010381586              -0.000948415              -0.000448512              -0.003774540               0.000942036              -0.002832505               0.000000000               0.000000000               0.000000000               0.000000000              -0.006782975              -0.000310646               0.000175001              -0.002504783               0.000731374              -0.001773409               0.000000000               0.000000000               0.000000000               0.000000000              -0.004038264               0.000177584               0.000759183              -0.001536546               0.000571372              -0.000965173               0.000000000               0.000000000               0.000000000               0.000000000              -0.002640599               0.001014520               0.000948174              -0.001117038               0.000710514              -0.000406524               0.000000000               0.000000000               0.000000000               0.000000000              -0.001834897               0.001842591               0.000974505              -0.000918408               0.000920326               0.000001918               0.000000000               0.000000000               0.000000000               0.000000000              -0.001303897               0.002564884               0.000933765              -0.000809570               0.001124809               0.000315239               0.000000000               0.000000000               0.000000000               0.000000000              -0.000908441               0.003161944               0.000870205              -0.000735907               0.001299273               0.000563366               0.000000000               0.000000000               0.000000000               0.000000000              -0.000585028               0.003631588               0.000806290              -0.000673333               0.001434961               0.000761629               0.000000000               0.000000000               0.000000000               0.000000000              -0.000287967               0.004004663               0.000742736              -0.000608569               0.001537731               0.000929161               0.000000000               0.000000000               0.000000000               0.000000000               0.000013828               0.004310120               0.000678128              -0.000533578               0.001614552               0.001080973               0.000000000               0.000000000               0.000000000               0.000000000               0.000331674               0.004552811               0.000617557              -0.000444723               0.001665829               0.001221107               0.000000000               0.000000000               0.000000000               0.000000000               0.000674919               0.004739727               0.000559388              -0.000339371               0.001693017               0.001353646               0.000000000               0.000000000               0.000000000               0.000000000               0.001053176               0.004886081               0.000497029              -0.000215819               0.001700617               0.001484798               0.000000000               0.000000000               0.000000000               0.000000000               0.001475971               0.004989969               0.000421680              -0.000070257               0.001686726               0.001616468               0.000000000               0.000000000               0.000000000               0.000000000               0.001958839               0.005044302               0.000319350               0.000104026               0.001646742               0.001750768               0.000000000               0.000000000               0.000000000               0.000000000               0.002517771               0.005041691               0.000177037               0.000313950               0.001575897               0.001889846               0.000000000               0.000000000               0.000000000               0.000000000               0.002952438               0.005071181               0.000103824               0.000473262               0.001532623               0.002005885               0.000000000               0.000000000               0.000000000               0.000000000              -0.010730911              -0.000995185               0.000000000              -0.003899691               0.000968162              -0.002931529               0.000000000               0.000000000               0.000000000               0.000000000              -0.006974348              -0.000463924              -0.000000000              -0.002557388               0.000697817              -0.001859572               0.000000000               0.000000000               0.000000000               0.000000000              -0.004069099              -0.000089624              -0.000000000              -0.001514708               0.000475025              -0.001039683               0.000000000               0.000000000               0.000000000               0.000000000              -0.002597762               0.000712959              -0.000000000              -0.001063279               0.000592075              -0.000471204               0.000000000               0.000000000               0.000000000               0.000000000              -0.001757003               0.001541906               0.000000000              -0.000851613               0.000797834              -0.000053779               0.000000000               0.000000000               0.000000000               0.000000000              -0.001212335               0.002277493               0.000000000              -0.000739310               0.001005593               0.000266283               0.000000000               0.000000000               0.000000000               0.000000000              -0.000808145               0.002899687              -0.000000000              -0.000665514               0.001188390               0.000522877               0.000000000               0.000000000               0.000000000               0.000000000              -0.000481772               0.003401277              -0.000000000              -0.000605823               0.001335688               0.000729866               0.000000000               0.000000000               0.000000000               0.000000000              -0.000193285               0.003807203               0.000000000              -0.000548381               0.001451849               0.000903468               0.000000000               0.000000000               0.000000000               0.000000000               0.000099554               0.004141645              -0.000000000              -0.000480372               0.001540658               0.001060287               0.000000000               0.000000000               0.000000000               0.000000000               0.000415468               0.004412722              -0.000000000              -0.000395789               0.001602822               0.001207034               0.000000000               0.000000000               0.000000000               0.000000000               0.000762511               0.004629889               0.000000000              -0.000292794               0.001640879               0.001348085               0.000000000               0.000000000               0.000000000               0.000000000               0.001152862               0.004800945              -0.000000000              -0.000167795               0.001656231               0.001488436               0.000000000               0.000000000               0.000000000               0.000000000               0.001599158               0.004927969              -0.000000000              -0.000016312               0.001648077               0.001631765               0.000000000               0.000000000               0.000000000               0.000000000               0.002120181               0.005007298              -0.000000000               0.000169154               0.001612698               0.001781852               0.000000000               0.000000000               0.000000000               0.000000000               0.002745631               0.005025467              -0.000000000               0.000401424               0.001541331               0.001942755               0.000000000               0.000000000               0.000000000               0.000000000               0.003244581               0.005070575              -0.000000000               0.000582890               0.001495878               0.002078768               0.000000000               0.000000000               0.000000000               0.000000000               0.002130644               0.023082671              -0.000000000              -0.002086337               0.008389593               0.006303255               0.000000000               0.000000000               0.000000000               0.000000000               0.002119292               0.018062628              -0.000000000              -0.001463091               0.006508513               0.005045422               0.000000000               0.000000000               0.000000000               0.000000000               0.002795223               0.013994355               0.000000000              -0.000701084               0.004898433               0.004197349               0.000000000               0.000000000               0.000000000               0.000000000               0.002696790               0.011721389               0.000000000              -0.000453876               0.004058383               0.003604506               0.000000000               0.000000000               0.000000000               0.000000000               0.002360713               0.010312659               0.000000000              -0.000403814               0.003572123               0.003168309               0.000000000               0.000000000               0.000000000               0.000000000               0.001975647               0.009354660              -0.000000000              -0.000428464               0.003261010               0.002832546               0.000000000               0.000000000               0.000000000               0.000000000               0.001609698               0.008643285              -0.000000000              -0.000476773               0.003039990               0.002563218               0.000000000               0.000000000               0.000000000               0.000000000               0.001290859               0.008075939               0.000000000              -0.000525419               0.002867093               0.002341674               0.000000000               0.000000000               0.000000000               0.000000000               0.001024384               0.007588932              -0.000000000              -0.000564471               0.002717776               0.002153305               0.000000000               0.000000000               0.000000000               0.000000000               0.000799501               0.007139929               0.000000000              -0.000592677               0.002577512               0.001984835               0.000000000               0.000000000               0.000000000               0.000000000               0.000601872               0.006708564               0.000000000              -0.000612867               0.002440454               0.001827588               0.000000000               0.000000000               0.000000000               0.000000000               0.000422588               0.006284860               0.000000000              -0.000627135               0.002303977               0.001676842               0.000000000               0.000000000               0.000000000               0.000000000               0.000268021               0.005853355               0.000000000              -0.000631160               0.002161485               0.001530325               0.000000000               0.000000000               0.000000000               0.000000000               0.000147113               0.005396907               0.000000000              -0.000619444               0.002005432               0.001385988               0.000000000               0.000000000               0.000000000               0.000000000               0.000059319               0.004892315              -0.000000000              -0.000589293               0.001827186               0.001237893               0.000000000               0.000000000               0.000000000               0.000000000               0.000016265               0.004322142              -0.000000000              -0.000534167               0.001618755               0.001084588               0.000000000               0.000000000               0.000000000               0.000000000              -0.000038774               0.003883279              -0.000000000              -0.000499949               0.001461063               0.000961114               0.000000000               0.000000000               0.000000000               0.000000000               0.002213375               0.022625757              -0.001579650              -0.001998199               0.008207910               0.006209711               0.000000000               0.000000000               0.000000000               0.000000000               0.002087871               0.017768413              -0.000789765              -0.001438096               0.006402111               0.004964014               0.000000000               0.000000000               0.000000000               0.000000000               0.002639853               0.013878503              -0.000000666              -0.000744866               0.004874410               0.004129544               0.000000000               0.000000000               0.000000000               0.000000000               0.002489643               0.011697491               0.000332921              -0.000528569               0.004075314               0.003546745               0.000000000               0.000000000               0.000000000               0.000000000               0.002142724               0.010333974               0.000468901              -0.000488224               0.003607365               0.003119141               0.000000000               0.000000000               0.000000000               0.000000000               0.001765763               0.009396387               0.000514599              -0.000512386               0.003302893               0.002790507               0.000000000               0.000000000               0.000000000               0.000000000               0.001414749               0.008693134               0.000518490              -0.000556110               0.003083052               0.002526943               0.000000000               0.000000000               0.000000000               0.000000000               0.001112243               0.008126125               0.000502502              -0.000598673               0.002908239               0.002309566               0.000000000               0.000000000               0.000000000               0.000000000               0.000862735               0.007636982               0.000474494              -0.000631096               0.002756000               0.002124905               0.000000000               0.000000000               0.000000000               0.000000000               0.000653183               0.007186741               0.000442452              -0.000653397               0.002613355               0.001959958               0.000000000               0.000000000               0.000000000               0.000000000               0.000472795               0.006755591               0.000413426              -0.000667149               0.002474224               0.001807075               0.000000000               0.000000000               0.000000000               0.000000000               0.000319896               0.006333719               0.000384340              -0.000671752               0.002335136               0.001663384               0.000000000               0.000000000               0.000000000               0.000000000               0.000194031               0.005908113               0.000348015              -0.000665751               0.002191268               0.001525517               0.000000000               0.000000000               0.000000000               0.000000000               0.000097474               0.005463806               0.000297729              -0.000646421               0.002036724               0.001390303               0.000000000               0.000000000               0.000000000               0.000000000               0.000031490               0.004984149               0.000229490              -0.000611208               0.001865102               0.001253894               0.000000000               0.000000000               0.000000000               0.000000000               0.000003270               0.004454698               0.000132337              -0.000555610               0.001670088               0.001114478               0.000000000               0.000000000               0.000000000               0.000000000              -0.000041517               0.004059089               0.000082412              -0.000522954               0.001527334               0.001004380               0.000000000               0.000000000               0.000000000               0.000000000               0.002408649               0.021303550              -0.002939028              -0.001759697               0.007687678               0.005927980               0.000000000               0.000000000               0.000000000               0.000000000               0.001962117               0.016921618              -0.001468970              -0.001379405               0.006100285               0.004720879               0.000000000               0.000000000               0.000000000               0.000000000               0.002171290               0.013534326              -0.000017875              -0.000877555               0.004803915               0.003926360               0.000000000               0.000000000               0.000000000               0.000000000               0.001897200               0.011607951               0.000573165              -0.000739542               0.004115792               0.003376250               0.000000000               0.000000000               0.000000000               0.000000000               0.001531527               0.010370119               0.000802783              -0.000721941               0.003697318               0.002975378               0.000000000               0.000000000               0.000000000               0.000000000               0.001181487               0.009487467               0.000872203              -0.000742874               0.003410082               0.002667208               0.000000000               0.000000000               0.000000000               0.000000000               0.000878989               0.008804124               0.000870984              -0.000770893               0.003191643               0.002420750               0.000000000               0.000000000               0.000000000               0.000000000               0.000632946               0.008239975               0.000837988              -0.000792640               0.003010844               0.002218204               0.000000000               0.000000000               0.000000000               0.000000000               0.000439778               0.007745254               0.000788318              -0.000803238               0.002849471               0.002046233               0.000000000               0.000000000               0.000000000               0.000000000               0.000284561               0.007292122               0.000732806              -0.000804803               0.002698951               0.001894148               0.000000000               0.000000000               0.000000000               0.000000000               0.000158520               0.006862631               0.000680799              -0.000798382               0.002553648               0.001755266               0.000000000               0.000000000               0.000000000               0.000000000               0.000061915               0.006446098               0.000628335              -0.000782542               0.002409525               0.001626983               0.000000000               0.000000000               0.000000000               0.000000000              -0.000006429               0.006035896               0.000563542              -0.000756896               0.002264244               0.001507348               0.000000000               0.000000000               0.000000000               0.000000000              -0.000045155               0.005624260               0.000475233              -0.000719964               0.002114723               0.001394758               0.000000000               0.000000000               0.000000000               0.000000000              -0.000056213               0.005203093               0.000355802              -0.000671465               0.001958169               0.001286704               0.000000000               0.000000000               0.000000000               0.000000000              -0.000038330               0.004773555               0.000197511              -0.000611066               0.001794858               0.001183791               0.000000000               0.000000000               0.000000000               0.000000000              -0.000052554               0.004477516               0.000119909              -0.000579396               0.001685622               0.001106226               0.000000000               0.000000000               0.000000000               0.000000000               0.002607465               0.019271943              -0.003918830              -0.001431192               0.006900980               0.005469788               0.000000000               0.000000000               0.000000000               0.000000000               0.001707449               0.015635478              -0.001964905              -0.001314139               0.005649820               0.004335681               0.000000000               0.000000000               0.000000000               0.000000000               0.001438657               0.012996549              -0.000066588              -0.001085070               0.004693829               0.003608760               0.000000000               0.000000000               0.000000000               0.000000000               0.001019860               0.011424948               0.000663550              -0.001045668               0.004156834               0.003111165               0.000000000               0.000000000               0.000000000               0.000000000               0.000652462               0.010354775               0.000928490              -0.001049671               0.003801447               0.002751776               0.000000000               0.000000000               0.000000000               0.000000000               0.000365150               0.009546733               0.000998633              -0.001056408               0.003534349               0.002477941               0.000000000               0.000000000               0.000000000               0.000000000               0.000151693               0.008891332               0.000988990              -0.001054529               0.003315258               0.002260728               0.000000000               0.000000000               0.000000000               0.000000000               0.000000294               0.008328155               0.000943889              -0.001040907               0.003122993               0.002082086               0.000000000               0.000000000               0.000000000               0.000000000              -0.000103627               0.007826257               0.000880646              -0.001017140               0.002947773               0.001930633               0.000000000               0.000000000               0.000000000               0.000000000              -0.000175649               0.007364834               0.000813426              -0.000986470               0.002783743               0.001797273               0.000000000               0.000000000               0.000000000               0.000000000              -0.000220271               0.006933909               0.000750313              -0.000949338               0.002627726               0.001678388               0.000000000               0.000000000               0.000000000               0.000000000              -0.000234765               0.006527011               0.000687550              -0.000903911               0.002476952               0.001573041               0.000000000               0.000000000               0.000000000               0.000000000              -0.000222094               0.006139972               0.000611607              -0.000850780               0.002330230               0.001479450               0.000000000               0.000000000               0.000000000               0.000000000              -0.000188809               0.005768515               0.000506785              -0.000791866               0.002186774               0.001394909               0.000000000               0.000000000               0.000000000               0.000000000              -0.000135992               0.005418024               0.000368772              -0.000728248               0.002048740               0.001320491               0.000000000               0.000000000               0.000000000               0.000000000              -0.000070489               0.005105082               0.000199733              -0.000664567               0.001923199               0.001258633               0.000000000               0.000000000               0.000000000               0.000000000              -0.000057209               0.004913904               0.000118889              -0.000635690               0.001849848               0.001214158               0.000000000               0.000000000               0.000000000               0.000000000               0.002680414               0.016772239              -0.004428941              -0.001091376               0.005954481               0.004863106               0.000000000               0.000000000               0.000000000               0.000000000               0.001299505               0.014076747              -0.002254353              -0.001272277               0.005116294               0.003844017               0.000000000               0.000000000               0.000000000               0.000000000               0.000525032               0.012327767              -0.000177685              -0.001344081               0.004557241               0.003213161               0.000000000               0.000000000               0.000000000               0.000000000               0.000007481               0.011142620               0.000570542              -0.001390019               0.004177509               0.002787490               0.000000000               0.000000000               0.000000000               0.000000000              -0.000311204               0.010240949               0.000826108              -0.001396817               0.003879221               0.002482404               0.000000000               0.000000000               0.000000000               0.000000000              -0.000492972               0.009505053               0.000886784              -0.001372993               0.003625984               0.002252991               0.000000000               0.000000000               0.000000000               0.000000000              -0.000586851               0.008871723               0.000870454              -0.001329031               0.003400222               0.002071190               0.000000000               0.000000000               0.000000000               0.000000000              -0.000627479               0.008303606               0.000825493              -0.001273253               0.003192258               0.001919006               0.000000000               0.000000000               0.000000000               0.000000000              -0.000628101               0.007791494               0.000768155              -0.001209472               0.003000296               0.001790824               0.000000000               0.000000000               0.000000000               0.000000000              -0.000598038               0.007326871               0.000708203              -0.001140120               0.002822306               0.001682186               0.000000000               0.000000000               0.000000000               0.000000000              -0.000543961               0.006901841               0.000651739              -0.001066713               0.002656161               0.001589449               0.000000000               0.000000000               0.000000000               0.000000000              -0.000467659               0.006508056               0.000593350              -0.000988877               0.002498956               0.001510079               0.000000000               0.000000000               0.000000000               0.000000000              -0.000372683               0.006141975               0.000520250              -0.000907501               0.002349805               0.001442304               0.000000000               0.000000000               0.000000000               0.000000000              -0.000268538               0.005808980               0.000419844              -0.000826822               0.002211915               0.001385093               0.000000000               0.000000000               0.000000000               0.000000000              -0.000164886               0.005525013               0.000294680              -0.000752457               0.002092471               0.001340015               0.000000000               0.000000000               0.000000000               0.000000000              -0.000076508               0.005308443               0.000152975              -0.000692244               0.002000211               0.001307967               0.000000000               0.000000000               0.000000000               0.000000000              -0.000049682               0.005198958               0.000085938              -0.000668499               0.001955801               0.001287303               0.000000000               0.000000000               0.000000000               0.000000000               0.002493130               0.014064451              -0.004473250              -0.000823135               0.004962481               0.004139346               0.000000000               0.000000000               0.000000000               0.000000000               0.000732124               0.012420823              -0.002364861              -0.001278055               0.004566251               0.003288196               0.000000000               0.000000000               0.000000000               0.000000000              -0.000459777               0.011591830              -0.000371554              -0.001621391               0.004404369               0.002782977               0.000000000               0.000000000               0.000000000               0.000000000              -0.000983415               0.010766588               0.000305248              -0.001714600               0.004160360               0.002445760               0.000000000               0.000000000               0.000000000               0.000000000              -0.001191313               0.010008969               0.000528388              -0.001697860               0.003902243               0.002204383               0.000000000               0.000000000               0.000000000               0.000000000              -0.001238094               0.009326276               0.000583959              -0.001630066               0.003652083               0.002022017               0.000000000               0.000000000               0.000000000               0.000000000              -0.001196324               0.008704801               0.000577621              -0.001536718               0.003413810               0.001877093               0.000000000               0.000000000               0.000000000               0.000000000              -0.001108743               0.008140168               0.000553063              -0.001433296               0.003191128               0.001757831               0.000000000               0.000000000               0.000000000               0.000000000              -0.000997744               0.007630117               0.000524185              -0.001327916               0.002985985               0.001658070               0.000000000               0.000000000               0.000000000               0.000000000              -0.000870244               0.007175767               0.000491711              -0.001223309               0.002799668               0.001576359               0.000000000               0.000000000               0.000000000               0.000000000              -0.000730107               0.006766332               0.000454595              -0.001119579               0.002628614               0.001509035               0.000000000               0.000000000               0.000000000               0.000000000              -0.000580332               0.006388809               0.000409090              -0.001016223               0.002468323               0.001452100               0.000000000               0.000000000               0.000000000               0.000000000              -0.000423956               0.006043956               0.000350344              -0.000914476               0.002319457               0.001404981               0.000000000               0.000000000               0.000000000               0.000000000              -0.000275376               0.005747856               0.000272102              -0.000821746               0.002189848               0.001368102               0.000000000               0.000000000               0.000000000               0.000000000              -0.000151108               0.005517400               0.000179577              -0.000746339               0.002087895               0.001341556               0.000000000               0.000000000               0.000000000               0.000000000              -0.000062862               0.005362413               0.000087680              -0.000693873               0.002018744               0.001324871               0.000000000               0.000000000               0.000000000               0.000000000              -0.000035950               0.005294766               0.000048036              -0.000675325               0.001990013               0.001314687               0.000000000               0.000000000               0.000000000               0.000000000               0.001978778               0.011369545              -0.004129046              -0.000679154               0.004016194               0.003337040               0.000000000               0.000000000               0.000000000               0.000000000               0.000035488               0.010795732              -0.002346541              -0.001336157               0.004043926               0.002707770               0.000000000               0.000000000               0.000000000               0.000000000              -0.001406084               0.010816314              -0.000654486              -0.001879316               0.004231841               0.002352524               0.000000000               0.000000000               0.000000000               0.000000000              -0.001833063               0.010286553              -0.000094878              -0.001973213               0.004086554               0.002113342               0.000000000               0.000000000               0.000000000               0.000000000              -0.001879634               0.009644725               0.000104082              -0.001910449               0.003851693               0.001941244               0.000000000               0.000000000               0.000000000               0.000000000              -0.001770745               0.009008957               0.000176190              -0.001790145               0.003599671               0.001809526               0.000000000               0.000000000               0.000000000               0.000000000              -0.001592545               0.008413229               0.000202381              -0.001648854               0.003354000               0.001705146               0.000000000               0.000000000               0.000000000               0.000000000              -0.001385359               0.007868472               0.000217316              -0.001503065               0.003123819               0.001620755               0.000000000               0.000000000               0.000000000               0.000000000              -0.001172311               0.007378894               0.000228628              -0.001361975               0.002913599               0.001551623               0.000000000               0.000000000               0.000000000               0.000000000              -0.000961118               0.006941476               0.000233293              -0.001228101               0.002723169               0.001495069               0.000000000               0.000000000               0.000000000               0.000000000              -0.000752880               0.006546568               0.000223829              -0.001100648               0.002549050               0.001448402               0.000000000               0.000000000               0.000000000               0.000000000              -0.000555000               0.006183150               0.000199305              -0.000981016               0.002388035               0.001407018               0.000000000               0.000000000               0.000000000               0.000000000              -0.000374075               0.005864230               0.000164612              -0.000873305               0.002245825               0.001372521               0.000000000               0.000000000               0.000000000               0.000000000              -0.000222882               0.005607396               0.000120019              -0.000784503               0.002130615               0.001346111               0.000000000               0.000000000               0.000000000               0.000000000              -0.000111176               0.005420922               0.000070531              -0.000719304               0.002046724               0.001327420               0.000000000               0.000000000               0.000000000               0.000000000              -0.000041117               0.005299136               0.000029516              -0.000677809               0.001992297               0.001314488               0.000000000               0.000000000               0.000000000               0.000000000              -0.000023910               0.005242677               0.000016761              -0.000664299               0.001968974               0.001304675               0.000000000               0.000000000               0.000000000               0.000000000               0.001170794               0.008861085              -0.003493946              -0.000668590               0.003176528               0.002507938               0.000000000               0.000000000               0.000000000               0.000000000              -0.000746537               0.009289623              -0.002247370              -0.001441152               0.003576894               0.002135741               0.000000000               0.000000000               0.000000000               0.000000000              -0.002216351               0.010005889              -0.001020472              -0.002081863               0.004029217               0.001947355               0.000000000               0.000000000               0.000000000               0.000000000              -0.002455155               0.009703231              -0.000568351              -0.002133582               0.003945572               0.001811990               0.000000000               0.000000000               0.000000000               0.000000000              -0.002317308               0.009161292              -0.000361576              -0.002014147               0.003725116               0.001710969               0.000000000               0.000000000               0.000000000               0.000000000              -0.002056793               0.008584072              -0.000246789              -0.001844302               0.003476096               0.001631794               0.000000000               0.000000000               0.000000000               0.000000000              -0.001757491               0.008035158              -0.000170997              -0.001663450               0.003232842               0.001569393               0.000000000               0.000000000               0.000000000               0.000000000              -0.001456464               0.007528582              -0.000110736              -0.001487243               0.003005250               0.001518007               0.000000000               0.000000000               0.000000000               0.000000000              -0.001168722               0.007064431              -0.000056142              -0.001321321               0.002795227               0.001473906               0.000000000               0.000000000               0.000000000               0.000000000              -0.000898329               0.006640639              -0.000010702              -0.001166951               0.002602508               0.001435557               0.000000000               0.000000000               0.000000000               0.000000000              -0.000649649               0.006253489               0.000014656              -0.001025302               0.002426243               0.001400941               0.000000000               0.000000000               0.000000000               0.000000000              -0.000434383               0.005912052               0.000019452              -0.000901898               0.002271297               0.001369399               0.000000000               0.000000000               0.000000000               0.000000000              -0.000261904               0.005632250               0.000016743              -0.000802243               0.002144812               0.001342569               0.000000000               0.000000000               0.000000000               0.000000000              -0.000137463               0.005420076               0.000010163              -0.000729056               0.002049693               0.001320637               0.000000000               0.000000000               0.000000000               0.000000000              -0.000058717               0.005271561               0.000000628              -0.000680962               0.001984157               0.001303195               0.000000000               0.000000000               0.000000000               0.000000000              -0.000019729               0.005172343              -0.000003997              -0.000653940               0.001942077               0.001288137               0.000000000               0.000000000               0.000000000               0.000000000              -0.000016780               0.005122382               0.000000415              -0.000646588               0.001922973               0.001276385               0.000000000               0.000000000               0.000000000               0.000000000               0.000183890               0.006726954              -0.002690318              -0.000771911               0.002499598               0.001727687               0.000000000               0.000000000               0.000000000               0.000000000              -0.001505886               0.007935421              -0.002122757              -0.001556632               0.003163991               0.001607358               0.000000000               0.000000000               0.000000000               0.000000000              -0.002836130               0.009203107              -0.001455270              -0.002213932               0.003805649               0.001591717               0.000000000               0.000000000               0.000000000               0.000000000              -0.002872002               0.009139707              -0.001071078              -0.002219459               0.003786358               0.001566899               0.000000000               0.000000000               0.000000000               0.000000000              -0.002580244               0.008730835              -0.000830557              -0.002058941               0.003596563               0.001537622               0.000000000               0.000000000               0.000000000               0.000000000              -0.002199127               0.008242621              -0.000658470              -0.001854996               0.003365845               0.001510849               0.000000000               0.000000000               0.000000000               0.000000000              -0.001808386               0.007754263              -0.000526079              -0.001647423               0.003133870               0.001486446               0.000000000               0.000000000               0.000000000               0.000000000              -0.001438432               0.007290860              -0.000422962              -0.001450766               0.002913851               0.001463085               0.000000000               0.000000000               0.000000000               0.000000000              -0.001096802               0.006857169              -0.000331877              -0.001268444               0.002708515               0.001440071               0.000000000               0.000000000               0.000000000               0.000000000              -0.000788266               0.006451599              -0.000248391              -0.001102047               0.002517860               0.001415814               0.000000000               0.000000000               0.000000000               0.000000000              -0.000522756               0.006074075              -0.000179983              -0.000955291               0.002343102               0.001387811               0.000000000               0.000000000               0.000000000               0.000000000              -0.000310126               0.005749115              -0.000131492              -0.000834935               0.002194664               0.001359730               0.000000000               0.000000000               0.000000000               0.000000000              -0.000155975               0.005493858              -0.000094180              -0.000745221               0.002079675               0.001334454               0.000000000               0.000000000               0.000000000               0.000000000              -0.000063567               0.005304256              -0.000061644              -0.000686868               0.001997024               0.001310156               0.000000000               0.000000000               0.000000000               0.000000000              -0.000022859               0.005170672              -0.000037411              -0.000654905               0.001941842               0.001286937               0.000000000               0.000000000               0.000000000               0.000000000              -0.000017643               0.005082648              -0.000018752              -0.000641946               0.001908181               0.001266235               0.000000000               0.000000000               0.000000000               0.000000000              -0.000025693               0.005042358              -0.000007447              -0.000639928               0.001894079               0.001254150               0.000000000               0.000000000               0.000000000               0.000000000              -0.000984422               0.004726878              -0.001834401              -0.000960017               0.001895615               0.000935598               0.000000000               0.000000000               0.000000000               0.000000000              -0.002124460               0.006369547              -0.001980409              -0.001592863               0.002654115               0.001061252               0.000000000               0.000000000               0.000000000               0.000000000              -0.003177587               0.008035219              -0.001916471              -0.002195993               0.003410377               0.001214384               0.000000000               0.000000000               0.000000000               0.000000000              -0.003108838               0.008338687              -0.001610914              -0.002208145               0.003515583               0.001307438               0.000000000               0.000000000               0.000000000               0.000000000              -0.002761011               0.008186213              -0.001334095              -0.002058651               0.003414927               0.001356276               0.000000000               0.000000000               0.000000000               0.000000000              -0.002348584               0.007877975              -0.001107296              -0.001865461               0.003247786               0.001382324               0.000000000               0.000000000               0.000000000               0.000000000              -0.001928482               0.007521309              -0.000925007              -0.001663340               0.003061525               0.001398184               0.000000000               0.000000000               0.000000000               0.000000000              -0.001530792               0.007152492              -0.000778725              -0.001468105               0.002873508               0.001405403               0.000000000               0.000000000               0.000000000               0.000000000              -0.001169468               0.006789935              -0.000649234              -0.001287289               0.002692386               0.001405096               0.000000000               0.000000000               0.000000000               0.000000000              -0.000847925               0.006443137              -0.000526335              -0.001123361               0.002522145               0.001398783               0.000000000               0.000000000               0.000000000               0.000000000              -0.000571435               0.006112166              -0.000413482              -0.000978307               0.002363471               0.001385164               0.000000000               0.000000000               0.000000000               0.000000000              -0.000346868               0.005808362              -0.000315683              -0.000856119               0.002221474               0.001365355               0.000000000               0.000000000               0.000000000               0.000000000              -0.000180618               0.005548542              -0.000227939              -0.000761298               0.002103261               0.001341964               0.000000000               0.000000000               0.000000000               0.000000000              -0.000076959               0.005338704              -0.000149917              -0.000696196               0.002011616               0.001315420               0.000000000               0.000000000               0.000000000               0.000000000              -0.000031917               0.005181889              -0.000085331              -0.000659703               0.001947180               0.001287477               0.000000000               0.000000000               0.000000000               0.000000000              -0.000033184               0.005072630              -0.000033879              -0.000646521               0.001906367               0.001259846               0.000000000               0.000000000               0.000000000               0.000000000              -0.000047685               0.005025807              -0.000010314              -0.000646106               0.001890621               0.001244515               0.000000000               0.000000000               0.000000000               0.000000000              -0.002489153               0.002912547              -0.000978519              -0.001297498               0.001403338               0.000105840               0.000000000               0.000000000               0.000000000               0.000000000              -0.002818347               0.004796890              -0.001762473              -0.001656488               0.002151109               0.000494621               0.000000000               0.000000000               0.000000000               0.000000000              -0.003411524               0.006679241              -0.002280248              -0.002114222               0.002931131               0.000816909               0.000000000               0.000000000               0.000000000               0.000000000              -0.003253979               0.007336512              -0.002123905              -0.002137301               0.003157913               0.001020611               0.000000000               0.000000000               0.000000000               0.000000000              -0.002881085               0.007480809              -0.001848550              -0.002015503               0.003165412               0.001149909               0.000000000               0.000000000               0.000000000               0.000000000              -0.002462501               0.007394697              -0.001589236              -0.001847771               0.003080798               0.001233027               0.000000000               0.000000000               0.000000000               0.000000000              -0.002039676               0.007206029              -0.001369974              -0.001665628               0.002957195               0.001291566               0.000000000               0.000000000               0.000000000               0.000000000              -0.001635475               0.006968341              -0.001184087              -0.001484342               0.002817538               0.001333195               0.000000000               0.000000000               0.000000000               0.000000000              -0.001265096               0.006703559              -0.001017619              -0.001312353               0.002671948               0.001359595               0.000000000               0.000000000               0.000000000               0.000000000              -0.000929640               0.006434326              -0.000861716              -0.001152903               0.002529055               0.001376152               0.000000000               0.000000000               0.000000000               0.000000000              -0.000632119               0.006165494              -0.000714246              -0.001007729               0.002391054               0.001383325               0.000000000               0.000000000               0.000000000               0.000000000              -0.000380280               0.005900247              -0.000575669              -0.000880134               0.002260107               0.001379974               0.000000000               0.000000000               0.000000000               0.000000000              -0.000183358               0.005649908              -0.000442144              -0.000774996               0.002141616               0.001366620               0.000000000               0.000000000               0.000000000               0.000000000              -0.000046804               0.005428205              -0.000313343              -0.000696076               0.002041409               0.001345333               0.000000000               0.000000000               0.000000000               0.000000000               0.000018957               0.005245006              -0.000191646              -0.000648515               0.001964490               0.001315974               0.000000000               0.000000000               0.000000000               0.000000000               0.000017260               0.005105141              -0.000084897              -0.000631669               0.001912253               0.001280584               0.000000000               0.000000000               0.000000000               0.000000000              -0.000010142               0.005040313              -0.000032565              -0.000633841               0.001891368               0.001257527               0.000000000               0.000000000               0.000000000               0.000000000              -0.004237512               0.001424259              -0.000193048              -0.001767097               0.001063778              -0.000703319               0.000000000               0.000000000               0.000000000               0.000000000              -0.003646318               0.003309420              -0.001446428              -0.001781043               0.001696809              -0.000084234               0.000000000               0.000000000               0.000000000               0.000000000              -0.003582961               0.005152209              -0.002429280              -0.001987633               0.002379929               0.000392296               0.000000000               0.000000000               0.000000000               0.000000000              -0.003253351               0.006054647              -0.002462576              -0.001976833               0.002677139               0.000700306               0.000000000               0.000000000               0.000000000               0.000000000              -0.002841929               0.006468841              -0.002244383              -0.001874325               0.002781033               0.000906708               0.000000000               0.000000000               0.000000000               0.000000000              -0.002423399               0.006621644              -0.001988963              -0.001736477               0.002786018               0.001049541               0.000000000               0.000000000               0.000000000               0.000000000              -0.002015077               0.006627246              -0.001755239              -0.001584056               0.002737078               0.001153022               0.000000000               0.000000000               0.000000000               0.000000000              -0.001623219               0.006547094              -0.001546623              -0.001427091               0.002658039               0.001230948               0.000000000               0.000000000               0.000000000               0.000000000              -0.001256721               0.006409400              -0.001356311              -0.001272443               0.002560593               0.001288150               0.000000000               0.000000000               0.000000000               0.000000000              -0.000917709               0.006243855              -0.001181117              -0.001124620               0.002456138               0.001331517               0.000000000               0.000000000               0.000000000               0.000000000              -0.000605781               0.006062400              -0.001015960              -0.000984966               0.002349102               0.001364136               0.000000000               0.000000000               0.000000000               0.000000000              -0.000326224               0.005866465              -0.000856080              -0.000855640               0.002240682               0.001385042               0.000000000               0.000000000               0.000000000               0.000000000              -0.000091229               0.005662764              -0.000693199              -0.000742055               0.002134921               0.001392866               0.000000000               0.000000000               0.000000000               0.000000000               0.000085357               0.005463818              -0.000521629              -0.000650967               0.002038243               0.001387276               0.000000000               0.000000000               0.000000000               0.000000000               0.000191244               0.005282871              -0.000342279              -0.000588641               0.001957153               0.001368512               0.000000000               0.000000000               0.000000000               0.000000000               0.000213243               0.005129359              -0.000165716              -0.000561202               0.001896837               0.001335634               0.000000000               0.000000000               0.000000000               0.000000000               0.000185502               0.005050785              -0.000074887              -0.000561783               0.001870839               0.001309056               0.000000000               0.000000000               0.000000000               0.000000000              -0.006098018               0.000329719               0.000410852              -0.002327969               0.000885890              -0.001442079               0.000000000               0.000000000               0.000000000               0.000000000              -0.004551267               0.001989854              -0.001074851              -0.001955454               0.001315093              -0.000640361               0.000000000               0.000000000               0.000000000               0.000000000              -0.003719588               0.003578270              -0.002333464              -0.001842126               0.001806785              -0.000035341               0.000000000               0.000000000               0.000000000               0.000000000              -0.003135196               0.004590085              -0.002541215              -0.001749456               0.002113164               0.000363708               0.000000000               0.000000000               0.000000000               0.000000000              -0.002648714               0.005218585              -0.002411385              -0.001645588               0.002288039               0.000642451               0.000000000               0.000000000               0.000000000               0.000000000              -0.002220258               0.005596329              -0.002194018              -0.001532135               0.002376135               0.000844000               0.000000000               0.000000000               0.000000000               0.000000000              -0.001829666               0.005798648              -0.001975821              -0.001410953               0.002403181               0.000992227               0.000000000               0.000000000               0.000000000               0.000000000              -0.001462500               0.005884951              -0.001770354              -0.001284054               0.002389648               0.001105594               0.000000000               0.000000000               0.000000000               0.000000000              -0.001110016               0.005897130              -0.001577033              -0.001153395               0.002350155               0.001196760               0.000000000               0.000000000               0.000000000               0.000000000              -0.000773442               0.005858932              -0.001399045              -0.001022405               0.002293759               0.001271354               0.000000000               0.000000000               0.000000000               0.000000000              -0.000454208               0.005784517              -0.001234272              -0.000893391               0.002225950               0.001332559               0.000000000               0.000000000               0.000000000               0.000000000              -0.000152992               0.005683780              -0.001073542              -0.000767843               0.002150522               0.001382679               0.000000000               0.000000000               0.000000000               0.000000000               0.000120887               0.005556025              -0.000902768              -0.000649169               0.002068379               0.001419210               0.000000000               0.000000000               0.000000000               0.000000000               0.000354469               0.005410624              -0.000712776              -0.000543401               0.001984657               0.001441256               0.000000000               0.000000000               0.000000000               0.000000000               0.000531703               0.005265520              -0.000497845              -0.000458800               0.001908089               0.001449289               0.000000000               0.000000000               0.000000000               0.000000000               0.000629253               0.005129702              -0.000258357              -0.000405242               0.001844964               0.001439722               0.000000000               0.000000000               0.000000000               0.000000000               0.000647862               0.005059491              -0.000131902              -0.000389487               0.001816309               0.001426822               0.000000000               0.000000000               0.000000000               0.000000000              -0.007882951              -0.000379535               0.000732653              -0.002908663               0.000843037              -0.002065626               0.000000000               0.000000000               0.000000000               0.000000000              -0.005453537               0.000919950              -0.000709574              -0.002160068               0.001026665              -0.001133402               0.000000000               0.000000000               0.000000000               0.000000000              -0.003840234               0.002120344              -0.001993706              -0.001705128               0.001275148              -0.000429980               0.000000000               0.000000000               0.000000000               0.000000000              -0.002953250               0.003125812              -0.002306428              -0.001498193               0.001541323               0.000043130               0.000000000               0.000000000               0.000000000               0.000000000              -0.002359307               0.003886072              -0.002265626              -0.001370497               0.001752176               0.000381679               0.000000000               0.000000000               0.000000000               0.000000000              -0.001901513               0.004439269              -0.002108244              -0.001267974               0.001902399               0.000634425               0.000000000               0.000000000               0.000000000               0.000000000              -0.001519790               0.004820926              -0.001928429              -0.001172535               0.001997804               0.000825268               0.000000000               0.000000000               0.000000000               0.000000000              -0.001177025               0.005068317              -0.001751808              -0.001074922               0.002047729               0.000972807               0.000000000               0.000000000               0.000000000               0.000000000              -0.000845157               0.005226905              -0.001582504              -0.000970296               0.002065716               0.001095420               0.000000000               0.000000000               0.000000000               0.000000000              -0.000516208               0.005322824              -0.001424286              -0.000858930               0.002060566               0.001201637               0.000000000               0.000000000               0.000000000               0.000000000              -0.000191456               0.005369707              -0.001277625              -0.000743008               0.002037554               0.001294545               0.000000000               0.000000000               0.000000000               0.000000000               0.000125663               0.005376213              -0.001133690              -0.000624902               0.002000354               0.001375451               0.000000000               0.000000000               0.000000000               0.000000000               0.000436626               0.005347293              -0.000979890              -0.000504676               0.001950638               0.001445962               0.000000000               0.000000000               0.000000000               0.000000000               0.000737742               0.005288113              -0.000801311              -0.000384360               0.001890807               0.001506446               0.000000000               0.000000000               0.000000000               0.000000000               0.001012632               0.005204604              -0.000583657              -0.000270838               0.001825130               0.001554292               0.000000000               0.000000000               0.000000000               0.000000000               0.001241874               0.005107104              -0.000316954              -0.000172685               0.001759913               0.001587228               0.000000000               0.000000000               0.000000000               0.000000000               0.001369199               0.005065147              -0.000175832              -0.000119694               0.001728263               0.001608570               0.000000000               0.000000000               0.000000000               0.000000000              -0.009381839              -0.000771954               0.000729675              -0.003421693               0.000883240              -0.002538453               0.000000000               0.000000000               0.000000000               0.000000000              -0.006242147               0.000150044              -0.000405444              -0.002359559               0.000836528              -0.001523030               0.000000000               0.000000000               0.000000000               0.000000000              -0.003953654               0.000944182              -0.001449484              -0.001600641               0.000848268              -0.000752373               0.000000000               0.000000000               0.000000000               0.000000000              -0.002768845               0.001867906              -0.001756929              -0.001271803               0.001046562              -0.000225241               0.000000000               0.000000000               0.000000000               0.000000000              -0.002055976               0.002683787              -0.001772935              -0.001106463               0.001263407               0.000156944               0.000000000               0.000000000               0.000000000               0.000000000              -0.001559301               0.003350989              -0.001678863              -0.001003610               0.001451521               0.000447911               0.000000000               0.000000000               0.000000000               0.000000000              -0.001176012               0.003868211              -0.001553573              -0.000924529               0.001597567               0.000673037               0.000000000               0.000000000               0.000000000               0.000000000              -0.000849050               0.004248617              -0.001426872              -0.000849469               0.001699347               0.000849878               0.000000000               0.000000000               0.000000000               0.000000000              -0.000534415               0.004535351              -0.001303097              -0.000767323               0.001767543               0.001000219               0.000000000               0.000000000               0.000000000               0.000000000              -0.000217471               0.004755408              -0.001184648              -0.000675976               0.001810445               0.001134469               0.000000000               0.000000000               0.000000000               0.000000000               0.000104435               0.004913537              -0.001073532              -0.000575028               0.001829505               0.001254477               0.000000000               0.000000000               0.000000000               0.000000000               0.000435985               0.005021986              -0.000964785              -0.000464253               0.001828729               0.001364476               0.000000000               0.000000000               0.000000000               0.000000000               0.000783408               0.005094525              -0.000849846              -0.000343037               0.001812504               0.001469467               0.000000000               0.000000000               0.000000000               0.000000000               0.001150128               0.005129568              -0.000711009              -0.000209898               0.001779805               0.001569907               0.000000000               0.000000000               0.000000000               0.000000000               0.001537909               0.005123854              -0.000531419              -0.000063766               0.001729189               0.001665423               0.000000000               0.000000000               0.000000000               0.000000000               0.001939535               0.005076852              -0.000295029               0.000092718               0.001661361               0.001754079               0.000000000               0.000000000               0.000000000               0.000000000               0.002223713               0.005071632              -0.000171113               0.000199936               0.001623882               0.001823818               0.000000000               0.000000000               0.000000000               0.000000000              -0.010381586              -0.000948415               0.000448512              -0.003774540               0.000942036              -0.002832505               0.000000000               0.000000000               0.000000000               0.000000000              -0.006782975              -0.000310646              -0.000175001              -0.002504783               0.000731374              -0.001773409               0.000000000               0.000000000               0.000000000               0.000000000              -0.004038264               0.000177584              -0.000759183              -0.001536546               0.000571372              -0.000965173               0.000000000               0.000000000               0.000000000               0.000000000              -0.002640599               0.001014520              -0.000948174              -0.001117038               0.000710514              -0.000406524               0.000000000               0.000000000               0.000000000               0.000000000              -0.001834897               0.001842591              -0.000974505              -0.000918408               0.000920326               0.000001918               0.000000000               0.000000000               0.000000000               0.000000000              -0.001303897               0.002564884              -0.000933765              -0.000809570               0.001124809               0.000315239               0.000000000               0.000000000               0.000000000               0.000000000              -0.000908441               0.003161944              -0.000870205              -0.000735907               0.001299273               0.000563366               0.000000000               0.000000000               0.000000000               0.000000000              -0.000585028               0.003631588              -0.000806290              -0.000673333               0.001434961               0.000761629               0.000000000               0.000000000               0.000000000               0.000000000              -0.000287967               0.004004663              -0.000742736              -0.000608569               0.001537731               0.000929161               0.000000000               0.000000000               0.000000000               0.000000000               0.000013828               0.004310120              -0.000678128              -0.000533578               0.001614552               0.001080973               0.000000000               0.000000000               0.000000000               0.000000000               0.000331674               0.004552811              -0.000617557              -0.000444723               0.001665829               0.001221107               0.000000000               0.000000000               0.000000000               0.000000000               0.000674919               0.004739727              -0.000559388              -0.000339371               0.001693017               0.001353646               0.000000000               0.000000000               0.000000000               0.000000000               0.001053176               0.004886081              -0.000497029              -0.000215819               0.001700617               0.001484798               0.000000000               0.000000000               0.000000000               0.000000000               0.001475971               0.004989969              -0.000421680              -0.000070257               0.001686726               0.001616468               0.000000000               0.000000000               0.000000000               0.000000000               0.001958839               0.005044302              -0.000319350               0.000104026               0.001646742               0.001750768               0.000000000               0.000000000               0.000000000               0.000000000               0.002517771               0.005041691              -0.000177037               0.000313950               0.001575897               0.001889846               0.000000000               0.000000000               0.000000000               0.000000000               0.002952438               0.005071181              -0.000103824               0.000473262               0.001532623               0.002005885               0.000000000               0.000000000               0.000000000               0.000000000               0.000000000               0.000000000               0.000000000               0.000000000               0.000000000               0.000000000               0.000000000               0.000000000               0.000000000               0.000000000               0.000000000               0.000000000               0.000000000               0.000000000               0.000000000               0.000000000               0.000000000               0.000000000               0.000000000               0.000000000               0.000000000               0.000000000               0.000000000               0.000000000               0.000000000               0.000000000               0.000000000               0.000000000               0.000000000               0.000000000               0.000000000               0.000000000               0.000000000               0.000000000               0.000000000               0.000000000               0.000000000               0.000000000               0.000000000               0.000000000               0.000000000               0.000000000               0.000000000               0.000000000               0.000000000               0.000000000               0.000000000               0.000000000               0.000000000               0.000000000               0.000000000               0.000000000               0.000000000               0.000000000               0.000000000               0.000000000               0.000000000               0.000000000               0.000000000               0.000000000               0.000000000               0.000000000               0.000000000               0.000000000               0.000000000               0.000000000               0.000000000               0.000000000               0.000000000               0.000000000               0.000000000               0.000000000               0.000000000               0.000000000               0.000000000               0.000000000               0.000000000               0.000000000               0.000000000               0.000000000               0.000000000               0.000000000               0.000000000               0.000000000               0.000000000               0.000000000               0.000000000               0.000000000               0.000000000               0.000000000               0.000000000               0.000000000               0.000000000               0.000000000               0.000000000               0.000000000               0.000000000               0.000000000               0.000000000               0.000000000               0.000000000               0.000000000               0.000000000               0.000000000               0.000000000               0.000000000               0.000000000               0.000000000               0.000000000               0.000000000               0.000000000               0.000000000               0.000000000               0.000000000               0.000000000               0.000000000               0.000000000               0.000000000               0.000000000               0.000000000               0.000000000               0.000000000               0.000000000               0.000000000               0.000000000               0.000000000               0.000000000               0.000000000               0.000000000               0.000000000               0.000000000               0.000000000               0.000000000               0.000000000               0.000000000               0.000000000               0.000000000               0.000000000               0.000000000               0.000000000               0.000000000               0.000000000               0.000000000               0.000000000               0.000000000               0.000000000               0.000000000               0.000000000               0.000000000               0.000000000               0.000000000               0.000000000               0.000000000               0.000000000               0.000000000               0.000000000               0.000000000               0.000000000               0.000000000               0.000000000               0.000000000               0.000000000               0.000000000               0.000000000               0.000000000               0.000000000               0.000000000               0.000000000               0.000000000               0.000000000               0.000000000               0.000000000               0.000000000               0.000000000               0.000000000               0.000000000               0.000000000               0.000000000               0.000000000               0.000000000               0.000000000               0.000000000               0.000000000               0.000000000               0.000000000               0.000000000               0.000000000               0.000000000               0.000000000               0.000000000               0.000000000               0.000000000               0.000000000               0.000000000               0.000000000               0.000000000               0.000000000               0.000000000               0.000000000               0.000000000               0.000000000               0.000000000               0.000000000               0.000000000               0.000000000               0.000000000               0.000000000               0.000000000               0.000000000               0.000000000               0.000000000               0.000000000               0.000000000               0.000000000               0.000000000               0.000000000               0.000000000               0.000000000               0.000000000               0.000000000               0.000000000               0.000000000               0.000000000               0.000000000               0.000000000               0.000000000               0.000000000               0.000000000               0.000000000               0.000000000               0.000000000               0.000000000               0.000000000               0.000000000               0.000000000               0.000000000               0.000000000               0.000000000               0.000000000               0.000000000               0.000000000               0.000000000               0.000000000               0.000000000               0.000000000               0.000000000               0.000000000               0.000000000               0.000000000               0.000000000               0.000000000               0.000000000               0.000000000               0.000000000               0.000000000               0.000000000               0.000000000               0.000000000               0.000000000               0.000000000               0.000000000               0.000000000               0.000000000               0.000000000               0.000000000               0.000000000               0.000000000               0.000000000               0.000000000               0.000000000               0.000000000               0.000000000               0.000000000               0.000000000               0.000000000               0.000000000               0.000000000               0.000000000               0.000000000               0.000000000               0.000000000               0.000000000               0.000000000               0.000000000               0.000000000               0.000000000               0.000000000               0.000000000               0.000000000               0.000000000               0.000000000               0.000000000               0.000000000               0.000000000               0.000000000               0.000000000               0.000000000               0.000000000               0.000000000               0.000000000               0.000000000               0.000000000               0.000000000               0.000000000               0.000000000               0.000000000               0.000000000               0.000000000               0.000000000               0.000000000               0.000000000               0.000000000               0.000000000               0.000000000               0.000000000               0.000000000               0.000000000               0.000000000               0.000000000               0.000000000               0.000000000               0.000000000               0.000000000               0.000000000               0.000000000               0.000000000               0.000000000               0.000000000               0.000000000               0.000000000               0.000000000               0.000000000               0.000000000               0.000000000               0.000000000               0.000000000               0.000000000               0.000000000               0.000000000               0.000000000               0.002213375               0.022625757               0.001579650              -0.001998199               0.008207910               0.006209711               0.000000000               0.000000000               0.000000000               0.000000000               0.002087871               0.017768413               0.000789765              -0.001438096               0.006402111               0.004964014               0.000000000               0.000000000               0.000000000               0.000000000               0.002639853               0.013878503               0.000000666              -0.000744866               0.004874410               0.004129544               0.000000000               0.000000000               0.000000000               0.000000000               0.002489643               0.011697491              -0.000332921              -0.000528569               0.004075314               0.003546745               0.000000000               0.000000000               0.000000000               0.000000000               0.002142724               0.010333974              -0.000468901              -0.000488224               0.003607365               0.003119141               0.000000000               0.000000000               0.000000000               0.000000000               0.001765763               0.009396387              -0.000514599              -0.000512386               0.003302893               0.002790507               0.000000000               0.000000000               0.000000000               0.000000000               0.001414749               0.008693134              -0.000518490              -0.000556110               0.003083052               0.002526943               0.000000000               0.000000000               0.000000000               0.000000000               0.001112243               0.008126125              -0.000502502              -0.000598673               0.002908239               0.002309566               0.000000000               0.000000000               0.000000000               0.000000000               0.000862735               0.007636982              -0.000474494              -0.000631096               0.002756000               0.002124905               0.000000000               0.000000000               0.000000000               0.000000000               0.000653183               0.007186741              -0.000442452              -0.000653397               0.002613355               0.001959958               0.000000000               0.000000000               0.000000000               0.000000000               0.000472795               0.006755591              -0.000413426              -0.000667149               0.002474224               0.001807075               0.000000000               0.000000000               0.000000000               0.000000000               0.000319896               0.006333719              -0.000384340              -0.000671752               0.002335136               0.001663384               0.000000000               0.000000000               0.000000000               0.000000000               0.000194031               0.005908113              -0.000348015              -0.000665751               0.002191268               0.001525517               0.000000000               0.000000000               0.000000000               0.000000000               0.000097474               0.005463806              -0.000297729              -0.000646421               0.002036724               0.001390303               0.000000000               0.000000000               0.000000000               0.000000000               0.000031490               0.004984149              -0.000229490              -0.000611208               0.001865102               0.001253894               0.000000000               0.000000000               0.000000000               0.000000000               0.000003270               0.004454698              -0.000132337              -0.000555610               0.001670088               0.001114478               0.000000000               0.000000000               0.000000000               0.000000000              -0.000041517               0.004059089              -0.000082412              -0.000522954               0.001527334               0.001004380               0.000000000               0.000000000               0.000000000               0.000000000               0.002408649               0.021303550               0.002939028              -0.001759697               0.007687678               0.005927980               0.000000000               0.000000000               0.000000000               0.000000000               0.001962117               0.016921618               0.001468970              -0.001379405               0.006100285               0.004720879               0.000000000               0.000000000               0.000000000               0.000000000               0.002171290               0.013534326               0.000017875              -0.000877555               0.004803915               0.003926360               0.000000000               0.000000000               0.000000000               0.000000000               0.001897200               0.011607951              -0.000573165              -0.000739542               0.004115792               0.003376250               0.000000000               0.000000000               0.000000000               0.000000000               0.001531527               0.010370119              -0.000802783              -0.000721941               0.003697318               0.002975378               0.000000000               0.000000000               0.000000000               0.000000000               0.001181487               0.009487467              -0.000872203              -0.000742874               0.003410082               0.002667208               0.000000000               0.000000000               0.000000000               0.000000000               0.000878989               0.008804124              -0.000870984              -0.000770893               0.003191643               0.002420750               0.000000000               0.000000000               0.000000000               0.000000000               0.000632946               0.008239975              -0.000837988              -0.000792640               0.003010844               0.002218204               0.000000000               0.000000000               0.000000000               0.000000000               0.000439778               0.007745254              -0.000788318              -0.000803238               0.002849471               0.002046233               0.000000000               0.000000000               0.000000000               0.000000000               0.000284561               0.007292122              -0.000732806              -0.000804803               0.002698951               0.001894148               0.000000000               0.000000000               0.000000000               0.000000000               0.000158520               0.006862631              -0.000680799              -0.000798382               0.002553648               0.001755266               0.000000000               0.000000000               0.000000000               0.000000000               0.000061915               0.006446098              -0.000628335              -0.000782542               0.002409525               0.001626983               0.000000000               0.000000000               0.000000000               0.000000000              -0.000006429               0.006035896              -0.000563542              -0.000756896               0.002264244               0.001507348               0.000000000               0.000000000               0.000000000               0.000000000              -0.000045155               0.005624260              -0.000475233              -0.000719964               0.002114723               0.001394758               0.000000000               0.000000000               0.000000000               0.000000000              -0.000056213               0.005203093              -0.000355802              -0.000671465               0.001958169               0.001286704               0.000000000               0.000000000               0.000000000               0.000000000              -0.000038330               0.004773555              -0.000197511              -0.000611066               0.001794858               0.001183791               0.000000000               0.000000000               0.000000000               0.000000000              -0.000052554               0.004477516              -0.000119909              -0.000579396               0.001685622               0.001106226               0.000000000               0.000000000               0.000000000               0.000000000               0.002607465               0.019271943               0.003918830              -0.001431192               0.006900980               0.005469788               0.000000000               0.000000000               0.000000000               0.000000000               0.001707449               0.015635478               0.001964905              -0.001314139               0.005649820               0.004335681               0.000000000               0.000000000               0.000000000               0.000000000               0.001438657               0.012996549               0.000066588              -0.001085070               0.004693829               0.003608760               0.000000000               0.000000000               0.000000000               0.000000000               0.001019860               0.011424948              -0.000663550              -0.001045668               0.004156834               0.003111165               0.000000000               0.000000000               0.000000000               0.000000000               0.000652462               0.010354775              -0.000928490              -0.001049671               0.003801447               0.002751776               0.000000000               0.000000000               0.000000000               0.000000000               0.000365150               0.009546733              -0.000998633              -0.001056408               0.003534349               0.002477941               0.000000000               0.000000000               0.000000000               0.000000000               0.000151693               0.008891332              -0.000988990              -0.001054529               0.003315258               0.002260728               0.000000000               0.000000000               0.000000000               0.000000000               0.000000294               0.008328155              -0.000943889              -0.001040907               0.003122993               0.002082086               0.000000000               0.000000000               0.000000000               0.000000000              -0.000103627               0.007826257              -0.000880646              -0.001017140               0.002947773               0.001930633               0.000000000               0.000000000               0.000000000               0.000000000              -0.000175649               0.007364834              -0.000813426              -0.000986470               0.002783743               0.001797273               0.000000000               0.000000000               0.000000000               0.000000000              -0.000220271               0.006933909              -0.000750313              -0.000949338               0.002627726               0.001678388               0.000000000               0.000000000               0.000000000               0.000000000              -0.000234765               0.006527011              -0.000687550              -0.000903911               0.002476952               0.001573041               0.000000000               0.000000000               0.000000000               0.000000000              -0.000222094               0.006139972              -0.000611607              -0.000850780               0.002330230               0.001479450               0.000000000               0.000000000               0.000000000               0.000000000              -0.000188809               0.005768515              -0.000506785              -0.000791866               0.002186774               0.001394909               0.000000000               0.000000000               0.000000000               0.000000000              -0.000135992               0.005418024              -0.000368772              -0.000728248               0.002048740               0.001320491               0.000000000               0.000000000               0.000000000               0.000000000              -0.000070489               0.005105082              -0.000199733              -0.000664567               0.001923199               0.001258633               0.000000000               0.000000000               0.000000000               0.000000000              -0.000057209               0.004913904              -0.000118889              -0.000635690               0.001849848               0.001214158               0.000000000               0.000000000               0.000000000               0.000000000               0.002680414               0.016772239               0.004428941              -0.001091376               0.005954481               0.004863106               0.000000000               0.000000000               0.000000000               0.000000000               0.001299505               0.014076747               0.002254353              -0.001272277               0.005116294               0.003844017               0.000000000               0.000000000               0.000000000               0.000000000               0.000525032               0.012327767               0.000177685              -0.001344081               0.004557241               0.003213161               0.000000000               0.000000000               0.000000000               0.000000000               0.000007481               0.011142620              -0.000570542              -0.001390019               0.004177509               0.002787490               0.000000000               0.000000000               0.000000000               0.000000000              -0.000311204               0.010240949              -0.000826108              -0.001396817               0.003879221               0.002482404               0.000000000               0.000000000               0.000000000               0.000000000              -0.000492972               0.009505053              -0.000886784              -0.001372993               0.003625984               0.002252991               0.000000000               0.000000000               0.000000000               0.000000000              -0.000586851               0.008871723              -0.000870454              -0.001329031               0.003400222               0.002071190               0.000000000               0.000000000               0.000000000               0.000000000              -0.000627479               0.008303606              -0.000825493              -0.001273253               0.003192258               0.001919006               0.000000000               0.000000000               0.000000000               0.000000000              -0.000628101               0.007791494              -0.000768155              -0.001209472               0.003000296               0.001790824               0.000000000               0.000000000               0.000000000               0.000000000              -0.000598038               0.007326871              -0.000708203              -0.001140120               0.002822306               0.001682186               0.000000000               0.000000000               0.000000000               0.000000000              -0.000543961               0.006901841              -0.000651739              -0.001066713               0.002656161               0.001589449               0.000000000               0.000000000               0.000000000               0.000000000              -0.000467659               0.006508056              -0.000593350              -0.000988877               0.002498956               0.001510079               0.000000000               0.000000000               0.000000000               0.000000000              -0.000372683               0.006141975              -0.000520250              -0.000907501               0.002349805               0.001442304               0.000000000               0.000000000               0.000000000               0.000000000              -0.000268538               0.005808980              -0.000419844              -0.000826822               0.002211915               0.001385093               0.000000000               0.000000000               0.000000000               0.000000000              -0.000164886               0.005525013              -0.000294680              -0.000752457               0.002092471               0.001340015               0.000000000               0.000000000               0.000000000               0.000000000              -0.000076508               0.005308443              -0.000152975              -0.000692244               0.002000211               0.001307967               0.000000000               0.000000000               0.000000000               0.000000000              -0.000049682               0.005198958              -0.000085938              -0.000668499               0.001955801               0.001287303               0.000000000               0.000000000               0.000000000               0.000000000               0.002493130               0.014064451               0.004473250              -0.000823135               0.004962481               0.004139346               0.000000000               0.000000000               0.000000000               0.000000000               0.000732124               0.012420823               0.002364861              -0.001278055               0.004566251               0.003288196               0.000000000               0.000000000               0.000000000               0.000000000              -0.000459777               0.011591830               0.000371554              -0.001621391               0.004404369               0.002782977               0.000000000               0.000000000               0.000000000               0.000000000              -0.000983415               0.010766588              -0.000305248              -0.001714600               0.004160360               0.002445760               0.000000000               0.000000000               0.000000000               0.000000000              -0.001191313               0.010008969              -0.000528388              -0.001697860               0.003902243               0.002204383               0.000000000               0.000000000               0.000000000               0.000000000              -0.001238094               0.009326276              -0.000583959              -0.001630066               0.003652083               0.002022017               0.000000000               0.000000000               0.000000000               0.000000000              -0.001196324               0.008704801              -0.000577621              -0.001536718               0.003413810               0.001877093               0.000000000               0.000000000               0.000000000               0.000000000              -0.001108743               0.008140168              -0.000553063              -0.001433296               0.003191128               0.001757831               0.000000000               0.000000000               0.000000000               0.000000000              -0.000997744               0.007630117              -0.000524185              -0.001327916               0.002985985               0.001658070               0.000000000               0.000000000               0.000000000               0.000000000              -0.000870244               0.007175767              -0.000491711              -0.001223309               0.002799668               0.001576359               0.000000000               0.000000000               0.000000000               0.000000000              -0.000730107               0.006766332              -0.000454595              -0.001119579               0.002628614               0.001509035               0.000000000               0.000000000               0.000000000               0.000000000              -0.000580332               0.006388809              -0.000409090              -0.001016223               0.002468323               0.001452100               0.000000000               0.000000000               0.000000000               0.000000000              -0.000423956               0.006043956              -0.000350344              -0.000914476               0.002319457               0.001404981               0.000000000               0.000000000               0.000000000               0.000000000              -0.000275376               0.005747856              -0.000272102              -0.000821746               0.002189848               0.001368102               0.000000000               0.000000000               0.000000000               0.000000000              -0.000151108               0.005517400              -0.000179577              -0.000746339               0.002087895               0.001341556               0.000000000               0.000000000               0.000000000               0.000000000              -0.000062862               0.005362413              -0.000087680              -0.000693873               0.002018744               0.001324871               0.000000000               0.000000000               0.000000000               0.000000000              -0.000035950               0.005294766              -0.000048036              -0.000675325               0.001990013               0.001314687               0.000000000               0.000000000               0.000000000               0.000000000               0.001978778               0.011369545               0.004129046              -0.000679154               0.004016194               0.003337040               0.000000000               0.000000000               0.000000000               0.000000000               0.000035488               0.010795732               0.002346541              -0.001336157               0.004043926               0.002707770               0.000000000               0.000000000               0.000000000               0.000000000              -0.001406084               0.010816314               0.000654486              -0.001879316               0.004231841               0.002352524               0.000000000               0.000000000               0.000000000               0.000000000              -0.001833063               0.010286553               0.000094878              -0.001973213               0.004086554               0.002113342               0.000000000               0.000000000               0.000000000               0.000000000              -0.001879634               0.009644725              -0.000104082              -0.001910449               0.003851693               0.001941244               0.000000000               0.000000000               0.000000000               0.000000000              -0.001770745               0.009008957              -0.000176190              -0.001790145               0.003599671               0.001809526               0.000000000               0.000000000               0.000000000               0.000000000              -0.001592545               0.008413229              -0.000202381              -0.001648854               0.003354000               0.001705146               0.000000000               0.000000000               0.000000000               0.000000000              -0.001385359               0.007868472              -0.000217316              -0.001503065               0.003123819               0.001620755               0.000000000               0.000000000               0.000000000               0.000000000              -0.001172311               0.007378894              -0.000228628              -0.001361975               0.002913599               0.001551623               0.000000000               0.000000000               0.000000000               0.000000000              -0.000961118               0.006941476              -0.000233293              -0.001228101               0.002723169               0.001495069               0.000000000               0.000000000               0.000000000               0.000000000              -0.000752880               0.006546568              -0.000223829              -0.001100648               0.002549050               0.001448402               0.000000000               0.000000000               0.000000000               0.000000000              -0.000555000               0.006183150              -0.000199305              -0.000981016               0.002388035               0.001407018               0.000000000               0.000000000               0.000000000               0.000000000              -0.000374075               0.005864230              -0.000164612              -0.000873305               0.002245825               0.001372521               0.000000000               0.000000000               0.000000000               0.000000000              -0.000222882               0.005607396              -0.000120019              -0.000784503               0.002130615               0.001346111               0.000000000               0.000000000               0.000000000               0.000000000              -0.000111176               0.005420922              -0.000070531              -0.000719304               0.002046724               0.001327420               0.000000000               0.000000000               0.000000000               0.000000000              -0.000041117               0.005299136              -0.000029516              -0.000677809               0.001992297               0.001314488               0.000000000               0.000000000               0.000000000               0.000000000              -0.000023910               0.005242677              -0.000016761              -0.000664299               0.001968974               0.001304675               0.000000000               0.000000000               0.000000000               0.000000000               0.001170794               0.008861085               0.003493946              -0.000668590               0.003176528               0.002507938               0.000000000               0.000000000               0.000000000               0.000000000              -0.000746537               0.009289623               0.002247370              -0.001441152               0.003576894               0.002135741               0.000000000               0.000000000               0.000000000               0.000000000              -0.002216351               0.010005889               0.001020472              -0.002081863               0.004029217               0.001947355               0.000000000               0.000000000               0.000000000               0.000000000              -0.002455155               0.009703231               0.000568351              -0.002133582               0.003945572               0.001811990               0.000000000               0.000000000               0.000000000               0.000000000              -0.002317308               0.009161292               0.000361576              -0.002014147               0.003725116               0.001710969               0.000000000               0.000000000               0.000000000               0.000000000              -0.002056793               0.008584072               0.000246789              -0.001844302               0.003476096               0.001631794               0.000000000               0.000000000               0.000000000               0.000000000              -0.001757491               0.008035158               0.000170997              -0.001663450               0.003232842               0.001569393               0.000000000               0.000000000               0.000000000               0.000000000              -0.001456464               0.007528582               0.000110736              -0.001487243               0.003005250               0.001518007               0.000000000               0.000000000               0.000000000               0.000000000              -0.001168722               0.007064431               0.000056142              -0.001321321               0.002795227               0.001473906               0.000000000               0.000000000               0.000000000               0.000000000              -0.000898329               0.006640639               0.000010702              -0.001166951               0.002602508               0.001435557               0.000000000               0.000000000               0.000000000               0.000000000              -0.000649649               0.006253489              -0.000014656              -0.001025302               0.002426243               0.001400941               0.000000000               0.000000000               0.000000000               0.000000000              -0.000434383               0.005912052              -0.000019452              -0.000901898               0.002271297               0.001369399               0.000000000               0.000000000               0.000000000               0.000000000              -0.000261904               0.005632250              -0.000016743              -0.000802243               0.002144812               0.001342569               0.000000000               0.000000000               0.000000000               0.000000000              -0.000137463               0.005420076              -0.000010163              -0.000729056               0.002049693               0.001320637               0.000000000               0.000000000               0.000000000               0.000000000              -0.000058717               0.005271561              -0.000000628              -0.000680962               0.001984157               0.001303195               0.000000000               0.000000000               0.000000000               0.000000000              -0.000019729               0.005172343               0.000003997              -0.000653940               0.001942077               0.001288137               0.000000000               0.000000000               0.000000000               0.000000000              -0.000016780               0.005122382              -0.000000415              -0.000646588               0.001922973               0.001276385               0.000000000               0.000000000               0.000000000               0.000000000               0.000183890               0.006726954               0.002690318              -0.000771911               0.002499598               0.001727687               0.000000000               0.000000000               0.000000000               0.000000000              -0.001505886               0.007935421               0.002122757              -0.001556632               0.003163991               0.001607358               0.000000000               0.000000000               0.000000000               0.000000000              -0.002836130               0.009203107               0.001455270              -0.002213932               0.003805649               0.001591717               0.000000000               0.000000000               0.000000000               0.000000000              -0.002872002               0.009139707               0.001071078              -0.002219459               0.003786358               0.001566899               0.000000000               0.000000000               0.000000000               0.000000000              -0.002580244               0.008730835               0.000830557              -0.002058941               0.003596563               0.001537622               0.000000000               0.000000000               0.000000000               0.000000000              -0.002199127               0.008242621               0.000658470              -0.001854996               0.003365845               0.001510849               0.000000000               0.000000000               0.000000000               0.000000000              -0.001808386               0.007754263               0.000526079              -0.001647423               0.003133870               0.001486446               0.000000000               0.000000000               0.000000000               0.000000000              -0.001438432               0.007290860               0.000422962              -0.001450766               0.002913851               0.001463085               0.000000000               0.000000000               0.000000000               0.000000000              -0.001096802               0.006857169               0.000331877              -0.001268444               0.002708515               0.001440071               0.000000000               0.000000000               0.000000000               0.000000000              -0.000788266               0.006451599               0.000248391              -0.001102047               0.002517860               0.001415814               0.000000000               0.000000000               0.000000000               0.000000000              -0.000522756               0.006074075               0.000179983              -0.000955291               0.002343102               0.001387811               0.000000000               0.000000000               0.000000000               0.000000000              -0.000310126               0.005749115               0.000131492              -0.000834935               0.002194664               0.001359730               0.000000000               0.000000000               0.000000000               0.000000000              -0.000155975               0.005493858               0.000094180              -0.000745221               0.002079675               0.001334454               0.000000000               0.000000000               0.000000000               0.000000000              -0.000063567               0.005304256               0.000061644              -0.000686868               0.001997024               0.001310156               0.000000000               0.000000000               0.000000000               0.000000000              -0.000022859               0.005170672               0.000037411              -0.000654905               0.001941842               0.001286937               0.000000000               0.000000000               0.000000000               0.000000000              -0.000017643               0.005082648               0.000018752              -0.000641946               0.001908181               0.001266235               0.000000000               0.000000000               0.000000000               0.000000000              -0.000025693               0.005042358               0.000007447              -0.000639928               0.001894079               0.001254150               0.000000000               0.000000000               0.000000000               0.000000000              -0.000984422               0.004726878               0.001834401              -0.000960017               0.001895615               0.000935598               0.000000000               0.000000000               0.000000000               0.000000000              -0.002124460               0.006369547               0.001980409              -0.001592863               0.002654115               0.001061252               0.000000000               0.000000000               0.000000000               0.000000000              -0.003177587               0.008035219               0.001916471              -0.002195993               0.003410377               0.001214384               0.000000000               0.000000000               0.000000000               0.000000000              -0.003108838               0.008338687               0.001610914              -0.002208145               0.003515583               0.001307438               0.000000000               0.000000000               0.000000000               0.000000000              -0.002761011               0.008186213               0.001334095              -0.002058651               0.003414927               0.001356276               0.000000000               0.000000000               0.000000000               0.000000000              -0.002348584               0.007877975               0.001107296              -0.001865461               0.003247786               0.001382324               0.000000000               0.000000000               0.000000000               0.000000000              -0.001928482               0.007521309               0.000925007              -0.001663340               0.003061525               0.001398184               0.000000000               0.000000000               0.000000000               0.000000000              -0.001530792               0.007152492               0.000778725              -0.001468105               0.002873508               0.001405403               0.000000000               0.000000000               0.000000000               0.000000000              -0.001169468               0.006789935               0.000649234              -0.001287289               0.002692386               0.001405096               0.000000000               0.000000000               0.000000000               0.000000000              -0.000847925               0.006443137               0.000526335              -0.001123361               0.002522145               0.001398783               0.000000000               0.000000000               0.000000000               0.000000000              -0.000571435               0.006112166               0.000413482              -0.000978307               0.002363471               0.001385164               0.000000000               0.000000000               0.000000000               0.000000000              -0.000346868               0.005808362               0.000315683              -0.000856119               0.002221474               0.001365355               0.000000000               0.000000000               0.000000000               0.000000000              -0.000180618               0.005548542               0.000227939              -0.000761298               0.002103261               0.001341964               0.000000000               0.000000000               0.000000000               0.000000000              -0.000076959               0.005338704               0.000149917              -0.000696196               0.002011616               0.001315420               0.000000000               0.000000000               0.000000000               0.000000000              -0.000031917               0.005181889               0.000085331              -0.000659703               0.001947180               0.001287477               0.000000000               0.000000000               0.000000000               0.000000000              -0.000033184               0.005072630               0.000033879              -0.000646521               0.001906367               0.001259846               0.000000000               0.000000000               0.000000000               0.000000000              -0.000047685               0.005025807               0.000010314              -0.000646106               0.001890621               0.001244515               0.000000000               0.000000000               0.000000000               0.000000000              -0.002489153               0.002912547               0.000978519              -0.001297498               0.001403338               0.000105840               0.000000000               0.000000000               0.000000000               0.000000000              -0.002818347               0.004796890               0.001762473              -0.001656488               0.002151109               0.000494621               0.000000000               0.000000000               0.000000000               0.000000000              -0.003411524               0.006679241               0.002280248              -0.002114222               0.002931131               0.000816909               0.000000000               0.000000000               0.000000000               0.000000000              -0.003253979               0.007336512               0.002123905              -0.002137301               0.003157913               0.001020611               0.000000000               0.000000000               0.000000000               0.000000000              -0.002881085               0.007480809               0.001848550              -0.002015503               0.003165412               0.001149909               0.000000000               0.000000000               0.000000000               0.000000000              -0.002462501               0.007394697               0.001589236              -0.001847771               0.003080798               0.001233027               0.000000000               0.000000000               0.000000000               0.000000000              -0.002039676               0.007206029               0.001369974              -0.001665628               0.002957195               0.001291566               0.000000000               0.000000000               0.000000000               0.000000000              -0.001635475               0.006968341               0.001184087              -0.001484342               0.002817538               0.001333195               0.000000000               0.000000000               0.000000000               0.000000000              -0.001265096               0.006703559               0.001017619              -0.001312353               0.002671948               0.001359595               0.000000000               0.000000000               0.000000000               0.000000000              -0.000929640               0.006434326               0.000861716              -0.001152903               0.002529055               0.001376152               0.000000000               0.000000000               0.000000000               0.000000000              -0.000632119               0.006165494               0.000714246              -0.001007729               0.002391054               0.001383325               0.000000000               0.000000000               0.000000000               0.000000000              -0.000380280               0.005900247               0.000575669              -0.000880134               0.002260107               0.001379974               0.000000000               0.000000000               0.000000000               0.000000000              -0.000183358               0.005649908               0.000442144              -0.000774996               0.002141616               0.001366620               0.000000000               0.000000000               0.000000000               0.000000000              -0.000046804               0.005428205               0.000313343              -0.000696076               0.002041409               0.001345333               0.000000000               0.000000000               0.000000000               0.000000000               0.000018957               0.005245006               0.000191646              -0.000648515               0.001964490               0.001315974               0.000000000               0.000000000               0.000000000               0.000000000               0.000017260               0.005105141               0.000084897              -0.000631669               0.001912253               0.001280584               0.000000000               0.000000000               0.000000000               0.000000000              -0.000010142               0.005040313               0.000032565              -0.000633841               0.001891368               0.001257527               0.000000000               0.000000000               0.000000000               0.000000000              -0.004237512               0.001424259               0.000193048              -0.001767097               0.001063778              -0.000703319               0.000000000               0.000000000               0.000000000               0.000000000              -0.003646318               0.003309420               0.001446428              -0.001781043               0.001696809              -0.000084234               0.000000000               0.000000000               0.000000000               0.000000000              -0.003582961               0.005152209               0.002429280              -0.001987633               0.002379929               0.000392296               0.000000000               0.000000000               0.000000000               0.000000000              -0.003253351               0.006054647               0.002462576              -0.001976833               0.002677139               0.000700306               0.000000000               0.000000000               0.000000000               0.000000000              -0.002841929               0.006468841               0.002244383              -0.001874325               0.002781033               0.000906708               0.000000000               0.000000000               0.000000000               0.000000000              -0.002423399               0.006621644               0.001988963              -0.001736477               0.002786018               0.001049541               0.000000000               0.000000000               0.000000000               0.000000000              -0.002015077               0.006627246               0.001755239              -0.001584056               0.002737078               0.001153022               0.000000000               0.000000000               0.000000000               0.000000000              -0.001623219               0.006547094               0.001546623              -0.001427091               0.002658039               0.001230948               0.000000000               0.000000000               0.000000000               0.000000000              -0.001256721               0.006409400               0.001356311              -0.001272443               0.002560593               0.001288150               0.000000000               0.000000000               0.000000000               0.000000000              -0.000917709               0.006243855               0.001181117              -0.001124620               0.002456138               0.001331517               0.000000000               0.000000000               0.000000000               0.000000000              -0.000605781               0.006062400               0.001015960              -0.000984966               0.002349102               0.001364136               0.000000000               0.000000000               0.000000000               0.000000000              -0.000326224               0.005866465               0.000856080              -0.000855640               0.002240682               0.001385042               0.000000000               0.000000000               0.000000000               0.000000000              -0.000091229               0.005662764               0.000693199              -0.000742055               0.002134921               0.001392866               0.000000000               0.000000000               0.000000000               0.000000000               0.000085357               0.005463818               0.000521629              -0.000650967               0.002038243               0.001387276               0.000000000               0.000000000               0.000000000               0.000000000               0.000191244               0.005282871               0.000342279              -0.000588641               0.001957153               0.001368512               0.000000000               0.000000000               0.000000000               0.000000000               0.000213243               0.005129359               0.000165716              -0.000561202               0.001896837               0.001335634               0.000000000               0.000000000               0.000000000               0.000000000               0.000185502               0.005050785               0.000074887              -0.000561783               0.001870839               0.001309056               0.000000000               0.000000000               0.000000000               0.000000000              -0.006098018               0.000329719              -0.000410852              -0.002327969               0.000885890              -0.001442079               0.000000000               0.000000000               0.000000000               0.000000000              -0.004551267               0.001989854               0.001074851              -0.001955454               0.001315093              -0.000640361               0.000000000               0.000000000               0.000000000               0.000000000              -0.003719588               0.003578270               0.002333464              -0.001842126               0.001806785              -0.000035341               0.000000000               0.000000000               0.000000000               0.000000000              -0.003135196               0.004590085               0.002541215              -0.001749456               0.002113164               0.000363708               0.000000000               0.000000000               0.000000000               0.000000000              -0.002648714               0.005218585               0.002411385              -0.001645588               0.002288039               0.000642451               0.000000000               0.000000000               0.000000000               0.000000000              -0.002220258               0.005596329               0.002194018              -0.001532135               0.002376135               0.000844000               0.000000000               0.000000000               0.000000000               0.000000000              -0.001829666               0.005798648               0.001975821              -0.001410953               0.002403181               0.000992227               0.000000000               0.000000000               0.000000000               0.000000000              -0.001462500               0.005884951               0.001770354              -0.001284054               0.002389648               0.001105594               0.000000000               0.000000000               0.000000000               0.000000000              -0.001110016               0.005897130               0.001577033              -0.001153395               0.002350155               0.001196760               0.000000000               0.000000000               0.000000000               0.000000000              -0.000773442               0.005858932               0.001399045              -0.001022405               0.002293759               0.001271354               0.000000000               0.000000000               0.000000000               0.000000000              -0.000454208               0.005784517               0.001234272              -0.000893391               0.002225950               0.001332559               0.000000000               0.000000000               0.000000000               0.000000000              -0.000152992               0.005683780               0.001073542              -0.000767843               0.002150522               0.001382679               0.000000000               0.000000000               0.000000000               0.000000000               0.000120887               0.005556025               0.000902768              -0.000649169               0.002068379               0.001419210               0.000000000               0.000000000               0.000000000               0.000000000               0.000354469               0.005410624               0.000712776              -0.000543401               0.001984657               0.001441256               0.000000000               0.000000000               0.000000000               0.000000000               0.000531703               0.005265520               0.000497845              -0.000458800               0.001908089               0.001449289               0.000000000               0.000000000               0.000000000               0.000000000               0.000629253               0.005129702               0.000258357              -0.000405242               0.001844964               0.001439722               0.000000000               0.000000000               0.000000000               0.000000000               0.000647862               0.005059491               0.000131902              -0.000389487               0.001816309               0.001426822               0.000000000               0.000000000               0.000000000               0.000000000              -0.007882951              -0.000379535              -0.000732653              -0.002908663               0.000843037              -0.002065626               0.000000000               0.000000000               0.000000000               0.000000000              -0.005453537               0.000919950               0.000709574              -0.002160068               0.001026665              -0.001133402               0.000000000               0.000000000               0.000000000               0.000000000              -0.003840234               0.002120344               0.001993706              -0.001705128               0.001275148              -0.000429980               0.000000000               0.000000000               0.000000000               0.000000000              -0.002953250               0.003125812               0.002306428              -0.001498193               0.001541323               0.000043130               0.000000000               0.000000000               0.000000000               0.000000000              -0.002359307               0.003886072               0.002265626              -0.001370497               0.001752176               0.000381679               0.000000000               0.000000000               0.000000000               0.000000000              -0.001901513               0.004439269               0.002108244              -0.001267974               0.001902399               0.000634425               0.000000000               0.000000000               0.000000000               0.000000000              -0.001519790               0.004820926               0.001928429              -0.001172535               0.001997804               0.000825268               0.000000000               0.000000000               0.000000000               0.000000000              -0.001177025               0.005068317               0.001751808              -0.001074922               0.002047729               0.000972807               0.000000000               0.000000000               0.000000000               0.000000000              -0.000845157               0.005226905               0.001582504              -0.000970296               0.002065716               0.001095420               0.000000000               0.000000000               0.000000000               0.000000000              -0.000516208               0.005322824               0.001424286              -0.000858930               0.002060566               0.001201637               0.000000000               0.000000000               0.000000000               0.000000000              -0.000191456               0.005369707               0.001277625              -0.000743008               0.002037554               0.001294545               0.000000000               0.000000000               0.000000000               0.000000000               0.000125663               0.005376213               0.001133690              -0.000624902               0.002000354               0.001375451               0.000000000               0.000000000               0.000000000               0.000000000               0.000436626               0.005347293               0.000979890              -0.000504676               0.001950638               0.001445962               0.000000000               0.000000000               0.000000000               0.000000000               0.000737742               0.005288113               0.000801311              -0.000384360               0.001890807               0.001506446               0.000000000               0.000000000               0.000000000               0.000000000               0.001012632               0.005204604               0.000583657              -0.000270838               0.001825130               0.001554292               0.000000000               0.000000000               0.000000000               0.000000000               0.001241874               0.005107104               0.000316954              -0.000172685               0.001759913               0.001587228               0.000000000               0.000000000               0.000000000               0.000000000               0.001369199               0.005065147               0.000175832              -0.000119694               0.001728263               0.001608570               0.000000000               0.000000000               0.000000000               0.000000000              -0.009381839              -0.000771954              -0.000729675              -0.003421693               0.000883240              -0.002538453               0.000000000               0.000000000               0.000000000               0.000000000              -0.006242147               0.000150044               0.000405444              -0.002359559               0.000836528              -0.001523030               0.000000000               0.000000000               0.000000000               0.000000000              -0.003953654               0.000944182               0.001449484              -0.001600641               0.000848268              -0.000752373               0.000000000               0.000000000               0.000000000               0.000000000              -0.002768845               0.001867906               0.001756929              -0.001271803               0.001046562              -0.000225241               0.000000000               0.000000000               0.000000000               0.000000000              -0.002055976               0.002683787               0.001772935              -0.001106463               0.001263407               0.000156944               0.000000000               0.000000000               0.000000000               0.000000000              -0.001559301               0.003350989               0.001678863              -0.001003610               0.001451521               0.000447911               0.000000000               0.000000000               0.000000000               0.000000000              -0.001176012               0.003868211               0.001553573              -0.000924529               0.001597567               0.000673037               0.000000000               0.000000000               0.000000000               0.000000000              -0.000849050               0.004248617               0.001426872              -0.000849469               0.001699347               0.000849878               0.000000000               0.000000000               0.000000000               0.000000000              -0.000534415               0.004535351               0.001303097              -0.000767323               0.001767543               0.001000219               0.000000000               0.000000000               0.000000000               0.000000000              -0.000217471               0.004755408               0.001184648              -0.000675976               0.001810445               0.001134469               0.000000000               0.000000000               0.000000000               0.000000000               0.000104435               0.004913537               0.001073532              -0.000575028               0.001829505               0.001254477               0.000000000               0.000000000               0.000000000               0.000000000               0.000435985               0.005021986               0.000964785              -0.000464253               0.001828729               0.001364476               0.000000000               0.000000000               0.000000000               0.000000000               0.000783408               0.005094525               0.000849846              -0.000343037               0.001812504               0.001469467               0.000000000               0.000000000               0.000000000               0.000000000               0.001150128               0.005129568               0.000711009              -0.000209898               0.001779805               0.001569907               0.000000000               0.000000000               0.000000000               0.000000000               0.001537909               0.005123854               0.000531419              -0.000063766               0.001729189               0.001665423               0.000000000               0.000000000               0.000000000               0.000000000               0.001939535               0.005076852               0.000295029               0.000092718               0.001661361               0.001754079               0.000000000               0.000000000               0.000000000               0.000000000               0.002223713               0.005071632               0.000171113               0.000199936               0.001623882               0.001823818               0.000000000               0.000000000               0.000000000               0.000000000              -0.010381586              -0.000948415              -0.000448512              -0.003774540               0.000942036              -0.002832505               0.000000000               0.000000000               0.000000000               0.000000000              -0.006782975              -0.000310646               0.000175001              -0.002504783               0.000731374              -0.001773409               0.000000000               0.000000000               0.000000000               0.000000000              -0.004038264               0.000177584               0.000759183              -0.001536546               0.000571372              -0.000965173               0.000000000               0.000000000               0.000000000               0.000000000              -0.002640599               0.001014520               0.000948174              -0.001117038               0.000710514              -0.000406524               0.000000000               0.000000000               0.000000000               0.000000000              -0.001834897               0.001842591               0.000974505              -0.000918408               0.000920326               0.000001918               0.000000000               0.000000000               0.000000000               0.000000000              -0.001303897               0.002564884               0.000933765              -0.000809570               0.001124809               0.000315239               0.000000000               0.000000000               0.000000000               0.000000000              -0.000908441               0.003161944               0.000870205              -0.000735907               0.001299273               0.000563366               0.000000000               0.000000000               0.000000000               0.000000000              -0.000585028               0.003631588               0.000806290              -0.000673333               0.001434961               0.000761629               0.000000000               0.000000000               0.000000000               0.000000000              -0.000287967               0.004004663               0.000742736              -0.000608569               0.001537731               0.000929161               0.000000000               0.000000000               0.000000000               0.000000000               0.000013828               0.004310120               0.000678128              -0.000533578               0.001614552               0.001080973               0.000000000               0.000000000               0.000000000               0.000000000               0.000331674               0.004552811               0.000617557              -0.000444723               0.001665829               0.001221107               0.000000000               0.000000000               0.000000000               0.000000000               0.000674919               0.004739727               0.000559388              -0.000339371               0.001693017               0.001353646               0.000000000               0.000000000               0.000000000               0.000000000               0.001053176               0.004886081               0.000497029              -0.000215819               0.001700617               0.001484798               0.000000000               0.000000000               0.000000000               0.000000000               0.001475971               0.004989969               0.000421680              -0.000070257               0.001686726               0.001616468               0.000000000               0.000000000               0.000000000               0.000000000               0.001958839               0.005044302               0.000319350               0.000104026               0.001646742               0.001750768               0.000000000               0.000000000               0.000000000               0.000000000               0.002517771               0.005041691               0.000177037               0.000313950               0.001575897               0.001889846               0.000000000               0.000000000               0.000000000               0.000000000               0.002952438               0.005071181               0.000103824               0.000473262               0.001532623               0.002005885               0.000000000               0.000000000               0.000000000               0.000000000               0.000000000               0.000000000               0.000000000               0.000000000               0.000000000               0.000000000               0.000000000               0.000000000               0.000000000               0.000000000               0.000000000               0.000000000               0.000000000               0.000000000               0.000000000               0.000000000               0.000000000               0.000000000               0.000000000               0.000000000               0.000000000               0.000000000               0.000000000               0.000000000               0.000000000               0.000000000               0.000000000               0.000000000               0.000000000               0.000000000               0.000000000               0.000000000               0.000000000               0.000000000               0.000000000               0.000000000               0.000000000               0.000000000               0.000000000               0.000000000               0.000000000               0.000000000               0.000000000               0.000000000               0.000000000               0.000000000               0.000000000               0.000000000               0.000000000               0.000000000               0.000000000               0.000000000               0.000000000               0.000000000               0.000000000               0.000000000               0.000000000               0.000000000               0.000000000               0.000000000               0.000000000               0.000000000               0.000000000               0.000000000               0.000000000               0.000000000               0.000000000               0.000000000               0.000000000               0.000000000               0.000000000               0.000000000               0.000000000               0.000000000               0.000000000               0.000000000               0.000000000               0.000000000               0.000000000               0.000000000               0.000000000               0.000000000               0.000000000               0.000000000               0.000000000               0.000000000               0.000000000               0.000000000               0.000000000               0.000000000               0.000000000               0.000000000               0.000000000               0.000000000               0.000000000               0.000000000               0.000000000               0.000000000               0.000000000               0.000000000               0.000000000               0.000000000               0.000000000               0.000000000               0.000000000               0.000000000               0.000000000               0.000000000               0.000000000               0.000000000               0.000000000               0.000000000               0.000000000               0.000000000               0.000000000               0.000000000               0.000000000               0.000000000               0.000000000               0.000000000               0.000000000               0.000000000               0.000000000               0.000000000               0.000000000               0.000000000               0.000000000               0.000000000               0.000000000               0.000000000               0.000000000               0.000000000               0.000000000               0.000000000               0.000000000               0.000000000               0.000000000               0.000000000               0.000000000               0.000000000               0.000000000               0.000000000               0.000000000               0.000000000               0.000000000               0.000000000               0.000000000               0.000000000               0.000000000               0.000000000               0.000000000               0.000000000               0.000000000               0.000000000               0.000000000               0.000000000               0.000000000               0.000000000               0.000000000               0.000000000               0.000000000               0.000000000               0.000000000               0.000000000               0.000000000               0.000000000               0.000000000               0.000000000               0.000000000               0.000000000 </DataArray>
</PointData>
</Piece>
</UnstructuredGrid> </VTKFile>
