<?xml version="1.0"?>
<VTKFile type="UnstructuredGrid" version="0.1">
<UnstructuredGrid>
<Piece NumberOfPoints="      1156" NumberOfCells="      1024">
<Points>
<DataArray type="Float64"                                    Name="coordinates"                                                      NumberOfComponents=" 3" format="ascii">
              0.133000000               0.000000000               0.000000000               0.155937500               0.000000000               0.000000000               0.178875000               0.000000000               0.000000000               0.201812500               0.000000000               0.000000000               0.224750000               0.000000000               0.000000000               0.247687500               0.000000000               0.000000000               0.270625000               0.000000000               0.000000000               0.293562500               0.000000000               0.000000000               0.316500000               0.000000000               0.000000000               0.339437500               0.000000000               0.000000000               0.362375000               0.000000000               0.000000000               0.385312500               0.000000000               0.000000000               0.408250000               0.000000000               0.000000000               0.431187500               0.000000000               0.000000000               0.454125000               0.000000000               0.000000000               0.477062500               0.000000000               0.000000000               0.500000000               0.000000000               0.000000000               0.132359569               0.013036280               0.000000000               0.155337096               0.016127762               0.000000000               0.178314623               0.019219245               0.000000000               0.201292150               0.022310727               0.000000000               0.224269676               0.025402210               0.000000000               0.247247203               0.028493692               0.000000000               0.270224730               0.031585175               0.000000000               0.293202257               0.034676657               0.000000000               0.316179784               0.037768140               0.000000000               0.339157311               0.040859622               0.000000000               0.362134838               0.043951105               0.000000000               0.385112365               0.047042587               0.000000000               0.408089892               0.050134070               0.000000000               0.431067419               0.053225552               0.000000000               0.454044946               0.056317035               0.000000000               0.477022473               0.059408517               0.000000000               0.500000000               0.062500000               0.000000000               0.130444442               0.025947013               0.000000000               0.153541665               0.032137825               0.000000000               0.176638887               0.038328636               0.000000000               0.199736109               0.044519448               0.000000000               0.222833332               0.050710260               0.000000000               0.245930554               0.056901071               0.000000000               0.269027776               0.063091883               0.000000000               0.292124999               0.069282695               0.000000000               0.315222221               0.075473506               0.000000000               0.338319444               0.081664318               0.000000000               0.361416666               0.087855130               0.000000000               0.384513888               0.094045942               0.000000000               0.407611111               0.100236753               0.000000000               0.430708333               0.106427565               0.000000000               0.453805555               0.112618377               0.000000000               0.476902778               0.118809188               0.000000000               0.500000000               0.125000000               0.000000000               0.127273065               0.038607862               0.000000000               0.150568498               0.047913621               0.000000000               0.173863932               0.057219379               0.000000000               0.197159365               0.066525138               0.000000000               0.220454798               0.075830897               0.000000000               0.243750232               0.085136655               0.000000000               0.267045665               0.094442414               0.000000000               0.290341099               0.103748172               0.000000000               0.313636532               0.113053931               0.000000000               0.336931966               0.122359690               0.000000000               0.360227399               0.131665448               0.000000000               0.383522833               0.140971207               0.000000000               0.406818266               0.150276966               0.000000000               0.430113700               0.159582724               0.000000000               0.453409133               0.168888483               0.000000000               0.476704567               0.178194241               0.000000000               0.500000000               0.187500000               0.000000000               0.122875978               0.050896897               0.000000000               0.146446229               0.063340840               0.000000000               0.170016481               0.075784784               0.000000000               0.193586732               0.088228728               0.000000000               0.217156983               0.100672672               0.000000000               0.240727235               0.113116616               0.000000000               0.264297486               0.125560560               0.000000000               0.287867738               0.138004504               0.000000000               0.311437989               0.150448448               0.000000000               0.335008240               0.162892392               0.000000000               0.358578492               0.175336336               0.000000000               0.382148743               0.187780280               0.000000000               0.405718994               0.200224224               0.000000000               0.429289246               0.212668168               0.000000000               0.452859497               0.225112112               0.000000000               0.476429749               0.237556056               0.000000000               0.500000000               0.250000000               0.000000000               0.117295528               0.062695766               0.000000000               0.141214558               0.078308531               0.000000000               0.165133587               0.093921295               0.000000000               0.189052617               0.109534060               0.000000000               0.212971646               0.125146824               0.000000000               0.236890676               0.140759589               0.000000000               0.260809705               0.156372354               0.000000000               0.284728735               0.171985118               0.000000000               0.308647764               0.187597883               0.000000000               0.332566794               0.203210648               0.000000000               0.356485823               0.218823412               0.000000000               0.380404853               0.234436177               0.000000000               0.404323882               0.250048941               0.000000000               0.428242912               0.265661706               0.000000000               0.452161941               0.281274471               0.000000000               0.476080971               0.296887235               0.000000000               0.500000000               0.312500000               0.000000000               0.110585458               0.073890841               0.000000000               0.134923867               0.092710163               0.000000000               0.159262276               0.111529486               0.000000000               0.183600685               0.130348808               0.000000000               0.207939094               0.149168131               0.000000000               0.232277503               0.167987453               0.000000000               0.256615912               0.186806776               0.000000000               0.280954320               0.205626098               0.000000000               0.305292729               0.224445420               0.000000000               0.329631138               0.243264743               0.000000000               0.353969547               0.262084065               0.000000000               0.378307956               0.280903388               0.000000000               0.402646365               0.299722710               0.000000000               0.426984773               0.318542033               0.000000000               0.451323182               0.337361355               0.000000000               0.475661591               0.356180678               0.000000000               0.500000000               0.375000000               0.000000000               0.102810390               0.084374307               0.000000000               0.127634741               0.106444663               0.000000000               0.152459092               0.128515018               0.000000000               0.177283442               0.150585374               0.000000000               0.202107793               0.172655730               0.000000000               0.226932143               0.194726086               0.000000000               0.251756494               0.216796442               0.000000000               0.276580845               0.238866798               0.000000000               0.301405195               0.260937153               0.000000000               0.326229546               0.283007509               0.000000000               0.351053896               0.305077865               0.000000000               0.375878247               0.327148221               0.000000000               0.400702598               0.349218577               0.000000000               0.425526948               0.371288933               0.000000000               0.450351299               0.393359288               0.000000000               0.475175649               0.415429644               0.000000000               0.500000000               0.437500000               0.000000000               0.094045202               0.094045202               0.000000000               0.119417377               0.119417377               0.000000000               0.144789552               0.144789552               0.000000000               0.170161727               0.170161727               0.000000000               0.195533901               0.195533901               0.000000000               0.220906076               0.220906076               0.000000000               0.246278251               0.246278251               0.000000000               0.271650426               0.271650426               0.000000000               0.297022601               0.297022601               0.000000000               0.322394776               0.322394776               0.000000000               0.347766951               0.347766951               0.000000000               0.373139126               0.373139126               0.000000000               0.398511300               0.398511300               0.000000000               0.423883475               0.423883475               0.000000000               0.449255650               0.449255650               0.000000000               0.474627825               0.474627825               0.000000000               0.500000000               0.500000000               0.000000000               0.084374307               0.102810390               0.000000000               0.106444663               0.127634741               0.000000000               0.128515018               0.152459092               0.000000000               0.150585374               0.177283442               0.000000000               0.172655730               0.202107793               0.000000000               0.194726086               0.226932143               0.000000000               0.216796442               0.251756494               0.000000000               0.238866798               0.276580845               0.000000000               0.260937153               0.301405195               0.000000000               0.283007509               0.326229546               0.000000000               0.305077865               0.351053896               0.000000000               0.327148221               0.375878247               0.000000000               0.349218577               0.400702598               0.000000000               0.371288933               0.425526948               0.000000000               0.393359288               0.450351299               0.000000000               0.415429644               0.475175649               0.000000000               0.437500000               0.500000000               0.000000000               0.073890841               0.110585458               0.000000000               0.092710163               0.134923867               0.000000000               0.111529486               0.159262276               0.000000000               0.130348808               0.183600685               0.000000000               0.149168131               0.207939094               0.000000000               0.167987453               0.232277503               0.000000000               0.186806776               0.256615912               0.000000000               0.205626098               0.280954320               0.000000000               0.224445420               0.305292729               0.000000000               0.243264743               0.329631138               0.000000000               0.262084065               0.353969547               0.000000000               0.280903388               0.378307956               0.000000000               0.299722710               0.402646365               0.000000000               0.318542033               0.426984773               0.000000000               0.337361355               0.451323182               0.000000000               0.356180678               0.475661591               0.000000000               0.375000000               0.500000000               0.000000000               0.062695766               0.117295528               0.000000000               0.078308531               0.141214558               0.000000000               0.093921295               0.165133587               0.000000000               0.109534060               0.189052617               0.000000000               0.125146824               0.212971646               0.000000000               0.140759589               0.236890676               0.000000000               0.156372354               0.260809705               0.000000000               0.171985118               0.284728735               0.000000000               0.187597883               0.308647764               0.000000000               0.203210648               0.332566794               0.000000000               0.218823412               0.356485823               0.000000000               0.234436177               0.380404853               0.000000000               0.250048941               0.404323882               0.000000000               0.265661706               0.428242912               0.000000000               0.281274471               0.452161941               0.000000000               0.296887235               0.476080971               0.000000000               0.312500000               0.500000000               0.000000000               0.050896897               0.122875978               0.000000000               0.063340840               0.146446229               0.000000000               0.075784784               0.170016481               0.000000000               0.088228728               0.193586732               0.000000000               0.100672672               0.217156983               0.000000000               0.113116616               0.240727235               0.000000000               0.125560560               0.264297486               0.000000000               0.138004504               0.287867738               0.000000000               0.150448448               0.311437989               0.000000000               0.162892392               0.335008240               0.000000000               0.175336336               0.358578492               0.000000000               0.187780280               0.382148743               0.000000000               0.200224224               0.405718994               0.000000000               0.212668168               0.429289246               0.000000000               0.225112112               0.452859497               0.000000000               0.237556056               0.476429749               0.000000000               0.250000000               0.500000000               0.000000000               0.038607862               0.127273065               0.000000000               0.047913621               0.150568498               0.000000000               0.057219379               0.173863932               0.000000000               0.066525138               0.197159365               0.000000000               0.075830897               0.220454798               0.000000000               0.085136655               0.243750232               0.000000000               0.094442414               0.267045665               0.000000000               0.103748172               0.290341099               0.000000000               0.113053931               0.313636532               0.000000000               0.122359690               0.336931966               0.000000000               0.131665448               0.360227399               0.000000000               0.140971207               0.383522833               0.000000000               0.150276966               0.406818266               0.000000000               0.159582724               0.430113700               0.000000000               0.168888483               0.453409133               0.000000000               0.178194241               0.476704567               0.000000000               0.187500000               0.500000000               0.000000000               0.025947013               0.130444442               0.000000000               0.032137825               0.153541665               0.000000000               0.038328636               0.176638887               0.000000000               0.044519448               0.199736109               0.000000000               0.050710260               0.222833332               0.000000000               0.056901071               0.245930554               0.000000000               0.063091883               0.269027776               0.000000000               0.069282695               0.292124999               0.000000000               0.075473506               0.315222221               0.000000000               0.081664318               0.338319444               0.000000000               0.087855130               0.361416666               0.000000000               0.094045942               0.384513888               0.000000000               0.100236753               0.407611111               0.000000000               0.106427565               0.430708333               0.000000000               0.112618377               0.453805555               0.000000000               0.118809188               0.476902778               0.000000000               0.125000000               0.500000000               0.000000000               0.013036280               0.132359569               0.000000000               0.016127762               0.155337096               0.000000000               0.019219245               0.178314623               0.000000000               0.022310727               0.201292150               0.000000000               0.025402210               0.224269676               0.000000000               0.028493692               0.247247203               0.000000000               0.031585175               0.270224730               0.000000000               0.034676657               0.293202257               0.000000000               0.037768140               0.316179784               0.000000000               0.040859622               0.339157311               0.000000000               0.043951105               0.362134838               0.000000000               0.047042587               0.385112365               0.000000000               0.050134070               0.408089892               0.000000000               0.053225552               0.431067419               0.000000000               0.056317035               0.454044946               0.000000000               0.059408517               0.477022473               0.000000000               0.062500000               0.500000000               0.000000000               0.000000000               0.133000000               0.000000000               0.000000000               0.155937500               0.000000000               0.000000000               0.178875000               0.000000000               0.000000000               0.201812500               0.000000000               0.000000000               0.224750000               0.000000000               0.000000000               0.247687500               0.000000000               0.000000000               0.270625000               0.000000000               0.000000000               0.293562500               0.000000000               0.000000000               0.316500000               0.000000000               0.000000000               0.339437500               0.000000000               0.000000000               0.362375000               0.000000000               0.000000000               0.385312500               0.000000000               0.000000000               0.408250000               0.000000000               0.000000000               0.431187500               0.000000000               0.000000000               0.454125000               0.000000000               0.000000000               0.477062500               0.000000000               0.000000000               0.500000000               0.000000000               0.133000000               0.000000000               0.000000000               0.155937500               0.000000000               0.000000000               0.178875000               0.000000000               0.000000000               0.201812500               0.000000000               0.000000000               0.224750000               0.000000000               0.000000000               0.247687500               0.000000000               0.000000000               0.270625000               0.000000000               0.000000000               0.293562500               0.000000000               0.000000000               0.316500000               0.000000000               0.000000000               0.339437500               0.000000000               0.000000000               0.362375000               0.000000000               0.000000000               0.385312500               0.000000000               0.000000000               0.408250000               0.000000000               0.000000000               0.431187500               0.000000000               0.000000000               0.454125000               0.000000000               0.000000000               0.477062500               0.000000000               0.000000000               0.500000000               0.000000000               0.000000000               0.132359569              -0.013036280               0.000000000               0.155337096              -0.016127762               0.000000000               0.178314623              -0.019219245               0.000000000               0.201292150              -0.022310727               0.000000000               0.224269676              -0.025402210               0.000000000               0.247247203              -0.028493692               0.000000000               0.270224730              -0.031585175               0.000000000               0.293202257              -0.034676657               0.000000000               0.316179784              -0.037768140               0.000000000               0.339157311              -0.040859622               0.000000000               0.362134838              -0.043951105               0.000000000               0.385112365              -0.047042587               0.000000000               0.408089892              -0.050134070               0.000000000               0.431067419              -0.053225552               0.000000000               0.454044946              -0.056317035               0.000000000               0.477022473              -0.059408517               0.000000000               0.500000000              -0.062500000               0.000000000               0.130444442              -0.025947013               0.000000000               0.153541665              -0.032137825               0.000000000               0.176638887              -0.038328636               0.000000000               0.199736109              -0.044519448               0.000000000               0.222833332              -0.050710260               0.000000000               0.245930554              -0.056901071               0.000000000               0.269027776              -0.063091883               0.000000000               0.292124999              -0.069282695               0.000000000               0.315222221              -0.075473506               0.000000000               0.338319444              -0.081664318               0.000000000               0.361416666              -0.087855130               0.000000000               0.384513888              -0.094045942               0.000000000               0.407611111              -0.100236753               0.000000000               0.430708333              -0.106427565               0.000000000               0.453805555              -0.112618377               0.000000000               0.476902778              -0.118809188               0.000000000               0.500000000              -0.125000000               0.000000000               0.127273065              -0.038607862               0.000000000               0.150568498              -0.047913621               0.000000000               0.173863932              -0.057219379               0.000000000               0.197159365              -0.066525138               0.000000000               0.220454798              -0.075830897               0.000000000               0.243750232              -0.085136655               0.000000000               0.267045665              -0.094442414               0.000000000               0.290341099              -0.103748172               0.000000000               0.313636532              -0.113053931               0.000000000               0.336931966              -0.122359690               0.000000000               0.360227399              -0.131665448               0.000000000               0.383522833              -0.140971207               0.000000000               0.406818266              -0.150276966               0.000000000               0.430113700              -0.159582724               0.000000000               0.453409133              -0.168888483               0.000000000               0.476704567              -0.178194241               0.000000000               0.500000000              -0.187500000               0.000000000               0.122875978              -0.050896897               0.000000000               0.146446229              -0.063340840               0.000000000               0.170016481              -0.075784784               0.000000000               0.193586732              -0.088228728               0.000000000               0.217156983              -0.100672672               0.000000000               0.240727235              -0.113116616               0.000000000               0.264297486              -0.125560560               0.000000000               0.287867738              -0.138004504               0.000000000               0.311437989              -0.150448448               0.000000000               0.335008240              -0.162892392               0.000000000               0.358578492              -0.175336336               0.000000000               0.382148743              -0.187780280               0.000000000               0.405718994              -0.200224224               0.000000000               0.429289246              -0.212668168               0.000000000               0.452859497              -0.225112112               0.000000000               0.476429749              -0.237556056               0.000000000               0.500000000              -0.250000000               0.000000000               0.117295528              -0.062695766               0.000000000               0.141214558              -0.078308531               0.000000000               0.165133587              -0.093921295               0.000000000               0.189052617              -0.109534060               0.000000000               0.212971646              -0.125146824               0.000000000               0.236890676              -0.140759589               0.000000000               0.260809705              -0.156372354               0.000000000               0.284728735              -0.171985118               0.000000000               0.308647764              -0.187597883               0.000000000               0.332566794              -0.203210648               0.000000000               0.356485823              -0.218823412               0.000000000               0.380404853              -0.234436177               0.000000000               0.404323882              -0.250048941               0.000000000               0.428242912              -0.265661706               0.000000000               0.452161941              -0.281274471               0.000000000               0.476080971              -0.296887235               0.000000000               0.500000000              -0.312500000               0.000000000               0.110585458              -0.073890841               0.000000000               0.134923867              -0.092710163               0.000000000               0.159262276              -0.111529486               0.000000000               0.183600685              -0.130348808               0.000000000               0.207939094              -0.149168131               0.000000000               0.232277503              -0.167987453               0.000000000               0.256615912              -0.186806776               0.000000000               0.280954320              -0.205626098               0.000000000               0.305292729              -0.224445420               0.000000000               0.329631138              -0.243264743               0.000000000               0.353969547              -0.262084065               0.000000000               0.378307956              -0.280903388               0.000000000               0.402646365              -0.299722710               0.000000000               0.426984773              -0.318542033               0.000000000               0.451323182              -0.337361355               0.000000000               0.475661591              -0.356180678               0.000000000               0.500000000              -0.375000000               0.000000000               0.102810390              -0.084374307               0.000000000               0.127634741              -0.106444663               0.000000000               0.152459092              -0.128515018               0.000000000               0.177283442              -0.150585374               0.000000000               0.202107793              -0.172655730               0.000000000               0.226932143              -0.194726086               0.000000000               0.251756494              -0.216796442               0.000000000               0.276580845              -0.238866798               0.000000000               0.301405195              -0.260937153               0.000000000               0.326229546              -0.283007509               0.000000000               0.351053896              -0.305077865               0.000000000               0.375878247              -0.327148221               0.000000000               0.400702598              -0.349218577               0.000000000               0.425526948              -0.371288933               0.000000000               0.450351299              -0.393359288               0.000000000               0.475175649              -0.415429644               0.000000000               0.500000000              -0.437500000               0.000000000               0.094045202              -0.094045202               0.000000000               0.119417377              -0.119417377               0.000000000               0.144789552              -0.144789552               0.000000000               0.170161727              -0.170161727               0.000000000               0.195533901              -0.195533901               0.000000000               0.220906076              -0.220906076               0.000000000               0.246278251              -0.246278251               0.000000000               0.271650426              -0.271650426               0.000000000               0.297022601              -0.297022601               0.000000000               0.322394776              -0.322394776               0.000000000               0.347766951              -0.347766951               0.000000000               0.373139126              -0.373139126               0.000000000               0.398511300              -0.398511300               0.000000000               0.423883475              -0.423883475               0.000000000               0.449255650              -0.449255650               0.000000000               0.474627825              -0.474627825               0.000000000               0.500000000              -0.500000000               0.000000000               0.084374307              -0.102810390               0.000000000               0.106444663              -0.127634741               0.000000000               0.128515018              -0.152459092               0.000000000               0.150585374              -0.177283442               0.000000000               0.172655730              -0.202107793               0.000000000               0.194726086              -0.226932143               0.000000000               0.216796442              -0.251756494               0.000000000               0.238866798              -0.276580845               0.000000000               0.260937153              -0.301405195               0.000000000               0.283007509              -0.326229546               0.000000000               0.305077865              -0.351053896               0.000000000               0.327148221              -0.375878247               0.000000000               0.349218577              -0.400702598               0.000000000               0.371288933              -0.425526948               0.000000000               0.393359288              -0.450351299               0.000000000               0.415429644              -0.475175649               0.000000000               0.437500000              -0.500000000               0.000000000               0.073890841              -0.110585458               0.000000000               0.092710163              -0.134923867               0.000000000               0.111529486              -0.159262276               0.000000000               0.130348808              -0.183600685               0.000000000               0.149168131              -0.207939094               0.000000000               0.167987453              -0.232277503               0.000000000               0.186806776              -0.256615912               0.000000000               0.205626098              -0.280954320               0.000000000               0.224445420              -0.305292729               0.000000000               0.243264743              -0.329631138               0.000000000               0.262084065              -0.353969547               0.000000000               0.280903388              -0.378307956               0.000000000               0.299722710              -0.402646365               0.000000000               0.318542033              -0.426984773               0.000000000               0.337361355              -0.451323182               0.000000000               0.356180678              -0.475661591               0.000000000               0.375000000              -0.500000000               0.000000000               0.062695766              -0.117295528               0.000000000               0.078308531              -0.141214558               0.000000000               0.093921295              -0.165133587               0.000000000               0.109534060              -0.189052617               0.000000000               0.125146824              -0.212971646               0.000000000               0.140759589              -0.236890676               0.000000000               0.156372354              -0.260809705               0.000000000               0.171985118              -0.284728735               0.000000000               0.187597883              -0.308647764               0.000000000               0.203210648              -0.332566794               0.000000000               0.218823412              -0.356485823               0.000000000               0.234436177              -0.380404853               0.000000000               0.250048941              -0.404323882               0.000000000               0.265661706              -0.428242912               0.000000000               0.281274471              -0.452161941               0.000000000               0.296887235              -0.476080971               0.000000000               0.312500000              -0.500000000               0.000000000               0.050896897              -0.122875978               0.000000000               0.063340840              -0.146446229               0.000000000               0.075784784              -0.170016481               0.000000000               0.088228728              -0.193586732               0.000000000               0.100672672              -0.217156983               0.000000000               0.113116616              -0.240727235               0.000000000               0.125560560              -0.264297486               0.000000000               0.138004504              -0.287867738               0.000000000               0.150448448              -0.311437989               0.000000000               0.162892392              -0.335008240               0.000000000               0.175336336              -0.358578492               0.000000000               0.187780280              -0.382148743               0.000000000               0.200224224              -0.405718994               0.000000000               0.212668168              -0.429289246               0.000000000               0.225112112              -0.452859497               0.000000000               0.237556056              -0.476429749               0.000000000               0.250000000              -0.500000000               0.000000000               0.038607862              -0.127273065               0.000000000               0.047913621              -0.150568498               0.000000000               0.057219379              -0.173863932               0.000000000               0.066525138              -0.197159365               0.000000000               0.075830897              -0.220454798               0.000000000               0.085136655              -0.243750232               0.000000000               0.094442414              -0.267045665               0.000000000               0.103748172              -0.290341099               0.000000000               0.113053931              -0.313636532               0.000000000               0.122359690              -0.336931966               0.000000000               0.131665448              -0.360227399               0.000000000               0.140971207              -0.383522833               0.000000000               0.150276966              -0.406818266               0.000000000               0.159582724              -0.430113700               0.000000000               0.168888483              -0.453409133               0.000000000               0.178194241              -0.476704567               0.000000000               0.187500000              -0.500000000               0.000000000               0.025947013              -0.130444442               0.000000000               0.032137825              -0.153541665               0.000000000               0.038328636              -0.176638887               0.000000000               0.044519448              -0.199736109               0.000000000               0.050710260              -0.222833332               0.000000000               0.056901071              -0.245930554               0.000000000               0.063091883              -0.269027776               0.000000000               0.069282695              -0.292124999               0.000000000               0.075473506              -0.315222221               0.000000000               0.081664318              -0.338319444               0.000000000               0.087855130              -0.361416666               0.000000000               0.094045942              -0.384513888               0.000000000               0.100236753              -0.407611111               0.000000000               0.106427565              -0.430708333               0.000000000               0.112618377              -0.453805555               0.000000000               0.118809188              -0.476902778               0.000000000               0.125000000              -0.500000000               0.000000000               0.013036280              -0.132359569               0.000000000               0.016127762              -0.155337096               0.000000000               0.019219245              -0.178314623               0.000000000               0.022310727              -0.201292150               0.000000000               0.025402210              -0.224269676               0.000000000               0.028493692              -0.247247203               0.000000000               0.031585175              -0.270224730               0.000000000               0.034676657              -0.293202257               0.000000000               0.037768140              -0.316179784               0.000000000               0.040859622              -0.339157311               0.000000000               0.043951105              -0.362134838               0.000000000               0.047042587              -0.385112365               0.000000000               0.050134070              -0.408089892               0.000000000               0.053225552              -0.431067419               0.000000000               0.056317035              -0.454044946               0.000000000               0.059408517              -0.477022473               0.000000000               0.062500000              -0.500000000               0.000000000               0.000000000              -0.133000000               0.000000000               0.000000000              -0.155937500               0.000000000               0.000000000              -0.178875000               0.000000000               0.000000000              -0.201812500               0.000000000               0.000000000              -0.224750000               0.000000000               0.000000000              -0.247687500               0.000000000               0.000000000              -0.270625000               0.000000000               0.000000000              -0.293562500               0.000000000               0.000000000              -0.316500000               0.000000000               0.000000000              -0.339437500               0.000000000               0.000000000              -0.362375000               0.000000000               0.000000000              -0.385312500               0.000000000               0.000000000              -0.408250000               0.000000000               0.000000000              -0.431187500               0.000000000               0.000000000              -0.454125000               0.000000000               0.000000000              -0.477062500               0.000000000               0.000000000              -0.500000000               0.000000000              -0.133000000               0.000000000               0.000000000              -0.155937500               0.000000000               0.000000000              -0.178875000               0.000000000               0.000000000              -0.201812500               0.000000000               0.000000000              -0.224750000               0.000000000               0.000000000              -0.247687500               0.000000000               0.000000000              -0.270625000               0.000000000               0.000000000              -0.293562500               0.000000000               0.000000000              -0.316500000               0.000000000               0.000000000              -0.339437500               0.000000000               0.000000000              -0.362375000               0.000000000               0.000000000              -0.385312500               0.000000000               0.000000000              -0.408250000               0.000000000               0.000000000              -0.431187500               0.000000000               0.000000000              -0.454125000               0.000000000               0.000000000              -0.477062500               0.000000000               0.000000000              -0.500000000               0.000000000               0.000000000              -0.132359569              -0.013036280               0.000000000              -0.155337096              -0.016127762               0.000000000              -0.178314623              -0.019219245               0.000000000              -0.201292150              -0.022310727               0.000000000              -0.224269676              -0.025402210               0.000000000              -0.247247203              -0.028493692               0.000000000              -0.270224730              -0.031585175               0.000000000              -0.293202257              -0.034676657               0.000000000              -0.316179784              -0.037768140               0.000000000              -0.339157311              -0.040859622               0.000000000              -0.362134838              -0.043951105               0.000000000              -0.385112365              -0.047042587               0.000000000              -0.408089892              -0.050134070               0.000000000              -0.431067419              -0.053225552               0.000000000              -0.454044946              -0.056317035               0.000000000              -0.477022473              -0.059408517               0.000000000              -0.500000000              -0.062500000               0.000000000              -0.130444442              -0.025947013               0.000000000              -0.153541665              -0.032137825               0.000000000              -0.176638887              -0.038328636               0.000000000              -0.199736109              -0.044519448               0.000000000              -0.222833332              -0.050710260               0.000000000              -0.245930554              -0.056901071               0.000000000              -0.269027776              -0.063091883               0.000000000              -0.292124999              -0.069282695               0.000000000              -0.315222221              -0.075473506               0.000000000              -0.338319444              -0.081664318               0.000000000              -0.361416666              -0.087855130               0.000000000              -0.384513888              -0.094045942               0.000000000              -0.407611111              -0.100236753               0.000000000              -0.430708333              -0.106427565               0.000000000              -0.453805555              -0.112618377               0.000000000              -0.476902778              -0.118809188               0.000000000              -0.500000000              -0.125000000               0.000000000              -0.127273065              -0.038607862               0.000000000              -0.150568498              -0.047913621               0.000000000              -0.173863932              -0.057219379               0.000000000              -0.197159365              -0.066525138               0.000000000              -0.220454798              -0.075830897               0.000000000              -0.243750232              -0.085136655               0.000000000              -0.267045665              -0.094442414               0.000000000              -0.290341099              -0.103748172               0.000000000              -0.313636532              -0.113053931               0.000000000              -0.336931966              -0.122359690               0.000000000              -0.360227399              -0.131665448               0.000000000              -0.383522833              -0.140971207               0.000000000              -0.406818266              -0.150276966               0.000000000              -0.430113700              -0.159582724               0.000000000              -0.453409133              -0.168888483               0.000000000              -0.476704567              -0.178194241               0.000000000              -0.500000000              -0.187500000               0.000000000              -0.122875978              -0.050896897               0.000000000              -0.146446229              -0.063340840               0.000000000              -0.170016481              -0.075784784               0.000000000              -0.193586732              -0.088228728               0.000000000              -0.217156983              -0.100672672               0.000000000              -0.240727235              -0.113116616               0.000000000              -0.264297486              -0.125560560               0.000000000              -0.287867738              -0.138004504               0.000000000              -0.311437989              -0.150448448               0.000000000              -0.335008240              -0.162892392               0.000000000              -0.358578492              -0.175336336               0.000000000              -0.382148743              -0.187780280               0.000000000              -0.405718994              -0.200224224               0.000000000              -0.429289246              -0.212668168               0.000000000              -0.452859497              -0.225112112               0.000000000              -0.476429749              -0.237556056               0.000000000              -0.500000000              -0.250000000               0.000000000              -0.117295528              -0.062695766               0.000000000              -0.141214558              -0.078308531               0.000000000              -0.165133587              -0.093921295               0.000000000              -0.189052617              -0.109534060               0.000000000              -0.212971646              -0.125146824               0.000000000              -0.236890676              -0.140759589               0.000000000              -0.260809705              -0.156372354               0.000000000              -0.284728735              -0.171985118               0.000000000              -0.308647764              -0.187597883               0.000000000              -0.332566794              -0.203210648               0.000000000              -0.356485823              -0.218823412               0.000000000              -0.380404853              -0.234436177               0.000000000              -0.404323882              -0.250048941               0.000000000              -0.428242912              -0.265661706               0.000000000              -0.452161941              -0.281274471               0.000000000              -0.476080971              -0.296887235               0.000000000              -0.500000000              -0.312500000               0.000000000              -0.110585458              -0.073890841               0.000000000              -0.134923867              -0.092710163               0.000000000              -0.159262276              -0.111529486               0.000000000              -0.183600685              -0.130348808               0.000000000              -0.207939094              -0.149168131               0.000000000              -0.232277503              -0.167987453               0.000000000              -0.256615912              -0.186806776               0.000000000              -0.280954320              -0.205626098               0.000000000              -0.305292729              -0.224445420               0.000000000              -0.329631138              -0.243264743               0.000000000              -0.353969547              -0.262084065               0.000000000              -0.378307956              -0.280903388               0.000000000              -0.402646365              -0.299722710               0.000000000              -0.426984773              -0.318542033               0.000000000              -0.451323182              -0.337361355               0.000000000              -0.475661591              -0.356180678               0.000000000              -0.500000000              -0.375000000               0.000000000              -0.102810390              -0.084374307               0.000000000              -0.127634741              -0.106444663               0.000000000              -0.152459092              -0.128515018               0.000000000              -0.177283442              -0.150585374               0.000000000              -0.202107793              -0.172655730               0.000000000              -0.226932143              -0.194726086               0.000000000              -0.251756494              -0.216796442               0.000000000              -0.276580845              -0.238866798               0.000000000              -0.301405195              -0.260937153               0.000000000              -0.326229546              -0.283007509               0.000000000              -0.351053896              -0.305077865               0.000000000              -0.375878247              -0.327148221               0.000000000              -0.400702598              -0.349218577               0.000000000              -0.425526948              -0.371288933               0.000000000              -0.450351299              -0.393359288               0.000000000              -0.475175649              -0.415429644               0.000000000              -0.500000000              -0.437500000               0.000000000              -0.094045202              -0.094045202               0.000000000              -0.119417377              -0.119417377               0.000000000              -0.144789552              -0.144789552               0.000000000              -0.170161727              -0.170161727               0.000000000              -0.195533901              -0.195533901               0.000000000              -0.220906076              -0.220906076               0.000000000              -0.246278251              -0.246278251               0.000000000              -0.271650426              -0.271650426               0.000000000              -0.297022601              -0.297022601               0.000000000              -0.322394776              -0.322394776               0.000000000              -0.347766951              -0.347766951               0.000000000              -0.373139126              -0.373139126               0.000000000              -0.398511300              -0.398511300               0.000000000              -0.423883475              -0.423883475               0.000000000              -0.449255650              -0.449255650               0.000000000              -0.474627825              -0.474627825               0.000000000              -0.500000000              -0.500000000               0.000000000              -0.084374307              -0.102810390               0.000000000              -0.106444663              -0.127634741               0.000000000              -0.128515018              -0.152459092               0.000000000              -0.150585374              -0.177283442               0.000000000              -0.172655730              -0.202107793               0.000000000              -0.194726086              -0.226932143               0.000000000              -0.216796442              -0.251756494               0.000000000              -0.238866798              -0.276580845               0.000000000              -0.260937153              -0.301405195               0.000000000              -0.283007509              -0.326229546               0.000000000              -0.305077865              -0.351053896               0.000000000              -0.327148221              -0.375878247               0.000000000              -0.349218577              -0.400702598               0.000000000              -0.371288933              -0.425526948               0.000000000              -0.393359288              -0.450351299               0.000000000              -0.415429644              -0.475175649               0.000000000              -0.437500000              -0.500000000               0.000000000              -0.073890841              -0.110585458               0.000000000              -0.092710163              -0.134923867               0.000000000              -0.111529486              -0.159262276               0.000000000              -0.130348808              -0.183600685               0.000000000              -0.149168131              -0.207939094               0.000000000              -0.167987453              -0.232277503               0.000000000              -0.186806776              -0.256615912               0.000000000              -0.205626098              -0.280954320               0.000000000              -0.224445420              -0.305292729               0.000000000              -0.243264743              -0.329631138               0.000000000              -0.262084065              -0.353969547               0.000000000              -0.280903388              -0.378307956               0.000000000              -0.299722710              -0.402646365               0.000000000              -0.318542033              -0.426984773               0.000000000              -0.337361355              -0.451323182               0.000000000              -0.356180678              -0.475661591               0.000000000              -0.375000000              -0.500000000               0.000000000              -0.062695766              -0.117295528               0.000000000              -0.078308531              -0.141214558               0.000000000              -0.093921295              -0.165133587               0.000000000              -0.109534060              -0.189052617               0.000000000              -0.125146824              -0.212971646               0.000000000              -0.140759589              -0.236890676               0.000000000              -0.156372354              -0.260809705               0.000000000              -0.171985118              -0.284728735               0.000000000              -0.187597883              -0.308647764               0.000000000              -0.203210648              -0.332566794               0.000000000              -0.218823412              -0.356485823               0.000000000              -0.234436177              -0.380404853               0.000000000              -0.250048941              -0.404323882               0.000000000              -0.265661706              -0.428242912               0.000000000              -0.281274471              -0.452161941               0.000000000              -0.296887235              -0.476080971               0.000000000              -0.312500000              -0.500000000               0.000000000              -0.050896897              -0.122875978               0.000000000              -0.063340840              -0.146446229               0.000000000              -0.075784784              -0.170016481               0.000000000              -0.088228728              -0.193586732               0.000000000              -0.100672672              -0.217156983               0.000000000              -0.113116616              -0.240727235               0.000000000              -0.125560560              -0.264297486               0.000000000              -0.138004504              -0.287867738               0.000000000              -0.150448448              -0.311437989               0.000000000              -0.162892392              -0.335008240               0.000000000              -0.175336336              -0.358578492               0.000000000              -0.187780280              -0.382148743               0.000000000              -0.200224224              -0.405718994               0.000000000              -0.212668168              -0.429289246               0.000000000              -0.225112112              -0.452859497               0.000000000              -0.237556056              -0.476429749               0.000000000              -0.250000000              -0.500000000               0.000000000              -0.038607862              -0.127273065               0.000000000              -0.047913621              -0.150568498               0.000000000              -0.057219379              -0.173863932               0.000000000              -0.066525138              -0.197159365               0.000000000              -0.075830897              -0.220454798               0.000000000              -0.085136655              -0.243750232               0.000000000              -0.094442414              -0.267045665               0.000000000              -0.103748172              -0.290341099               0.000000000              -0.113053931              -0.313636532               0.000000000              -0.122359690              -0.336931966               0.000000000              -0.131665448              -0.360227399               0.000000000              -0.140971207              -0.383522833               0.000000000              -0.150276966              -0.406818266               0.000000000              -0.159582724              -0.430113700               0.000000000              -0.168888483              -0.453409133               0.000000000              -0.178194241              -0.476704567               0.000000000              -0.187500000              -0.500000000               0.000000000              -0.025947013              -0.130444442               0.000000000              -0.032137825              -0.153541665               0.000000000              -0.038328636              -0.176638887               0.000000000              -0.044519448              -0.199736109               0.000000000              -0.050710260              -0.222833332               0.000000000              -0.056901071              -0.245930554               0.000000000              -0.063091883              -0.269027776               0.000000000              -0.069282695              -0.292124999               0.000000000              -0.075473506              -0.315222221               0.000000000              -0.081664318              -0.338319444               0.000000000              -0.087855130              -0.361416666               0.000000000              -0.094045942              -0.384513888               0.000000000              -0.100236753              -0.407611111               0.000000000              -0.106427565              -0.430708333               0.000000000              -0.112618377              -0.453805555               0.000000000              -0.118809188              -0.476902778               0.000000000              -0.125000000              -0.500000000               0.000000000              -0.013036280              -0.132359569               0.000000000              -0.016127762              -0.155337096               0.000000000              -0.019219245              -0.178314623               0.000000000              -0.022310727              -0.201292150               0.000000000              -0.025402210              -0.224269676               0.000000000              -0.028493692              -0.247247203               0.000000000              -0.031585175              -0.270224730               0.000000000              -0.034676657              -0.293202257               0.000000000              -0.037768140              -0.316179784               0.000000000              -0.040859622              -0.339157311               0.000000000              -0.043951105              -0.362134838               0.000000000              -0.047042587              -0.385112365               0.000000000              -0.050134070              -0.408089892               0.000000000              -0.053225552              -0.431067419               0.000000000              -0.056317035              -0.454044946               0.000000000              -0.059408517              -0.477022473               0.000000000              -0.062500000              -0.500000000               0.000000000               0.000000000              -0.133000000               0.000000000               0.000000000              -0.155937500               0.000000000               0.000000000              -0.178875000               0.000000000               0.000000000              -0.201812500               0.000000000               0.000000000              -0.224750000               0.000000000               0.000000000              -0.247687500               0.000000000               0.000000000              -0.270625000               0.000000000               0.000000000              -0.293562500               0.000000000               0.000000000              -0.316500000               0.000000000               0.000000000              -0.339437500               0.000000000               0.000000000              -0.362375000               0.000000000               0.000000000              -0.385312500               0.000000000               0.000000000              -0.408250000               0.000000000               0.000000000              -0.431187500               0.000000000               0.000000000              -0.454125000               0.000000000               0.000000000              -0.477062500               0.000000000               0.000000000              -0.500000000               0.000000000              -0.133000000               0.000000000               0.000000000              -0.155937500               0.000000000               0.000000000              -0.178875000               0.000000000               0.000000000              -0.201812500               0.000000000               0.000000000              -0.224750000               0.000000000               0.000000000              -0.247687500               0.000000000               0.000000000              -0.270625000               0.000000000               0.000000000              -0.293562500               0.000000000               0.000000000              -0.316500000               0.000000000               0.000000000              -0.339437500               0.000000000               0.000000000              -0.362375000               0.000000000               0.000000000              -0.385312500               0.000000000               0.000000000              -0.408250000               0.000000000               0.000000000              -0.431187500               0.000000000               0.000000000              -0.454125000               0.000000000               0.000000000              -0.477062500               0.000000000               0.000000000              -0.500000000               0.000000000               0.000000000              -0.132359569               0.013036280               0.000000000              -0.155337096               0.016127762               0.000000000              -0.178314623               0.019219245               0.000000000              -0.201292150               0.022310727               0.000000000              -0.224269676               0.025402210               0.000000000              -0.247247203               0.028493692               0.000000000              -0.270224730               0.031585175               0.000000000              -0.293202257               0.034676657               0.000000000              -0.316179784               0.037768140               0.000000000              -0.339157311               0.040859622               0.000000000              -0.362134838               0.043951105               0.000000000              -0.385112365               0.047042587               0.000000000              -0.408089892               0.050134070               0.000000000              -0.431067419               0.053225552               0.000000000              -0.454044946               0.056317035               0.000000000              -0.477022473               0.059408517               0.000000000              -0.500000000               0.062500000               0.000000000              -0.130444442               0.025947013               0.000000000              -0.153541665               0.032137825               0.000000000              -0.176638887               0.038328636               0.000000000              -0.199736109               0.044519448               0.000000000              -0.222833332               0.050710260               0.000000000              -0.245930554               0.056901071               0.000000000              -0.269027776               0.063091883               0.000000000              -0.292124999               0.069282695               0.000000000              -0.315222221               0.075473506               0.000000000              -0.338319444               0.081664318               0.000000000              -0.361416666               0.087855130               0.000000000              -0.384513888               0.094045942               0.000000000              -0.407611111               0.100236753               0.000000000              -0.430708333               0.106427565               0.000000000              -0.453805555               0.112618377               0.000000000              -0.476902778               0.118809188               0.000000000              -0.500000000               0.125000000               0.000000000              -0.127273065               0.038607862               0.000000000              -0.150568498               0.047913621               0.000000000              -0.173863932               0.057219379               0.000000000              -0.197159365               0.066525138               0.000000000              -0.220454798               0.075830897               0.000000000              -0.243750232               0.085136655               0.000000000              -0.267045665               0.094442414               0.000000000              -0.290341099               0.103748172               0.000000000              -0.313636532               0.113053931               0.000000000              -0.336931966               0.122359690               0.000000000              -0.360227399               0.131665448               0.000000000              -0.383522833               0.140971207               0.000000000              -0.406818266               0.150276966               0.000000000              -0.430113700               0.159582724               0.000000000              -0.453409133               0.168888483               0.000000000              -0.476704567               0.178194241               0.000000000              -0.500000000               0.187500000               0.000000000              -0.122875978               0.050896897               0.000000000              -0.146446229               0.063340840               0.000000000              -0.170016481               0.075784784               0.000000000              -0.193586732               0.088228728               0.000000000              -0.217156983               0.100672672               0.000000000              -0.240727235               0.113116616               0.000000000              -0.264297486               0.125560560               0.000000000              -0.287867738               0.138004504               0.000000000              -0.311437989               0.150448448               0.000000000              -0.335008240               0.162892392               0.000000000              -0.358578492               0.175336336               0.000000000              -0.382148743               0.187780280               0.000000000              -0.405718994               0.200224224               0.000000000              -0.429289246               0.212668168               0.000000000              -0.452859497               0.225112112               0.000000000              -0.476429749               0.237556056               0.000000000              -0.500000000               0.250000000               0.000000000              -0.117295528               0.062695766               0.000000000              -0.141214558               0.078308531               0.000000000              -0.165133587               0.093921295               0.000000000              -0.189052617               0.109534060               0.000000000              -0.212971646               0.125146824               0.000000000              -0.236890676               0.140759589               0.000000000              -0.260809705               0.156372354               0.000000000              -0.284728735               0.171985118               0.000000000              -0.308647764               0.187597883               0.000000000              -0.332566794               0.203210648               0.000000000              -0.356485823               0.218823412               0.000000000              -0.380404853               0.234436177               0.000000000              -0.404323882               0.250048941               0.000000000              -0.428242912               0.265661706               0.000000000              -0.452161941               0.281274471               0.000000000              -0.476080971               0.296887235               0.000000000              -0.500000000               0.312500000               0.000000000              -0.110585458               0.073890841               0.000000000              -0.134923867               0.092710163               0.000000000              -0.159262276               0.111529486               0.000000000              -0.183600685               0.130348808               0.000000000              -0.207939094               0.149168131               0.000000000              -0.232277503               0.167987453               0.000000000              -0.256615912               0.186806776               0.000000000              -0.280954320               0.205626098               0.000000000              -0.305292729               0.224445420               0.000000000              -0.329631138               0.243264743               0.000000000              -0.353969547               0.262084065               0.000000000              -0.378307956               0.280903388               0.000000000              -0.402646365               0.299722710               0.000000000              -0.426984773               0.318542033               0.000000000              -0.451323182               0.337361355               0.000000000              -0.475661591               0.356180678               0.000000000              -0.500000000               0.375000000               0.000000000              -0.102810390               0.084374307               0.000000000              -0.127634741               0.106444663               0.000000000              -0.152459092               0.128515018               0.000000000              -0.177283442               0.150585374               0.000000000              -0.202107793               0.172655730               0.000000000              -0.226932143               0.194726086               0.000000000              -0.251756494               0.216796442               0.000000000              -0.276580845               0.238866798               0.000000000              -0.301405195               0.260937153               0.000000000              -0.326229546               0.283007509               0.000000000              -0.351053896               0.305077865               0.000000000              -0.375878247               0.327148221               0.000000000              -0.400702598               0.349218577               0.000000000              -0.425526948               0.371288933               0.000000000              -0.450351299               0.393359288               0.000000000              -0.475175649               0.415429644               0.000000000              -0.500000000               0.437500000               0.000000000              -0.094045202               0.094045202               0.000000000              -0.119417377               0.119417377               0.000000000              -0.144789552               0.144789552               0.000000000              -0.170161727               0.170161727               0.000000000              -0.195533901               0.195533901               0.000000000              -0.220906076               0.220906076               0.000000000              -0.246278251               0.246278251               0.000000000              -0.271650426               0.271650426               0.000000000              -0.297022601               0.297022601               0.000000000              -0.322394776               0.322394776               0.000000000              -0.347766951               0.347766951               0.000000000              -0.373139126               0.373139126               0.000000000              -0.398511300               0.398511300               0.000000000              -0.423883475               0.423883475               0.000000000              -0.449255650               0.449255650               0.000000000              -0.474627825               0.474627825               0.000000000              -0.500000000               0.500000000               0.000000000              -0.084374307               0.102810390               0.000000000              -0.106444663               0.127634741               0.000000000              -0.128515018               0.152459092               0.000000000              -0.150585374               0.177283442               0.000000000              -0.172655730               0.202107793               0.000000000              -0.194726086               0.226932143               0.000000000              -0.216796442               0.251756494               0.000000000              -0.238866798               0.276580845               0.000000000              -0.260937153               0.301405195               0.000000000              -0.283007509               0.326229546               0.000000000              -0.305077865               0.351053896               0.000000000              -0.327148221               0.375878247               0.000000000              -0.349218577               0.400702598               0.000000000              -0.371288933               0.425526948               0.000000000              -0.393359288               0.450351299               0.000000000              -0.415429644               0.475175649               0.000000000              -0.437500000               0.500000000               0.000000000              -0.073890841               0.110585458               0.000000000              -0.092710163               0.134923867               0.000000000              -0.111529486               0.159262276               0.000000000              -0.130348808               0.183600685               0.000000000              -0.149168131               0.207939094               0.000000000              -0.167987453               0.232277503               0.000000000              -0.186806776               0.256615912               0.000000000              -0.205626098               0.280954320               0.000000000              -0.224445420               0.305292729               0.000000000              -0.243264743               0.329631138               0.000000000              -0.262084065               0.353969547               0.000000000              -0.280903388               0.378307956               0.000000000              -0.299722710               0.402646365               0.000000000              -0.318542033               0.426984773               0.000000000              -0.337361355               0.451323182               0.000000000              -0.356180678               0.475661591               0.000000000              -0.375000000               0.500000000               0.000000000              -0.062695766               0.117295528               0.000000000              -0.078308531               0.141214558               0.000000000              -0.093921295               0.165133587               0.000000000              -0.109534060               0.189052617               0.000000000              -0.125146824               0.212971646               0.000000000              -0.140759589               0.236890676               0.000000000              -0.156372354               0.260809705               0.000000000              -0.171985118               0.284728735               0.000000000              -0.187597883               0.308647764               0.000000000              -0.203210648               0.332566794               0.000000000              -0.218823412               0.356485823               0.000000000              -0.234436177               0.380404853               0.000000000              -0.250048941               0.404323882               0.000000000              -0.265661706               0.428242912               0.000000000              -0.281274471               0.452161941               0.000000000              -0.296887235               0.476080971               0.000000000              -0.312500000               0.500000000               0.000000000              -0.050896897               0.122875978               0.000000000              -0.063340840               0.146446229               0.000000000              -0.075784784               0.170016481               0.000000000              -0.088228728               0.193586732               0.000000000              -0.100672672               0.217156983               0.000000000              -0.113116616               0.240727235               0.000000000              -0.125560560               0.264297486               0.000000000              -0.138004504               0.287867738               0.000000000              -0.150448448               0.311437989               0.000000000              -0.162892392               0.335008240               0.000000000              -0.175336336               0.358578492               0.000000000              -0.187780280               0.382148743               0.000000000              -0.200224224               0.405718994               0.000000000              -0.212668168               0.429289246               0.000000000              -0.225112112               0.452859497               0.000000000              -0.237556056               0.476429749               0.000000000              -0.250000000               0.500000000               0.000000000              -0.038607862               0.127273065               0.000000000              -0.047913621               0.150568498               0.000000000              -0.057219379               0.173863932               0.000000000              -0.066525138               0.197159365               0.000000000              -0.075830897               0.220454798               0.000000000              -0.085136655               0.243750232               0.000000000              -0.094442414               0.267045665               0.000000000              -0.103748172               0.290341099               0.000000000              -0.113053931               0.313636532               0.000000000              -0.122359690               0.336931966               0.000000000              -0.131665448               0.360227399               0.000000000              -0.140971207               0.383522833               0.000000000              -0.150276966               0.406818266               0.000000000              -0.159582724               0.430113700               0.000000000              -0.168888483               0.453409133               0.000000000              -0.178194241               0.476704567               0.000000000              -0.187500000               0.500000000               0.000000000              -0.025947013               0.130444442               0.000000000              -0.032137825               0.153541665               0.000000000              -0.038328636               0.176638887               0.000000000              -0.044519448               0.199736109               0.000000000              -0.050710260               0.222833332               0.000000000              -0.056901071               0.245930554               0.000000000              -0.063091883               0.269027776               0.000000000              -0.069282695               0.292124999               0.000000000              -0.075473506               0.315222221               0.000000000              -0.081664318               0.338319444               0.000000000              -0.087855130               0.361416666               0.000000000              -0.094045942               0.384513888               0.000000000              -0.100236753               0.407611111               0.000000000              -0.106427565               0.430708333               0.000000000              -0.112618377               0.453805555               0.000000000              -0.118809188               0.476902778               0.000000000              -0.125000000               0.500000000               0.000000000              -0.013036280               0.132359569               0.000000000              -0.016127762               0.155337096               0.000000000              -0.019219245               0.178314623               0.000000000              -0.022310727               0.201292150               0.000000000              -0.025402210               0.224269676               0.000000000              -0.028493692               0.247247203               0.000000000              -0.031585175               0.270224730               0.000000000              -0.034676657               0.293202257               0.000000000              -0.037768140               0.316179784               0.000000000              -0.040859622               0.339157311               0.000000000              -0.043951105               0.362134838               0.000000000              -0.047042587               0.385112365               0.000000000              -0.050134070               0.408089892               0.000000000              -0.053225552               0.431067419               0.000000000              -0.056317035               0.454044946               0.000000000              -0.059408517               0.477022473               0.000000000              -0.062500000               0.500000000               0.000000000               0.000000000               0.133000000               0.000000000               0.000000000               0.155937500               0.000000000               0.000000000               0.178875000               0.000000000               0.000000000               0.201812500               0.000000000               0.000000000               0.224750000               0.000000000               0.000000000               0.247687500               0.000000000               0.000000000               0.270625000               0.000000000               0.000000000               0.293562500               0.000000000               0.000000000               0.316500000               0.000000000               0.000000000               0.339437500               0.000000000               0.000000000               0.362375000               0.000000000               0.000000000               0.385312500               0.000000000               0.000000000               0.408250000               0.000000000               0.000000000               0.431187500               0.000000000               0.000000000               0.454125000               0.000000000               0.000000000               0.477062500               0.000000000               0.000000000               0.500000000               0.000000000 </DataArray>
</Points>
<Cells>
<DataArray type="Int32"                                    Name="connectivity"                                                      NumberOfComponents=" 1" format="ascii">
         0          1         18         17          1          2         19         18          2          3         20         19          3          4         21         20          4          5         22         21          5          6         23         22          6          7         24         23          7          8         25         24          8          9         26         25          9         10         27         26         10         11         28         27         11         12         29         28         12         13         30         29         13         14         31         30         14         15         32         31         15         16         33         32         17         18         35         34         18         19         36         35         19         20         37         36         20         21         38         37         21         22         39         38         22         23         40         39         23         24         41         40         24         25         42         41         25         26         43         42         26         27         44         43         27         28         45         44         28         29         46         45         29         30         47         46         30         31         48         47         31         32         49         48         32         33         50         49         34         35         52         51         35         36         53         52         36         37         54         53         37         38         55         54         38         39         56         55         39         40         57         56         40         41         58         57         41         42         59         58         42         43         60         59         43         44         61         60         44         45         62         61         45         46         63         62         46         47         64         63         47         48         65         64         48         49         66         65         49         50         67         66         51         52         69         68         52         53         70         69         53         54         71         70         54         55         72         71         55         56         73         72         56         57         74         73         57         58         75         74         58         59         76         75         59         60         77         76         60         61         78         77         61         62         79         78         62         63         80         79         63         64         81         80         64         65         82         81         65         66         83         82         66         67         84         83         68         69         86         85         69         70         87         86         70         71         88         87         71         72         89         88         72         73         90         89         73         74         91         90         74         75         92         91         75         76         93         92         76         77         94         93         77         78         95         94         78         79         96         95         79         80         97         96         80         81         98         97         81         82         99         98         82         83        100         99         83         84        101        100         85         86        103        102         86         87        104        103         87         88        105        104         88         89        106        105         89         90        107        106         90         91        108        107         91         92        109        108         92         93        110        109         93         94        111        110         94         95        112        111         95         96        113        112         96         97        114        113         97         98        115        114         98         99        116        115         99        100        117        116        100        101        118        117        102        103        120        119        103        104        121        120        104        105        122        121        105        106        123        122        106        107        124        123        107        108        125        124        108        109        126        125        109        110        127        126        110        111        128        127        111        112        129        128        112        113        130        129        113        114        131        130        114        115        132        131        115        116        133        132        116        117        134        133        117        118        135        134        119        120        137        136        120        121        138        137        121        122        139        138        122        123        140        139        123        124        141        140        124        125        142        141        125        126        143        142        126        127        144        143        127        128        145        144        128        129        146        145        129        130        147        146        130        131        148        147        131        132        149        148        132        133        150        149        133        134        151        150        134        135        152        151        136        137        154        153        137        138        155        154        138        139        156        155        139        140        157        156        140        141        158        157        141        142        159        158        142        143        160        159        143        144        161        160        144        145        162        161        145        146        163        162        146        147        164        163        147        148        165        164        148        149        166        165        149        150        167        166        150        151        168        167        151        152        169        168        153        154        171        170        154        155        172        171        155        156        173        172        156        157        174        173        157        158        175        174        158        159        176        175        159        160        177        176        160        161        178        177        161        162        179        178        162        163        180        179        163        164        181        180        164        165        182        181        165        166        183        182        166        167        184        183        167        168        185        184        168        169        186        185        170        171        188        187        171        172        189        188        172        173        190        189        173        174        191        190        174        175        192        191        175        176        193        192        176        177        194        193        177        178        195        194        178        179        196        195        179        180        197        196        180        181        198        197        181        182        199        198        182        183        200        199        183        184        201        200        184        185        202        201        185        186        203        202        187        188        205        204        188        189        206        205        189        190        207        206        190        191        208        207        191        192        209        208        192        193        210        209        193        194        211        210        194        195        212        211        195        196        213        212        196        197        214        213        197        198        215        214        198        199        216        215        199        200        217        216        200        201        218        217        201        202        219        218        202        203        220        219        204        205        222        221        205        206        223        222        206        207        224        223        207        208        225        224        208        209        226        225        209        210        227        226        210        211        228        227        211        212        229        228        212        213        230        229        213        214        231        230        214        215        232        231        215        216        233        232        216        217        234        233        217        218        235        234        218        219        236        235        219        220        237        236        221        222        239        238        222        223        240        239        223        224        241        240        224        225        242        241        225        226        243        242        226        227        244        243        227        228        245        244        228        229        246        245        229        230        247        246        230        231        248        247        231        232        249        248        232        233        250        249        233        234        251        250        234        235        252        251        235        236        253        252        236        237        254        253        238        239        256        255        239        240        257        256        240        241        258        257        241        242        259        258        242        243        260        259        243        244        261        260        244        245        262        261        245        246        263        262        246        247        264        263        247        248        265        264        248        249        266        265        249        250        267        266        250        251        268        267        251        252        269        268        252        253        270        269        253        254        271        270        255        256        273        272        256        257        274        273        257        258        275        274        258        259        276        275        259        260        277        276        260        261        278        277        261        262        279        278        262        263        280        279        263        264        281        280        264        265        282        281        265        266        283        282        266        267        284        283        267        268        285        284        268        269        286        285        269        270        287        286        270        271        288        287        306        307          1          0        307        308          2          1        308        309          3          2        309        310          4          3        310        311          5          4        311        312          6          5        312        313          7          6        313        314          8          7        314        315          9          8        315        316         10          9        316        317         11         10        317        318         12         11        318        319         13         12        319        320         14         13        320        321         15         14        321        322         16         15        323        324        307        306        324        325        308        307        325        326        309        308        326        327        310        309        327        328        311        310        328        329        312        311        329        330        313        312        330        331        314        313        331        332        315        314        332        333        316        315        333        334        317        316        334        335        318        317        335        336        319        318        336        337        320        319        337        338        321        320        338        339        322        321        340        341        324        323        341        342        325        324        342        343        326        325        343        344        327        326        344        345        328        327        345        346        329        328        346        347        330        329        347        348        331        330        348        349        332        331        349        350        333        332        350        351        334        333        351        352        335        334        352        353        336        335        353        354        337        336        354        355        338        337        355        356        339        338        357        358        341        340        358        359        342        341        359        360        343        342        360        361        344        343        361        362        345        344        362        363        346        345        363        364        347        346        364        365        348        347        365        366        349        348        366        367        350        349        367        368        351        350        368        369        352        351        369        370        353        352        370        371        354        353        371        372        355        354        372        373        356        355        374        375        358        357        375        376        359        358        376        377        360        359        377        378        361        360        378        379        362        361        379        380        363        362        380        381        364        363        381        382        365        364        382        383        366        365        383        384        367        366        384        385        368        367        385        386        369        368        386        387        370        369        387        388        371        370        388        389        372        371        389        390        373        372        391        392        375        374        392        393        376        375        393        394        377        376        394        395        378        377        395        396        379        378        396        397        380        379        397        398        381        380        398        399        382        381        399        400        383        382        400        401        384        383        401        402        385        384        402        403        386        385        403        404        387        386        404        405        388        387        405        406        389        388        406        407        390        389        408        409        392        391        409        410        393        392        410        411        394        393        411        412        395        394        412        413        396        395        413        414        397        396        414        415        398        397        415        416        399        398        416        417        400        399        417        418        401        400        418        419        402        401        419        420        403        402        420        421        404        403        421        422        405        404        422        423        406        405        423        424        407        406        425        426        409        408        426        427        410        409        427        428        411        410        428        429        412        411        429        430        413        412        430        431        414        413        431        432        415        414        432        433        416        415        433        434        417        416        434        435        418        417        435        436        419        418        436        437        420        419        437        438        421        420        438        439        422        421        439        440        423        422        440        441        424        423        442        443        426        425        443        444        427        426        444        445        428        427        445        446        429        428        446        447        430        429        447        448        431        430        448        449        432        431        449        450        433        432        450        451        434        433        451        452        435        434        452        453        436        435        453        454        437        436        454        455        438        437        455        456        439        438        456        457        440        439        457        458        441        440        459        460        443        442        460        461        444        443        461        462        445        444        462        463        446        445        463        464        447        446        464        465        448        447        465        466        449        448        466        467        450        449        467        468        451        450        468        469        452        451        469        470        453        452        470        471        454        453        471        472        455        454        472        473        456        455        473        474        457        456        474        475        458        457        476        477        460        459        477        478        461        460        478        479        462        461        479        480        463        462        480        481        464        463        481        482        465        464        482        483        466        465        483        484        467        466        484        485        468        467        485        486        469        468        486        487        470        469        487        488        471        470        488        489        472        471        489        490        473        472        490        491        474        473        491        492        475        474        493        494        477        476        494        495        478        477        495        496        479        478        496        497        480        479        497        498        481        480        498        499        482        481        499        500        483        482        500        501        484        483        501        502        485        484        502        503        486        485        503        504        487        486        504        505        488        487        505        506        489        488        506        507        490        489        507        508        491        490        508        509        492        491        510        511        494        493        511        512        495        494        512        513        496        495        513        514        497        496        514        515        498        497        515        516        499        498        516        517        500        499        517        518        501        500        518        519        502        501        519        520        503        502        520        521        504        503        521        522        505        504        522        523        506        505        523        524        507        506        524        525        508        507        525        526        509        508        527        528        511        510        528        529        512        511        529        530        513        512        530        531        514        513        531        532        515        514        532        533        516        515        533        534        517        516        534        535        518        517        535        536        519        518        536        537        520        519        537        538        521        520        538        539        522        521        539        540        523        522        540        541        524        523        541        542        525        524        542        543        526        525        544        545        528        527        545        546        529        528        546        547        530        529        547        548        531        530        548        549        532        531        549        550        533        532        550        551        534        533        551        552        535        534        552        553        536        535        553        554        537        536        554        555        538        537        555        556        539        538        556        557        540        539        557        558        541        540        558        559        542        541        559        560        543        542        561        562        545        544        562        563        546        545        563        564        547        546        564        565        548        547        565        566        549        548        566        567        550        549        567        568        551        550        568        569        552        551        569        570        553        552        570        571        554        553        571        572        555        554        572        573        556        555        573        574        557        556        574        575        558        557        575        576        559        558        576        577        560        559        578        579        596        595        579        580        597        596        580        581        598        597        581        582        599        598        582        583        600        599        583        584        601        600        584        585        602        601        585        586        603        602        586        587        604        603        587        588        605        604        588        589        606        605        589        590        607        606        590        591        608        607        591        592        609        608        592        593        610        609        593        594        611        610        595        596        613        612        596        597        614        613        597        598        615        614        598        599        616        615        599        600        617        616        600        601        618        617        601        602        619        618        602        603        620        619        603        604        621        620        604        605        622        621        605        606        623        622        606        607        624        623        607        608        625        624        608        609        626        625        609        610        627        626        610        611        628        627        612        613        630        629        613        614        631        630        614        615        632        631        615        616        633        632        616        617        634        633        617        618        635        634        618        619        636        635        619        620        637        636        620        621        638        637        621        622        639        638        622        623        640        639        623        624        641        640        624        625        642        641        625        626        643        642        626        627        644        643        627        628        645        644        629        630        647        646        630        631        648        647        631        632        649        648        632        633        650        649        633        634        651        650        634        635        652        651        635        636        653        652        636        637        654        653        637        638        655        654        638        639        656        655        639        640        657        656        640        641        658        657        641        642        659        658        642        643        660        659        643        644        661        660        644        645        662        661        646        647        664        663        647        648        665        664        648        649        666        665        649        650        667        666        650        651        668        667        651        652        669        668        652        653        670        669        653        654        671        670        654        655        672        671        655        656        673        672        656        657        674        673        657        658        675        674        658        659        676        675        659        660        677        676        660        661        678        677        661        662        679        678        663        664        681        680        664        665        682        681        665        666        683        682        666        667        684        683        667        668        685        684        668        669        686        685        669        670        687        686        670        671        688        687        671        672        689        688        672        673        690        689        673        674        691        690        674        675        692        691        675        676        693        692        676        677        694        693        677        678        695        694        678        679        696        695        680        681        698        697        681        682        699        698        682        683        700        699        683        684        701        700        684        685        702        701        685        686        703        702        686        687        704        703        687        688        705        704        688        689        706        705        689        690        707        706        690        691        708        707        691        692        709        708        692        693        710        709        693        694        711        710        694        695        712        711        695        696        713        712        697        698        715        714        698        699        716        715        699        700        717        716        700        701        718        717        701        702        719        718        702        703        720        719        703        704        721        720        704        705        722        721        705        706        723        722        706        707        724        723        707        708        725        724        708        709        726        725        709        710        727        726        710        711        728        727        711        712        729        728        712        713        730        729        714        715        732        731        715        716        733        732        716        717        734        733        717        718        735        734        718        719        736        735        719        720        737        736        720        721        738        737        721        722        739        738        722        723        740        739        723        724        741        740        724        725        742        741        725        726        743        742        726        727        744        743        727        728        745        744        728        729        746        745        729        730        747        746        731        732        749        748        732        733        750        749        733        734        751        750        734        735        752        751        735        736        753        752        736        737        754        753        737        738        755        754        738        739        756        755        739        740        757        756        740        741        758        757        741        742        759        758        742        743        760        759        743        744        761        760        744        745        762        761        745        746        763        762        746        747        764        763        748        749        766        765        749        750        767        766        750        751        768        767        751        752        769        768        752        753        770        769        753        754        771        770        754        755        772        771        755        756        773        772        756        757        774        773        757        758        775        774        758        759        776        775        759        760        777        776        760        761        778        777        761        762        779        778        762        763        780        779        763        764        781        780        765        766        783        782        766        767        784        783        767        768        785        784        768        769        786        785        769        770        787        786        770        771        788        787        771        772        789        788        772        773        790        789        773        774        791        790        774        775        792        791        775        776        793        792        776        777        794        793        777        778        795        794        778        779        796        795        779        780        797        796        780        781        798        797        782        783        800        799        783        784        801        800        784        785        802        801        785        786        803        802        786        787        804        803        787        788        805        804        788        789        806        805        789        790        807        806        790        791        808        807        791        792        809        808        792        793        810        809        793        794        811        810        794        795        812        811        795        796        813        812        796        797        814        813        797        798        815        814        799        800        817        816        800        801        818        817        801        802        819        818        802        803        820        819        803        804        821        820        804        805        822        821        805        806        823        822        806        807        824        823        807        808        825        824        808        809        826        825        809        810        827        826        810        811        828        827        811        812        829        828        812        813        830        829        813        814        831        830        814        815        832        831        816        817        834        833        817        818        835        834        818        819        836        835        819        820        837        836        820        821        838        837        821        822        839        838        822        823        840        839        823        824        841        840        824        825        842        841        825        826        843        842        826        827        844        843        827        828        845        844        828        829        846        845        829        830        847        846        830        831        848        847        831        832        849        848        833        834        562        561        834        835        563        562        835        836        564        563        836        837        565        564        837        838        566        565        838        839        567        566        839        840        568        567        840        841        569        568        841        842        570        569        842        843        571        570        843        844        572        571        844        845        573        572        845        846        574        573        846        847        575        574        847        848        576        575        848        849        577        576        884        885        579        578        885        886        580        579        886        887        581        580        887        888        582        581        888        889        583        582        889        890        584        583        890        891        585        584        891        892        586        585        892        893        587        586        893        894        588        587        894        895        589        588        895        896        590        589        896        897        591        590        897        898        592        591        898        899        593        592        899        900        594        593        901        902        885        884        902        903        886        885        903        904        887        886        904        905        888        887        905        906        889        888        906        907        890        889        907        908        891        890        908        909        892        891        909        910        893        892        910        911        894        893        911        912        895        894        912        913        896        895        913        914        897        896        914        915        898        897        915        916        899        898        916        917        900        899        918        919        902        901        919        920        903        902        920        921        904        903        921        922        905        904        922        923        906        905        923        924        907        906        924        925        908        907        925        926        909        908        926        927        910        909        927        928        911        910        928        929        912        911        929        930        913        912        930        931        914        913        931        932        915        914        932        933        916        915        933        934        917        916        935        936        919        918        936        937        920        919        937        938        921        920        938        939        922        921        939        940        923        922        940        941        924        923        941        942        925        924        942        943        926        925        943        944        927        926        944        945        928        927        945        946        929        928        946        947        930        929        947        948        931        930        948        949        932        931        949        950        933        932        950        951        934        933        952        953        936        935        953        954        937        936        954        955        938        937        955        956        939        938        956        957        940        939        957        958        941        940        958        959        942        941        959        960        943        942        960        961        944        943        961        962        945        944        962        963        946        945        963        964        947        946        964        965        948        947        965        966        949        948        966        967        950        949        967        968        951        950        969        970        953        952        970        971        954        953        971        972        955        954        972        973        956        955        973        974        957        956        974        975        958        957        975        976        959        958        976        977        960        959        977        978        961        960        978        979        962        961        979        980        963        962        980        981        964        963        981        982        965        964        982        983        966        965        983        984        967        966        984        985        968        967        986        987        970        969        987        988        971        970        988        989        972        971        989        990        973        972        990        991        974        973        991        992        975        974        992        993        976        975        993        994        977        976        994        995        978        977        995        996        979        978        996        997        980        979        997        998        981        980        998        999        982        981        999       1000        983        982       1000       1001        984        983       1001       1002        985        984       1003       1004        987        986       1004       1005        988        987       1005       1006        989        988       1006       1007        990        989       1007       1008        991        990       1008       1009        992        991       1009       1010        993        992       1010       1011        994        993       1011       1012        995        994       1012       1013        996        995       1013       1014        997        996       1014       1015        998        997       1015       1016        999        998       1016       1017       1000        999       1017       1018       1001       1000       1018       1019       1002       1001       1020       1021       1004       1003       1021       1022       1005       1004       1022       1023       1006       1005       1023       1024       1007       1006       1024       1025       1008       1007       1025       1026       1009       1008       1026       1027       1010       1009       1027       1028       1011       1010       1028       1029       1012       1011       1029       1030       1013       1012       1030       1031       1014       1013       1031       1032       1015       1014       1032       1033       1016       1015       1033       1034       1017       1016       1034       1035       1018       1017       1035       1036       1019       1018       1037       1038       1021       1020       1038       1039       1022       1021       1039       1040       1023       1022       1040       1041       1024       1023       1041       1042       1025       1024       1042       1043       1026       1025       1043       1044       1027       1026       1044       1045       1028       1027       1045       1046       1029       1028       1046       1047       1030       1029       1047       1048       1031       1030       1048       1049       1032       1031       1049       1050       1033       1032       1050       1051       1034       1033       1051       1052       1035       1034       1052       1053       1036       1035       1054       1055       1038       1037       1055       1056       1039       1038       1056       1057       1040       1039       1057       1058       1041       1040       1058       1059       1042       1041       1059       1060       1043       1042       1060       1061       1044       1043       1061       1062       1045       1044       1062       1063       1046       1045       1063       1064       1047       1046       1064       1065       1048       1047       1065       1066       1049       1048       1066       1067       1050       1049       1067       1068       1051       1050       1068       1069       1052       1051       1069       1070       1053       1052       1071       1072       1055       1054       1072       1073       1056       1055       1073       1074       1057       1056       1074       1075       1058       1057       1075       1076       1059       1058       1076       1077       1060       1059       1077       1078       1061       1060       1078       1079       1062       1061       1079       1080       1063       1062       1080       1081       1064       1063       1081       1082       1065       1064       1082       1083       1066       1065       1083       1084       1067       1066       1084       1085       1068       1067       1085       1086       1069       1068       1086       1087       1070       1069       1088       1089       1072       1071       1089       1090       1073       1072       1090       1091       1074       1073       1091       1092       1075       1074       1092       1093       1076       1075       1093       1094       1077       1076       1094       1095       1078       1077       1095       1096       1079       1078       1096       1097       1080       1079       1097       1098       1081       1080       1098       1099       1082       1081       1099       1100       1083       1082       1100       1101       1084       1083       1101       1102       1085       1084       1102       1103       1086       1085       1103       1104       1087       1086       1105       1106       1089       1088       1106       1107       1090       1089       1107       1108       1091       1090       1108       1109       1092       1091       1109       1110       1093       1092       1110       1111       1094       1093       1111       1112       1095       1094       1112       1113       1096       1095       1113       1114       1097       1096       1114       1115       1098       1097       1115       1116       1099       1098       1116       1117       1100       1099       1117       1118       1101       1100       1118       1119       1102       1101       1119       1120       1103       1102       1120       1121       1104       1103       1122       1123       1106       1105       1123       1124       1107       1106       1124       1125       1108       1107       1125       1126       1109       1108       1126       1127       1110       1109       1127       1128       1111       1110       1128       1129       1112       1111       1129       1130       1113       1112       1130       1131       1114       1113       1131       1132       1115       1114       1132       1133       1116       1115       1133       1134       1117       1116       1134       1135       1118       1117       1135       1136       1119       1118       1136       1137       1120       1119       1137       1138       1121       1120        272        273       1123       1122        273        274       1124       1123        274        275       1125       1124        275        276       1126       1125        276        277       1127       1126        277        278       1128       1127        278        279       1129       1128        279        280       1130       1129        280        281       1131       1130        281        282       1132       1131        282        283       1133       1132        283        284       1134       1133        284        285       1135       1134        285        286       1136       1135        286        287       1137       1136        287        288       1138       1137 </DataArray>
<DataArray type="Int32"                                    Name="offsets"                                                      NumberOfComponents=" 1" format="ascii">
         4          8         12         16         20         24         28         32         36         40         44         48         52         56         60         64         68         72         76         80         84         88         92         96        100        104        108        112        116        120        124        128        132        136        140        144        148        152        156        160        164        168        172        176        180        184        188        192        196        200        204        208        212        216        220        224        228        232        236        240        244        248        252        256        260        264        268        272        276        280        284        288        292        296        300        304        308        312        316        320        324        328        332        336        340        344        348        352        356        360        364        368        372        376        380        384        388        392        396        400        404        408        412        416        420        424        428        432        436        440        444        448        452        456        460        464        468        472        476        480        484        488        492        496        500        504        508        512        516        520        524        528        532        536        540        544        548        552        556        560        564        568        572        576        580        584        588        592        596        600        604        608        612        616        620        624        628        632        636        640        644        648        652        656        660        664        668        672        676        680        684        688        692        696        700        704        708        712        716        720        724        728        732        736        740        744        748        752        756        760        764        768        772        776        780        784        788        792        796        800        804        808        812        816        820        824        828        832        836        840        844        848        852        856        860        864        868        872        876        880        884        888        892        896        900        904        908        912        916        920        924        928        932        936        940        944        948        952        956        960        964        968        972        976        980        984        988        992        996       1000       1004       1008       1012       1016       1020       1024       1028       1032       1036       1040       1044       1048       1052       1056       1060       1064       1068       1072       1076       1080       1084       1088       1092       1096       1100       1104       1108       1112       1116       1120       1124       1128       1132       1136       1140       1144       1148       1152       1156       1160       1164       1168       1172       1176       1180       1184       1188       1192       1196       1200       1204       1208       1212       1216       1220       1224       1228       1232       1236       1240       1244       1248       1252       1256       1260       1264       1268       1272       1276       1280       1284       1288       1292       1296       1300       1304       1308       1312       1316       1320       1324       1328       1332       1336       1340       1344       1348       1352       1356       1360       1364       1368       1372       1376       1380       1384       1388       1392       1396       1400       1404       1408       1412       1416       1420       1424       1428       1432       1436       1440       1444       1448       1452       1456       1460       1464       1468       1472       1476       1480       1484       1488       1492       1496       1500       1504       1508       1512       1516       1520       1524       1528       1532       1536       1540       1544       1548       1552       1556       1560       1564       1568       1572       1576       1580       1584       1588       1592       1596       1600       1604       1608       1612       1616       1620       1624       1628       1632       1636       1640       1644       1648       1652       1656       1660       1664       1668       1672       1676       1680       1684       1688       1692       1696       1700       1704       1708       1712       1716       1720       1724       1728       1732       1736       1740       1744       1748       1752       1756       1760       1764       1768       1772       1776       1780       1784       1788       1792       1796       1800       1804       1808       1812       1816       1820       1824       1828       1832       1836       1840       1844       1848       1852       1856       1860       1864       1868       1872       1876       1880       1884       1888       1892       1896       1900       1904       1908       1912       1916       1920       1924       1928       1932       1936       1940       1944       1948       1952       1956       1960       1964       1968       1972       1976       1980       1984       1988       1992       1996       2000       2004       2008       2012       2016       2020       2024       2028       2032       2036       2040       2044       2048       2052       2056       2060       2064       2068       2072       2076       2080       2084       2088       2092       2096       2100       2104       2108       2112       2116       2120       2124       2128       2132       2136       2140       2144       2148       2152       2156       2160       2164       2168       2172       2176       2180       2184       2188       2192       2196       2200       2204       2208       2212       2216       2220       2224       2228       2232       2236       2240       2244       2248       2252       2256       2260       2264       2268       2272       2276       2280       2284       2288       2292       2296       2300       2304       2308       2312       2316       2320       2324       2328       2332       2336       2340       2344       2348       2352       2356       2360       2364       2368       2372       2376       2380       2384       2388       2392       2396       2400       2404       2408       2412       2416       2420       2424       2428       2432       2436       2440       2444       2448       2452       2456       2460       2464       2468       2472       2476       2480       2484       2488       2492       2496       2500       2504       2508       2512       2516       2520       2524       2528       2532       2536       2540       2544       2548       2552       2556       2560       2564       2568       2572       2576       2580       2584       2588       2592       2596       2600       2604       2608       2612       2616       2620       2624       2628       2632       2636       2640       2644       2648       2652       2656       2660       2664       2668       2672       2676       2680       2684       2688       2692       2696       2700       2704       2708       2712       2716       2720       2724       2728       2732       2736       2740       2744       2748       2752       2756       2760       2764       2768       2772       2776       2780       2784       2788       2792       2796       2800       2804       2808       2812       2816       2820       2824       2828       2832       2836       2840       2844       2848       2852       2856       2860       2864       2868       2872       2876       2880       2884       2888       2892       2896       2900       2904       2908       2912       2916       2920       2924       2928       2932       2936       2940       2944       2948       2952       2956       2960       2964       2968       2972       2976       2980       2984       2988       2992       2996       3000       3004       3008       3012       3016       3020       3024       3028       3032       3036       3040       3044       3048       3052       3056       3060       3064       3068       3072       3076       3080       3084       3088       3092       3096       3100       3104       3108       3112       3116       3120       3124       3128       3132       3136       3140       3144       3148       3152       3156       3160       3164       3168       3172       3176       3180       3184       3188       3192       3196       3200       3204       3208       3212       3216       3220       3224       3228       3232       3236       3240       3244       3248       3252       3256       3260       3264       3268       3272       3276       3280       3284       3288       3292       3296       3300       3304       3308       3312       3316       3320       3324       3328       3332       3336       3340       3344       3348       3352       3356       3360       3364       3368       3372       3376       3380       3384       3388       3392       3396       3400       3404       3408       3412       3416       3420       3424       3428       3432       3436       3440       3444       3448       3452       3456       3460       3464       3468       3472       3476       3480       3484       3488       3492       3496       3500       3504       3508       3512       3516       3520       3524       3528       3532       3536       3540       3544       3548       3552       3556       3560       3564       3568       3572       3576       3580       3584       3588       3592       3596       3600       3604       3608       3612       3616       3620       3624       3628       3632       3636       3640       3644       3648       3652       3656       3660       3664       3668       3672       3676       3680       3684       3688       3692       3696       3700       3704       3708       3712       3716       3720       3724       3728       3732       3736       3740       3744       3748       3752       3756       3760       3764       3768       3772       3776       3780       3784       3788       3792       3796       3800       3804       3808       3812       3816       3820       3824       3828       3832       3836       3840       3844       3848       3852       3856       3860       3864       3868       3872       3876       3880       3884       3888       3892       3896       3900       3904       3908       3912       3916       3920       3924       3928       3932       3936       3940       3944       3948       3952       3956       3960       3964       3968       3972       3976       3980       3984       3988       3992       3996       4000       4004       4008       4012       4016       4020       4024       4028       4032       4036       4040       4044       4048       4052       4056       4060       4064       4068       4072       4076       4080       4084       4088       4092       4096 </DataArray>
<DataArray type="UInt8"                                    Name="types"                                                      NumberOfComponents=" 1" format="ascii">
         9          9          9          9          9          9          9          9          9          9          9          9          9          9          9          9          9          9          9          9          9          9          9          9          9          9          9          9          9          9          9          9          9          9          9          9          9          9          9          9          9          9          9          9          9          9          9          9          9          9          9          9          9          9          9          9          9          9          9          9          9          9          9          9          9          9          9          9          9          9          9          9          9          9          9          9          9          9          9          9          9          9          9          9          9          9          9          9          9          9          9          9          9          9          9          9          9          9          9          9          9          9          9          9          9          9          9          9          9          9          9          9          9          9          9          9          9          9          9          9          9          9          9          9          9          9          9          9          9          9          9          9          9          9          9          9          9          9          9          9          9          9          9          9          9          9          9          9          9          9          9          9          9          9          9          9          9          9          9          9          9          9          9          9          9          9          9          9          9          9          9          9          9          9          9          9          9          9          9          9          9          9          9          9          9          9          9          9          9          9          9          9          9          9          9          9          9          9          9          9          9          9          9          9          9          9          9          9          9          9          9          9          9          9          9          9          9          9          9          9          9          9          9          9          9          9          9          9          9          9          9          9          9          9          9          9          9          9          9          9          9          9          9          9          9          9          9          9          9          9          9          9          9          9          9          9          9          9          9          9          9          9          9          9          9          9          9          9          9          9          9          9          9          9          9          9          9          9          9          9          9          9          9          9          9          9          9          9          9          9          9          9          9          9          9          9          9          9          9          9          9          9          9          9          9          9          9          9          9          9          9          9          9          9          9          9          9          9          9          9          9          9          9          9          9          9          9          9          9          9          9          9          9          9          9          9          9          9          9          9          9          9          9          9          9          9          9          9          9          9          9          9          9          9          9          9          9          9          9          9          9          9          9          9          9          9          9          9          9          9          9          9          9          9          9          9          9          9          9          9          9          9          9          9          9          9          9          9          9          9          9          9          9          9          9          9          9          9          9          9          9          9          9          9          9          9          9          9          9          9          9          9          9          9          9          9          9          9          9          9          9          9          9          9          9          9          9          9          9          9          9          9          9          9          9          9          9          9          9          9          9          9          9          9          9          9          9          9          9          9          9          9          9          9          9          9          9          9          9          9          9          9          9          9          9          9          9          9          9          9          9          9          9          9          9          9          9          9          9          9          9          9          9          9          9          9          9          9          9          9          9          9          9          9          9          9          9          9          9          9          9          9          9          9          9          9          9          9          9          9          9          9          9          9          9          9          9          9          9          9          9          9          9          9          9          9          9          9          9          9          9          9          9          9          9          9          9          9          9          9          9          9          9          9          9          9          9          9          9          9          9          9          9          9          9          9          9          9          9          9          9          9          9          9          9          9          9          9          9          9          9          9          9          9          9          9          9          9          9          9          9          9          9          9          9          9          9          9          9          9          9          9          9          9          9          9          9          9          9          9          9          9          9          9          9          9          9          9          9          9          9          9          9          9          9          9          9          9          9          9          9          9          9          9          9          9          9          9          9          9          9          9          9          9          9          9          9          9          9          9          9          9          9          9          9          9          9          9          9          9          9          9          9          9          9          9          9          9          9          9          9          9          9          9          9          9          9          9          9          9          9          9          9          9          9          9          9          9          9          9          9          9          9          9          9          9          9          9          9          9          9          9          9          9          9          9          9          9          9          9          9          9          9          9          9          9          9          9          9          9          9          9          9          9          9          9          9          9          9          9          9          9          9          9          9          9          9          9          9          9          9          9          9          9          9          9          9          9          9          9          9          9          9          9          9          9          9          9          9          9          9          9          9          9          9          9          9          9          9          9          9          9          9          9          9          9          9          9          9          9          9          9          9          9          9          9          9          9          9          9          9          9          9          9          9          9          9          9          9          9          9          9          9          9          9          9          9          9          9          9          9          9          9          9          9          9          9          9          9          9          9          9          9          9          9          9          9          9          9          9          9          9          9          9          9          9          9          9          9          9          9          9          9          9          9          9          9          9          9          9          9          9          9          9          9          9          9          9          9          9          9          9          9          9          9          9          9          9          9          9          9          9          9          9          9          9          9          9          9          9          9          9          9          9          9          9          9          9          9          9          9          9          9          9          9          9          9          9          9          9          9          9          9          9          9          9          9          9          9          9          9          9          9          9          9          9          9          9          9          9          9          9          9          9          9          9          9          9          9          9          9          9          9          9          9          9          9          9          9          9          9          9          9          9          9          9          9          9          9          9          9          9          9          9          9          9          9          9          9          9          9          9          9          9          9          9          9          9          9          9          9          9          9          9          9          9          9          9          9          9          9          9          9          9          9          9          9          9          9          9          9          9          9          9          9          9          9          9          9          9          9          9          9          9          9          9          9          9          9          9          9          9          9          9          9          9          9          9          9          9          9          9          9          9          9          9          9          9          9          9          9          9          9          9 </DataArray>
</Cells>
<CellData>
<DataArray type="Int32"                                    Name="material"                                                      NumberOfComponents=" 1" format="ascii">
         1          1          1          1          1          1          1          1          1          1          1          1          1          1          1          1          1          1          1          1          1          1          1          1          1          1          1          1          1          1          1          1          1          1          1          1          1          1          1          1          1          1          1          1          1          1          1          1          1          1          1          1          1          1          1          1          1          1          1          1          1          1          1          1          1          1          1          1          1          1          1          1          1          1          1          1          1          1          1          1          1          1          1          1          1          1          1          1          1          1          1          1          1          1          1          1          1          1          1          1          1          1          1          1          1          1          1          1          1          1          1          1          1          1          1          1          1          1          1          1          1          1          1          1          1          1          1          1          1          1          1          1          1          1          1          1          1          1          1          1          1          1          1          1          1          1          1          1          1          1          1          1          1          1          1          1          1          1          1          1          1          1          1          1          1          1          1          1          1          1          1          1          1          1          1          1          1          1          1          1          1          1          1          1          1          1          1          1          1          1          1          1          1          1          1          1          1          1          1          1          1          1          1          1          1          1          1          1          1          1          1          1          1          1          1          1          1          1          1          1          1          1          1          1          1          1          1          1          1          1          1          1          1          1          1          1          1          1          1          1          1          1          1          1          1          1          1          1          1          1          1          1          1          1          1          1          1          1          1          1          1          1          1          1          1          1          1          1          1          1          1          1          1          1          1          1          1          1          1          1          1          1          1          1          1          1          1          1          1          1          1          1          1          1          1          1          1          1          1          1          1          1          1          1          1          1          1          1          1          1          1          1          1          1          1          1          1          1          1          1          1          1          1          1          1          1          1          1          1          1          1          1          1          1          1          1          1          1          1          1          1          1          1          1          1          1          1          1          1          1          1          1          1          1          1          1          1          1          1          1          1          1          1          1          1          1          1          1          1          1          1          1          1          1          1          1          1          1          1          1          1          1          1          1          1          1          1          1          1          1          1          1          1          1          1          1          1          1          1          1          1          1          1          1          1          1          1          1          1          1          1          1          1          1          1          1          1          1          1          1          1          1          1          1          1          1          1          1          1          1          1          1          1          1          1          1          1          1          1          1          1          1          1          1          1          1          1          1          1          1          1          1          1          1          1          1          1          1          1          1          1          1          1          1          1          1          1          1          1          1          1          1          1          1          1          1          1          1          1          1          1          1          1          1          1          1          1          1          1          1          1          1          1          1          1          1          1          1          1          1          1          1          1          1          1          1          1          1          1          1          1          1          1          1          1          1          1          1          1          1          1          1          1          1          1          1          1          1          1          1          1          1          1          1          1          1          1          1          1          1          1          1          1          1          1          1          1          1          1          1          1          1          1          1          1          1          1          1          1          1          1          1          1          1          1          1          1          1          1          1          1          1          1          1          1          1          1          1          1          1          1          1          1          1          1          1          1          1          1          1          1          1          1          1          1          1          1          1          1          1          1          1          1          1          1          1          1          1          1          1          1          1          1          1          1          1          1          1          1          1          1          1          1          1          1          1          1          1          1          1          1          1          1          1          1          1          1          1          1          1          1          1          1          1          1          1          1          1          1          1          1          1          1          1          1          1          1          1          1          1          1          1          1          1          1          1          1          1          1          1          1          1          1          1          1          1          1          1          1          1          1          1          1          1          1          1          1          1          1          1          1          1          1          1          1          1          1          1          1          1          1          1          1          1          1          1          1          1          1          1          1          1          1          1          1          1          1          1          1          1          1          1          1          1          1          1          1          1          1          1          1          1          1          1          1          1          1          1          1          1          1          1          1          1          1          1          1          1          1          1          1          1          1          1          1          1          1          1          1          1          1          1          1          1          1          1          1          1          1          1          1          1          1          1          1          1          1          1          1          1          1          1          1          1          1          1          1          1          1          1          1          1          1          1          1          1          1          1          1          1          1          1          1          1          1          1          1          1          1          1          1          1          1          1          1          1          1          1          1          1          1          1          1          1          1          1          1          1          1          1          1          1          1          1          1          1          1          1          1          1          1          1          1          1          1          1          1          1          1          1          1          1          1          1          1          1          1          1          1          1          1          1          1          1          1          1          1          1          1          1          1          1          1          1          1          1          1          1          1          1          1          1          1          1          1          1          1          1          1          1          1          1          1          1          1          1          1          1          1          1          1          1          1          1          1          1          1          1          1          1          1          1          1          1          1          1          1          1          1          1          1          1          1          1          1          1          1          1          1          1          1          1          1          1          1          1          1          1          1          1          1          1          1          1          1          1          1          1          1          1          1          1          1          1          1          1          1          1          1          1          1          1          1          1          1          1          1          1          1          1          1          1          1          1          1          1          1          1          1          1          1          1          1          1          1          1          1          1          1          1          1          1          1          1          1          1          1          1          1          1          1          1          1          1          1          1          1          1          1          1          1          1          1          1          1          1          1          1          1          1          1          1          1          1 </DataArray>
</CellData>
<PointData>
<DataArray type="Float64"                                    Name="u"                                                      NumberOfComponents=" 3" format="ascii">
             -0.000921245               0.000000000               0.999999987              -0.000969440               0.000000000               0.999999987              -0.000989161               0.000000000               0.999999987              -0.000999399               0.000000000               0.999999987              -0.001007279               0.000000000               0.999999987              -0.001015240               0.000000000               0.999999987              -0.001024154               0.000000000               0.999999987              -0.001034213               0.000000000               0.999999987              -0.001044994               0.000000000               0.999999987              -0.001056033               0.000000000               0.999999987              -0.001067195              -0.000000000               0.999999987              -0.001078134               0.000000000               0.999999987              -0.001088439               0.000000000               0.999999987              -0.001097705              -0.000000000               0.999999987              -0.001105233              -0.000000000               0.999999987              -0.001110341              -0.000000000               0.999999987              -0.001112138              -0.000000000               0.999999987              -0.000916051               0.000126935               0.999999987              -0.000959997               0.000099894               0.999999987              -0.000976964               0.000087277               0.999999987              -0.000985491               0.000081701               0.999999987              -0.000992164               0.000079602               0.999999987              -0.000999180               0.000079026               0.999999987              -0.001007260               0.000079072               0.999999987              -0.001016298               0.000078957               0.999999987              -0.001025945               0.000077910               0.999999987              -0.001035821               0.000075780               0.999999987              -0.001045530               0.000072446               0.999999987              -0.001054755               0.000067600               0.999999987              -0.001063088               0.000060756               0.999999987              -0.001070017               0.000051112               0.999999987              -0.001074989               0.000037949               0.999999987              -0.001077418               0.000020700               0.999999987              -0.001076679              -0.000001782               0.999999987              -0.000900572               0.000252794               0.999999987              -0.000932079               0.000199520               0.999999987              -0.000941310               0.000175664               0.999999987              -0.000945075               0.000165747               0.999999987              -0.000948626               0.000162361               0.999999987              -0.000953252               0.000161841               0.999999987              -0.000959019               0.000162144               0.999999987              -0.000965513               0.000161866               0.999999987              -0.000972198               0.000159991               0.999999987              -0.000978515               0.000155884               0.999999987              -0.000984026               0.000149419               0.999999987              -0.000988311               0.000139763               0.999999987              -0.000990866               0.000126384               0.999999987              -0.000991350               0.000108080               0.999999987              -0.000989404               0.000083690               0.999999987              -0.000984807               0.000052234               0.999999987              -0.000977376               0.000012641               0.999999987              -0.000875028               0.000376333               0.999999987              -0.000886917               0.000298700               0.999999987              -0.000885134               0.000266109               0.999999987              -0.000882591               0.000253789               0.999999987              -0.000882002               0.000250525               0.999999987              -0.000883440               0.000250867               0.999999987              -0.000885976               0.000251898               0.999999987              -0.000888763               0.000251757               0.999999987              -0.000890962               0.000249009               0.999999987              -0.000891879               0.000243077               0.999999987              -0.000890986               0.000233481               0.999999987              -0.000887779               0.000219421               0.999999987              -0.000881905               0.000200092               0.999999987              -0.000873135               0.000174598               0.999999987              -0.000861553               0.000141922               0.999999987              -0.000847354               0.000101614               0.999999987              -0.000831003               0.000053179               0.999999987              -0.000840054               0.000496283               0.999999987              -0.000827141               0.000397372               0.999999987              -0.000813157               0.000359201               0.999999987              -0.000804282               0.000346591               0.999999987              -0.000799774               0.000344808               0.999999987              -0.000797848               0.000346762               0.999999987              -0.000796680               0.000348812               0.999999987              -0.000795004               0.000348855               0.999999987              -0.000791599               0.000345345               0.999999987              -0.000785797               0.000337469               0.999999987              -0.000776968               0.000324789               0.999999987              -0.000764792               0.000306608               0.999999987              -0.000749057               0.000282295               0.999999987              -0.000730015               0.000251579               0.999999987              -0.000708151               0.000214172               0.999999987              -0.000684173               0.000170290               0.999999987              -0.000659136               0.000121086               0.999999987              -0.000796390               0.000611581               0.999999987              -0.000755865               0.000495731               0.999999987              -0.000730685               0.000455012               0.999999987              -0.000716875               0.000443848               0.999999987              -0.000709447               0.000444383               0.999999987              -0.000704566               0.000448277               0.999999987              -0.000699675               0.000451507               0.999999987              -0.000693039               0.000451605               0.999999987              -0.000683409               0.000447083               0.999999987              -0.000670090               0.000437230               0.999999987              -0.000652624               0.000421594               0.999999987              -0.000630918               0.000399877               0.999999987              -0.000605202               0.000371854               0.999999987              -0.000576068               0.000337911               0.999999987              -0.000544426               0.000298868               0.999999987              -0.000511351               0.000255789               0.999999987              -0.000477813               0.000210248               0.999999987              -0.000745031               0.000721114               0.999999987              -0.000676674               0.000593780               0.999999987              -0.000643000               0.000553111               0.999999987              -0.000626724               0.000544348               0.999999987              -0.000617812               0.000547353               0.999999987              -0.000610595               0.000553169               0.999999987              -0.000602009               0.000557273               0.999999987              -0.000590047               0.000557206               0.999999987              -0.000573633               0.000551672               0.999999987              -0.000552134               0.000539919               0.999999987              -0.000525417               0.000521718               0.999999987              -0.000493646               0.000497203               0.999999987              -0.000457761               0.000466670               0.999999987              -0.000418587               0.000431593               0.999999987              -0.000377332               0.000393163               0.999999987              -0.000334950               0.000352661               0.999999987              -0.000292095               0.000311091               0.999999987              -0.000687013               0.000823774               0.999999987              -0.000593399               0.000691207               0.999999987              -0.000555072               0.000652403               0.999999987              -0.000538952               0.000646252               0.999999987              -0.000529727               0.000651439               0.999999987              -0.000520579               0.000658736               0.999999987              -0.000508084               0.000663420               0.999999987              -0.000490360               0.000663045               0.999999987              -0.000466456               0.000656508               0.999999987              -0.000436058               0.000642884               0.999999987              -0.000399248               0.000622489               0.999999987              -0.000356773               0.000595934               0.999999987              -0.000309756               0.000564532               0.999999987              -0.000259640               0.000529954               0.999999987              -0.000207722               0.000493669               0.999999987              -0.000154730               0.000456527               0.999999987              -0.000101293               0.000418994               0.999999987              -0.000624244               0.000917637               0.999999987              -0.000508872               0.000787964               0.999999987              -0.000471273               0.000751344               0.999999987              -0.000457218               0.000747244               0.999999987              -0.000448316               0.000754251               0.999999987              -0.000437283               0.000762558               0.999999987              -0.000420432               0.000767619               0.999999987              -0.000396248               0.000767021               0.999999987              -0.000363896               0.000759348               0.999999987              -0.000323261               0.000744066               0.999999987              -0.000274904               0.000721937               0.999999987              -0.000219999               0.000694478               0.999999987              -0.000160525               0.000663419               0.999999987              -0.000098275               0.000630718               0.999999987              -0.000034481               0.000597818               0.999999987               0.000029876               0.000565229               0.999999987               0.000094069               0.000532901               0.999999987              -0.000559321               0.001006518               0.999999987              -0.000437882               0.000896788               0.999999987              -0.000398032               0.000857049               0.999999987              -0.000383825               0.000848955               0.999999987              -0.000376216               0.000853815               0.999999987              -0.000367526               0.000862756               0.999999987              -0.000354114               0.000871088               0.999999987              -0.000334474               0.000876291               0.999999987              -0.000307510               0.000876786               0.999999987              -0.000272631               0.000871459               0.999999987              -0.000229969               0.000860227               0.999999987              -0.000179921               0.000843600               0.999999987              -0.000123686               0.000822882               0.999999987              -0.000062659               0.000799620               0.999999987               0.000001380               0.000775476               0.999999987               0.000066665               0.000751497               0.999999987               0.000131841               0.000728329               0.999999987              -0.000488762               0.001087568               0.999999987              -0.000369416               0.001002103               0.999999987              -0.000327456               0.000965560               0.999999987              -0.000312254               0.000955609               0.999999987              -0.000305139               0.000959217               0.999999987              -0.000298120               0.000968763               0.999999987              -0.000287606               0.000979885               0.999999987              -0.000271817               0.000990089               0.999999987              -0.000249723               0.000997712               0.999999987              -0.000220496               0.001001429               0.999999987              -0.000183674               0.001000510               0.999999987              -0.000139417               0.000994875               0.999999987              -0.000087982               0.000984705               0.999999987              -0.000030191               0.000971206               0.999999987               0.000032721               0.000955692               0.999999987               0.000098979               0.000939704               0.999999987               0.000166365               0.000924380               0.999999987              -0.000413948               0.001158737               0.999999987              -0.000303343               0.001100782               0.999999987              -0.000261169               0.001071944               0.999999987              -0.000244828               0.001063303               0.999999987              -0.000237462               0.001067120               0.999999987              -0.000231521               0.001077814               0.999999987              -0.000223127               0.001091616               0.999999987              -0.000210631               0.001106201               0.999999987              -0.000192808               0.001120059               0.999999987              -0.000168829               0.001131839               0.999999987              -0.000138093               0.001140449               0.999999987              -0.000100235               0.001145277               0.999999987              -0.000054875               0.001146105               0.999999987              -0.000002083               0.001143290               0.999999987               0.000057493               0.001137626               0.999999987               0.000122999               0.001130354               0.999999987               0.000192796               0.001122839               0.999999987              -0.000335505               0.001218739               0.999999987              -0.000239687               0.001188673               0.999999987              -0.000200071               0.001170753               0.999999987              -0.000183405               0.001166357               0.999999987              -0.000175757               0.001172151               0.999999987              -0.000170352               0.001184742               0.999999987              -0.000163518               0.001201527               0.999999987              -0.000153574               0.001220267               0.999999987              -0.000139520               0.001239695               0.999999987              -0.000120490               0.001258547               0.999999987              -0.000095750               0.001275769               0.999999987              -0.000064793               0.001290446               0.999999987              -0.000026699               0.001302101               0.999999987               0.000019090               0.001310412               0.999999987               0.000072821               0.001315661               0.999999987               0.000134382               0.001318450               0.999999987               0.000203469               0.001319854               0.999999987              -0.000254119               0.001266562               0.999999987              -0.000178084               0.001261751               0.999999987              -0.000144283               0.001255998               0.999999987              -0.000128987               0.001257606               0.999999987              -0.000121638               0.001266967               0.999999987              -0.000116576               0.001282503               0.999999987              -0.000111127               0.001302466               0.999999987              -0.000103411               0.001325220               0.999999987              -0.000092894               0.001349483               0.999999987              -0.000078593               0.001374431               0.999999987              -0.000059829               0.001399104               0.999999987              -0.000035915               0.001422547               0.999999987              -0.000006170               0.001444011               0.999999987               0.000030460               0.001462968               0.999999987               0.000074852               0.001479124               0.999999987               0.000127866               0.001492521               0.999999987               0.000190717               0.001503699               0.999999987              -0.000170583               0.001301314               0.999999987              -0.000117984               0.001316511               0.999999987              -0.000093245               0.001321810               0.999999987              -0.000081386               0.001329704               0.999999987              -0.000075331               0.001343053               0.999999987              -0.000071287               0.001361791               0.999999987              -0.000067215               0.001384885               0.999999987              -0.000061881               0.001411187               0.999999987              -0.000054719               0.001439623               0.999999987              -0.000045217               0.001469419               0.999999987              -0.000032647               0.001499825               0.999999987              -0.000016375               0.001530035               0.999999987               0.000004103               0.001559353               0.999999987               0.000029634               0.001587137               0.999999987               0.000061400               0.001612833               0.999999987               0.000100867               0.001636123               0.999999987               0.000149778               0.001656668               0.999999987              -0.000085645               0.001322333               0.999999987              -0.000058810               0.001350342               0.999999987              -0.000045723               0.001363330               0.999999987              -0.000039207               0.001376025               0.999999987              -0.000035755               0.001392536               0.999999987              -0.000033404               0.001413673               0.999999987              -0.000031248               0.001439063               0.999999987              -0.000028418               0.001467783               0.999999987              -0.000024791               0.001499065               0.999999987              -0.000020029               0.001532206               0.999999987              -0.000013765               0.001566526               0.999999987              -0.000005526               0.001601402               0.999999987               0.000004970               0.001636139               0.999999987               0.000017991               0.001670112               0.999999987               0.000034694               0.001702609               0.999999987               0.000055978               0.001732960               0.999999987               0.000083127               0.001760351               0.999999987              -0.000000000               0.001329331               0.999999987              -0.000000000               0.001361799               0.999999987               0.000000000               0.001377599               0.999999987              -0.000000000               0.001391990               0.999999987              -0.000000000               0.001409695               0.999999987               0.000000000               0.001431679               0.999999987              -0.000000000               0.001457827               0.999999987               0.000000000               0.001487513               0.999999987               0.000000000               0.001519811               0.999999987              -0.000000000               0.001554014               0.999999987               0.000000000               0.001589728               0.999999987              -0.000000000               0.001626382               0.999999987              -0.000000000               0.001663187               0.999999987              -0.000000000               0.001699580               0.999999987               0.000000000               0.001734649               0.999999987              -0.000000000               0.001767617               0.999999987               0.000000000               0.001797622               0.999999987              -0.000921245               0.000000000               0.999999987              -0.000969440               0.000000000               0.999999987              -0.000989161               0.000000000               0.999999987              -0.000999399               0.000000000               0.999999987              -0.001007279               0.000000000               0.999999987              -0.001015240               0.000000000               0.999999987              -0.001024154               0.000000000               0.999999987              -0.001034213               0.000000000               0.999999987              -0.001044994               0.000000000               0.999999987              -0.001056033               0.000000000               0.999999987              -0.001067195              -0.000000000               0.999999987              -0.001078134               0.000000000               0.999999987              -0.001088439               0.000000000               0.999999987              -0.001097705              -0.000000000               0.999999987              -0.001105233              -0.000000000               0.999999987              -0.001110341              -0.000000000               0.999999987              -0.001112138              -0.000000000               0.999999987              -0.000916051              -0.000126935               0.999999987              -0.000959997              -0.000099894               0.999999987              -0.000976964              -0.000087277               0.999999987              -0.000985491              -0.000081701               0.999999987              -0.000992164              -0.000079602               0.999999987              -0.000999180              -0.000079026               0.999999987              -0.001007260              -0.000079072               0.999999987              -0.001016298              -0.000078957               0.999999987              -0.001025945              -0.000077910               0.999999987              -0.001035821              -0.000075780               0.999999987              -0.001045530              -0.000072446               0.999999987              -0.001054755              -0.000067600               0.999999987              -0.001063088              -0.000060756               0.999999987              -0.001070017              -0.000051112               0.999999987              -0.001074989              -0.000037949               0.999999987              -0.001077418              -0.000020700               0.999999987              -0.001076679               0.000001782               0.999999987              -0.000900572              -0.000252794               0.999999987              -0.000932079              -0.000199520               0.999999987              -0.000941310              -0.000175664               0.999999987              -0.000945075              -0.000165747               0.999999987              -0.000948626              -0.000162361               0.999999987              -0.000953252              -0.000161841               0.999999987              -0.000959019              -0.000162144               0.999999987              -0.000965513              -0.000161866               0.999999987              -0.000972198              -0.000159991               0.999999987              -0.000978515              -0.000155884               0.999999987              -0.000984026              -0.000149419               0.999999987              -0.000988311              -0.000139763               0.999999987              -0.000990866              -0.000126384               0.999999987              -0.000991350              -0.000108080               0.999999987              -0.000989404              -0.000083690               0.999999987              -0.000984807              -0.000052234               0.999999987              -0.000977376              -0.000012641               0.999999987              -0.000875028              -0.000376333               0.999999987              -0.000886917              -0.000298700               0.999999987              -0.000885134              -0.000266109               0.999999987              -0.000882591              -0.000253789               0.999999987              -0.000882002              -0.000250525               0.999999987              -0.000883440              -0.000250867               0.999999987              -0.000885976              -0.000251898               0.999999987              -0.000888763              -0.000251757               0.999999987              -0.000890962              -0.000249009               0.999999987              -0.000891879              -0.000243077               0.999999987              -0.000890986              -0.000233481               0.999999987              -0.000887779              -0.000219421               0.999999987              -0.000881905              -0.000200092               0.999999987              -0.000873135              -0.000174598               0.999999987              -0.000861553              -0.000141922               0.999999987              -0.000847354              -0.000101614               0.999999987              -0.000831003              -0.000053179               0.999999987              -0.000840054              -0.000496283               0.999999987              -0.000827141              -0.000397372               0.999999987              -0.000813157              -0.000359201               0.999999987              -0.000804282              -0.000346591               0.999999987              -0.000799774              -0.000344808               0.999999987              -0.000797848              -0.000346762               0.999999987              -0.000796680              -0.000348812               0.999999987              -0.000795004              -0.000348855               0.999999987              -0.000791599              -0.000345345               0.999999987              -0.000785797              -0.000337469               0.999999987              -0.000776968              -0.000324789               0.999999987              -0.000764792              -0.000306608               0.999999987              -0.000749057              -0.000282295               0.999999987              -0.000730015              -0.000251579               0.999999987              -0.000708151              -0.000214172               0.999999987              -0.000684173              -0.000170290               0.999999987              -0.000659136              -0.000121086               0.999999987              -0.000796390              -0.000611581               0.999999987              -0.000755865              -0.000495731               0.999999987              -0.000730685              -0.000455012               0.999999987              -0.000716875              -0.000443848               0.999999987              -0.000709447              -0.000444383               0.999999987              -0.000704566              -0.000448277               0.999999987              -0.000699675              -0.000451507               0.999999987              -0.000693039              -0.000451605               0.999999987              -0.000683409              -0.000447083               0.999999987              -0.000670090              -0.000437230               0.999999987              -0.000652624              -0.000421594               0.999999987              -0.000630918              -0.000399877               0.999999987              -0.000605202              -0.000371854               0.999999987              -0.000576068              -0.000337911               0.999999987              -0.000544426              -0.000298868               0.999999987              -0.000511351              -0.000255789               0.999999987              -0.000477813              -0.000210248               0.999999987              -0.000745031              -0.000721114               0.999999987              -0.000676674              -0.000593780               0.999999987              -0.000643000              -0.000553111               0.999999987              -0.000626724              -0.000544348               0.999999987              -0.000617812              -0.000547353               0.999999987              -0.000610595              -0.000553169               0.999999987              -0.000602009              -0.000557273               0.999999987              -0.000590047              -0.000557206               0.999999987              -0.000573633              -0.000551672               0.999999987              -0.000552134              -0.000539919               0.999999987              -0.000525417              -0.000521718               0.999999987              -0.000493646              -0.000497203               0.999999987              -0.000457761              -0.000466670               0.999999987              -0.000418587              -0.000431593               0.999999987              -0.000377332              -0.000393163               0.999999987              -0.000334950              -0.000352661               0.999999987              -0.000292095              -0.000311091               0.999999987              -0.000687013              -0.000823774               0.999999987              -0.000593399              -0.000691207               0.999999987              -0.000555072              -0.000652403               0.999999987              -0.000538952              -0.000646252               0.999999987              -0.000529727              -0.000651439               0.999999987              -0.000520579              -0.000658736               0.999999987              -0.000508084              -0.000663420               0.999999987              -0.000490360              -0.000663045               0.999999987              -0.000466456              -0.000656508               0.999999987              -0.000436058              -0.000642884               0.999999987              -0.000399248              -0.000622489               0.999999987              -0.000356773              -0.000595934               0.999999987              -0.000309756              -0.000564532               0.999999987              -0.000259640              -0.000529954               0.999999987              -0.000207722              -0.000493669               0.999999987              -0.000154730              -0.000456527               0.999999987              -0.000101293              -0.000418994               0.999999987              -0.000624244              -0.000917637               0.999999987              -0.000508872              -0.000787964               0.999999987              -0.000471273              -0.000751344               0.999999987              -0.000457218              -0.000747244               0.999999987              -0.000448316              -0.000754251               0.999999987              -0.000437283              -0.000762558               0.999999987              -0.000420432              -0.000767619               0.999999987              -0.000396248              -0.000767021               0.999999987              -0.000363896              -0.000759348               0.999999987              -0.000323261              -0.000744066               0.999999987              -0.000274904              -0.000721937               0.999999987              -0.000219999              -0.000694478               0.999999987              -0.000160525              -0.000663419               0.999999987              -0.000098275              -0.000630718               0.999999987              -0.000034481              -0.000597818               0.999999987               0.000029876              -0.000565229               0.999999987               0.000094069              -0.000532901               0.999999987              -0.000559321              -0.001006518               0.999999987              -0.000437882              -0.000896788               0.999999987              -0.000398032              -0.000857049               0.999999987              -0.000383825              -0.000848955               0.999999987              -0.000376216              -0.000853815               0.999999987              -0.000367526              -0.000862756               0.999999987              -0.000354114              -0.000871088               0.999999987              -0.000334474              -0.000876291               0.999999987              -0.000307510              -0.000876786               0.999999987              -0.000272631              -0.000871459               0.999999987              -0.000229969              -0.000860227               0.999999987              -0.000179921              -0.000843600               0.999999987              -0.000123686              -0.000822882               0.999999987              -0.000062659              -0.000799620               0.999999987               0.000001380              -0.000775476               0.999999987               0.000066665              -0.000751497               0.999999987               0.000131841              -0.000728329               0.999999987              -0.000488762              -0.001087568               0.999999987              -0.000369416              -0.001002103               0.999999987              -0.000327456              -0.000965560               0.999999987              -0.000312254              -0.000955609               0.999999987              -0.000305139              -0.000959217               0.999999987              -0.000298120              -0.000968763               0.999999987              -0.000287606              -0.000979885               0.999999987              -0.000271817              -0.000990089               0.999999987              -0.000249723              -0.000997712               0.999999987              -0.000220496              -0.001001429               0.999999987              -0.000183674              -0.001000510               0.999999987              -0.000139417              -0.000994875               0.999999987              -0.000087982              -0.000984705               0.999999987              -0.000030191              -0.000971206               0.999999987               0.000032721              -0.000955692               0.999999987               0.000098979              -0.000939704               0.999999987               0.000166365              -0.000924380               0.999999987              -0.000413948              -0.001158737               0.999999987              -0.000303343              -0.001100782               0.999999987              -0.000261169              -0.001071944               0.999999987              -0.000244828              -0.001063303               0.999999987              -0.000237462              -0.001067120               0.999999987              -0.000231521              -0.001077814               0.999999987              -0.000223127              -0.001091616               0.999999987              -0.000210631              -0.001106201               0.999999987              -0.000192808              -0.001120059               0.999999987              -0.000168829              -0.001131839               0.999999987              -0.000138093              -0.001140449               0.999999987              -0.000100235              -0.001145277               0.999999987              -0.000054875              -0.001146105               0.999999987              -0.000002083              -0.001143290               0.999999987               0.000057493              -0.001137626               0.999999987               0.000122999              -0.001130354               0.999999987               0.000192796              -0.001122839               0.999999987              -0.000335505              -0.001218739               0.999999987              -0.000239687              -0.001188673               0.999999987              -0.000200071              -0.001170753               0.999999987              -0.000183405              -0.001166357               0.999999987              -0.000175757              -0.001172151               0.999999987              -0.000170352              -0.001184742               0.999999987              -0.000163518              -0.001201527               0.999999987              -0.000153574              -0.001220267               0.999999987              -0.000139520              -0.001239695               0.999999987              -0.000120490              -0.001258547               0.999999987              -0.000095750              -0.001275769               0.999999987              -0.000064793              -0.001290446               0.999999987              -0.000026699              -0.001302101               0.999999987               0.000019090              -0.001310412               0.999999987               0.000072821              -0.001315661               0.999999987               0.000134382              -0.001318450               0.999999987               0.000203469              -0.001319854               0.999999987              -0.000254119              -0.001266562               0.999999987              -0.000178084              -0.001261751               0.999999987              -0.000144283              -0.001255998               0.999999987              -0.000128987              -0.001257606               0.999999987              -0.000121638              -0.001266967               0.999999987              -0.000116576              -0.001282503               0.999999987              -0.000111127              -0.001302466               0.999999987              -0.000103411              -0.001325220               0.999999987              -0.000092894              -0.001349483               0.999999987              -0.000078593              -0.001374431               0.999999987              -0.000059829              -0.001399104               0.999999987              -0.000035915              -0.001422547               0.999999987              -0.000006170              -0.001444011               0.999999987               0.000030460              -0.001462968               0.999999987               0.000074852              -0.001479124               0.999999987               0.000127866              -0.001492521               0.999999987               0.000190717              -0.001503699               0.999999987              -0.000170583              -0.001301314               0.999999987              -0.000117984              -0.001316511               0.999999987              -0.000093245              -0.001321810               0.999999987              -0.000081386              -0.001329704               0.999999987              -0.000075331              -0.001343053               0.999999987              -0.000071287              -0.001361791               0.999999987              -0.000067215              -0.001384885               0.999999987              -0.000061881              -0.001411187               0.999999987              -0.000054719              -0.001439623               0.999999987              -0.000045217              -0.001469419               0.999999987              -0.000032647              -0.001499825               0.999999987              -0.000016375              -0.001530035               0.999999987               0.000004103              -0.001559353               0.999999987               0.000029634              -0.001587137               0.999999987               0.000061400              -0.001612833               0.999999987               0.000100867              -0.001636123               0.999999987               0.000149778              -0.001656668               0.999999987              -0.000085645              -0.001322333               0.999999987              -0.000058810              -0.001350342               0.999999987              -0.000045723              -0.001363330               0.999999987              -0.000039207              -0.001376025               0.999999987              -0.000035755              -0.001392536               0.999999987              -0.000033404              -0.001413673               0.999999987              -0.000031248              -0.001439063               0.999999987              -0.000028418              -0.001467783               0.999999987              -0.000024791              -0.001499065               0.999999987              -0.000020029              -0.001532206               0.999999987              -0.000013765              -0.001566526               0.999999987              -0.000005526              -0.001601402               0.999999987               0.000004970              -0.001636139               0.999999987               0.000017991              -0.001670112               0.999999987               0.000034694              -0.001702609               0.999999987               0.000055978              -0.001732960               0.999999987               0.000083127              -0.001760351               0.999999987              -0.000000000              -0.001329331               0.999999987               0.000000000              -0.001361799               0.999999987              -0.000000000              -0.001377599               0.999999987              -0.000000000              -0.001391990               0.999999987               0.000000000              -0.001409695               0.999999987               0.000000000              -0.001431679               0.999999987              -0.000000000              -0.001457827               0.999999987              -0.000000000              -0.001487513               0.999999987              -0.000000000              -0.001519811               0.999999987              -0.000000000              -0.001554014               0.999999987              -0.000000000              -0.001589728               0.999999987               0.000000000              -0.001626382               0.999999987               0.000000000              -0.001663187               0.999999987               0.000000000              -0.001699580               0.999999987              -0.000000000              -0.001734649               0.999999987              -0.000000000              -0.001767617               0.999999987              -0.000000000              -0.001797622               0.999999987               0.000921245               0.000000000               0.999999987               0.000969440               0.000000000               0.999999987               0.000989161               0.000000000               0.999999987               0.000999399               0.000000000               0.999999987               0.001007279              -0.000000000               0.999999987               0.001015240               0.000000000               0.999999987               0.001024154               0.000000000               0.999999987               0.001034213              -0.000000000               0.999999987               0.001044994               0.000000000               0.999999987               0.001056033              -0.000000000               0.999999987               0.001067195               0.000000000               0.999999987               0.001078134              -0.000000000               0.999999987               0.001088439               0.000000000               0.999999987               0.001097705              -0.000000000               0.999999987               0.001105233              -0.000000000               0.999999987               0.001110341               0.000000000               0.999999987               0.001112138              -0.000000000               0.999999987               0.000916051              -0.000126935               0.999999987               0.000959997              -0.000099894               0.999999987               0.000976964              -0.000087277               0.999999987               0.000985491              -0.000081701               0.999999987               0.000992164              -0.000079602               0.999999987               0.000999180              -0.000079026               0.999999987               0.001007260              -0.000079072               0.999999987               0.001016298              -0.000078957               0.999999987               0.001025945              -0.000077910               0.999999987               0.001035821              -0.000075780               0.999999987               0.001045530              -0.000072446               0.999999987               0.001054755              -0.000067600               0.999999987               0.001063088              -0.000060756               0.999999987               0.001070017              -0.000051112               0.999999987               0.001074989              -0.000037949               0.999999987               0.001077418              -0.000020700               0.999999987               0.001076679               0.000001782               0.999999987               0.000900572              -0.000252794               0.999999987               0.000932079              -0.000199520               0.999999987               0.000941310              -0.000175664               0.999999987               0.000945075              -0.000165747               0.999999987               0.000948626              -0.000162361               0.999999987               0.000953252              -0.000161841               0.999999987               0.000959019              -0.000162144               0.999999987               0.000965513              -0.000161866               0.999999987               0.000972198              -0.000159991               0.999999987               0.000978515              -0.000155884               0.999999987               0.000984026              -0.000149419               0.999999987               0.000988311              -0.000139763               0.999999987               0.000990866              -0.000126384               0.999999987               0.000991350              -0.000108080               0.999999987               0.000989404              -0.000083690               0.999999987               0.000984807              -0.000052234               0.999999987               0.000977376              -0.000012641               0.999999987               0.000875028              -0.000376333               0.999999987               0.000886917              -0.000298700               0.999999987               0.000885134              -0.000266109               0.999999987               0.000882591              -0.000253789               0.999999987               0.000882002              -0.000250525               0.999999987               0.000883440              -0.000250867               0.999999987               0.000885976              -0.000251898               0.999999987               0.000888763              -0.000251757               0.999999987               0.000890962              -0.000249009               0.999999987               0.000891879              -0.000243077               0.999999987               0.000890986              -0.000233481               0.999999987               0.000887779              -0.000219421               0.999999987               0.000881905              -0.000200092               0.999999987               0.000873135              -0.000174598               0.999999987               0.000861553              -0.000141922               0.999999987               0.000847354              -0.000101614               0.999999987               0.000831003              -0.000053179               0.999999987               0.000840054              -0.000496283               0.999999987               0.000827141              -0.000397372               0.999999987               0.000813157              -0.000359201               0.999999987               0.000804282              -0.000346591               0.999999987               0.000799774              -0.000344808               0.999999987               0.000797848              -0.000346762               0.999999987               0.000796680              -0.000348812               0.999999987               0.000795004              -0.000348855               0.999999987               0.000791599              -0.000345345               0.999999987               0.000785797              -0.000337469               0.999999987               0.000776968              -0.000324789               0.999999987               0.000764792              -0.000306608               0.999999987               0.000749057              -0.000282295               0.999999987               0.000730015              -0.000251579               0.999999987               0.000708151              -0.000214172               0.999999987               0.000684173              -0.000170290               0.999999987               0.000659136              -0.000121086               0.999999987               0.000796390              -0.000611581               0.999999987               0.000755865              -0.000495731               0.999999987               0.000730685              -0.000455012               0.999999987               0.000716875              -0.000443848               0.999999987               0.000709447              -0.000444383               0.999999987               0.000704566              -0.000448277               0.999999987               0.000699675              -0.000451507               0.999999987               0.000693039              -0.000451605               0.999999987               0.000683409              -0.000447083               0.999999987               0.000670090              -0.000437230               0.999999987               0.000652624              -0.000421594               0.999999987               0.000630918              -0.000399877               0.999999987               0.000605202              -0.000371854               0.999999987               0.000576068              -0.000337911               0.999999987               0.000544426              -0.000298868               0.999999987               0.000511351              -0.000255789               0.999999987               0.000477813              -0.000210248               0.999999987               0.000745031              -0.000721114               0.999999987               0.000676674              -0.000593780               0.999999987               0.000643000              -0.000553111               0.999999987               0.000626724              -0.000544348               0.999999987               0.000617812              -0.000547353               0.999999987               0.000610595              -0.000553169               0.999999987               0.000602009              -0.000557273               0.999999987               0.000590047              -0.000557206               0.999999987               0.000573633              -0.000551672               0.999999987               0.000552134              -0.000539919               0.999999987               0.000525417              -0.000521718               0.999999987               0.000493646              -0.000497203               0.999999987               0.000457761              -0.000466670               0.999999987               0.000418587              -0.000431593               0.999999987               0.000377332              -0.000393163               0.999999987               0.000334950              -0.000352661               0.999999987               0.000292095              -0.000311091               0.999999987               0.000687013              -0.000823774               0.999999987               0.000593399              -0.000691207               0.999999987               0.000555072              -0.000652403               0.999999987               0.000538952              -0.000646252               0.999999987               0.000529727              -0.000651439               0.999999987               0.000520579              -0.000658736               0.999999987               0.000508084              -0.000663420               0.999999987               0.000490360              -0.000663045               0.999999987               0.000466456              -0.000656508               0.999999987               0.000436058              -0.000642884               0.999999987               0.000399248              -0.000622489               0.999999987               0.000356773              -0.000595934               0.999999987               0.000309756              -0.000564532               0.999999987               0.000259640              -0.000529954               0.999999987               0.000207722              -0.000493669               0.999999987               0.000154730              -0.000456527               0.999999987               0.000101293              -0.000418994               0.999999987               0.000624244              -0.000917637               0.999999987               0.000508872              -0.000787964               0.999999987               0.000471273              -0.000751344               0.999999987               0.000457218              -0.000747244               0.999999987               0.000448316              -0.000754251               0.999999987               0.000437283              -0.000762558               0.999999987               0.000420432              -0.000767619               0.999999987               0.000396248              -0.000767021               0.999999987               0.000363896              -0.000759348               0.999999987               0.000323261              -0.000744066               0.999999987               0.000274904              -0.000721937               0.999999987               0.000219999              -0.000694478               0.999999987               0.000160525              -0.000663419               0.999999987               0.000098275              -0.000630718               0.999999987               0.000034481              -0.000597818               0.999999987              -0.000029876              -0.000565229               0.999999987              -0.000094069              -0.000532901               0.999999987               0.000559321              -0.001006518               0.999999987               0.000437882              -0.000896788               0.999999987               0.000398032              -0.000857049               0.999999987               0.000383825              -0.000848955               0.999999987               0.000376216              -0.000853815               0.999999987               0.000367526              -0.000862756               0.999999987               0.000354114              -0.000871088               0.999999987               0.000334474              -0.000876291               0.999999987               0.000307510              -0.000876786               0.999999987               0.000272631              -0.000871459               0.999999987               0.000229969              -0.000860227               0.999999987               0.000179921              -0.000843600               0.999999987               0.000123686              -0.000822882               0.999999987               0.000062659              -0.000799620               0.999999987              -0.000001380              -0.000775476               0.999999987              -0.000066665              -0.000751497               0.999999987              -0.000131841              -0.000728329               0.999999987               0.000488762              -0.001087568               0.999999987               0.000369416              -0.001002103               0.999999987               0.000327456              -0.000965560               0.999999987               0.000312254              -0.000955609               0.999999987               0.000305139              -0.000959217               0.999999987               0.000298120              -0.000968763               0.999999987               0.000287606              -0.000979885               0.999999987               0.000271817              -0.000990089               0.999999987               0.000249723              -0.000997712               0.999999987               0.000220496              -0.001001429               0.999999987               0.000183674              -0.001000510               0.999999987               0.000139417              -0.000994875               0.999999987               0.000087982              -0.000984705               0.999999987               0.000030191              -0.000971206               0.999999987              -0.000032721              -0.000955692               0.999999987              -0.000098979              -0.000939704               0.999999987              -0.000166365              -0.000924380               0.999999987               0.000413948              -0.001158737               0.999999987               0.000303343              -0.001100782               0.999999987               0.000261169              -0.001071944               0.999999987               0.000244828              -0.001063303               0.999999987               0.000237462              -0.001067120               0.999999987               0.000231521              -0.001077814               0.999999987               0.000223127              -0.001091616               0.999999987               0.000210631              -0.001106201               0.999999987               0.000192808              -0.001120059               0.999999987               0.000168829              -0.001131839               0.999999987               0.000138093              -0.001140449               0.999999987               0.000100235              -0.001145277               0.999999987               0.000054875              -0.001146105               0.999999987               0.000002083              -0.001143290               0.999999987              -0.000057493              -0.001137626               0.999999987              -0.000122999              -0.001130354               0.999999987              -0.000192796              -0.001122839               0.999999987               0.000335505              -0.001218739               0.999999987               0.000239687              -0.001188673               0.999999987               0.000200071              -0.001170753               0.999999987               0.000183405              -0.001166357               0.999999987               0.000175757              -0.001172151               0.999999987               0.000170352              -0.001184742               0.999999987               0.000163518              -0.001201527               0.999999987               0.000153574              -0.001220267               0.999999987               0.000139520              -0.001239695               0.999999987               0.000120490              -0.001258547               0.999999987               0.000095750              -0.001275769               0.999999987               0.000064793              -0.001290446               0.999999987               0.000026699              -0.001302101               0.999999987              -0.000019090              -0.001310412               0.999999987              -0.000072821              -0.001315661               0.999999987              -0.000134382              -0.001318450               0.999999987              -0.000203469              -0.001319854               0.999999987               0.000254119              -0.001266562               0.999999987               0.000178084              -0.001261751               0.999999987               0.000144283              -0.001255998               0.999999987               0.000128987              -0.001257606               0.999999987               0.000121638              -0.001266967               0.999999987               0.000116576              -0.001282503               0.999999987               0.000111127              -0.001302466               0.999999987               0.000103411              -0.001325220               0.999999987               0.000092894              -0.001349483               0.999999987               0.000078593              -0.001374431               0.999999987               0.000059829              -0.001399104               0.999999987               0.000035915              -0.001422547               0.999999987               0.000006170              -0.001444011               0.999999987              -0.000030460              -0.001462968               0.999999987              -0.000074852              -0.001479124               0.999999987              -0.000127866              -0.001492521               0.999999987              -0.000190717              -0.001503699               0.999999987               0.000170583              -0.001301314               0.999999987               0.000117984              -0.001316511               0.999999987               0.000093245              -0.001321810               0.999999987               0.000081386              -0.001329704               0.999999987               0.000075331              -0.001343053               0.999999987               0.000071287              -0.001361791               0.999999987               0.000067215              -0.001384885               0.999999987               0.000061881              -0.001411187               0.999999987               0.000054719              -0.001439623               0.999999987               0.000045217              -0.001469419               0.999999987               0.000032647              -0.001499825               0.999999987               0.000016375              -0.001530035               0.999999987              -0.000004103              -0.001559353               0.999999987              -0.000029634              -0.001587137               0.999999987              -0.000061400              -0.001612833               0.999999987              -0.000100867              -0.001636123               0.999999987              -0.000149778              -0.001656668               0.999999987               0.000085645              -0.001322333               0.999999987               0.000058810              -0.001350342               0.999999987               0.000045723              -0.001363330               0.999999987               0.000039207              -0.001376025               0.999999987               0.000035755              -0.001392536               0.999999987               0.000033404              -0.001413673               0.999999987               0.000031248              -0.001439063               0.999999987               0.000028418              -0.001467783               0.999999987               0.000024791              -0.001499065               0.999999987               0.000020029              -0.001532206               0.999999987               0.000013765              -0.001566526               0.999999987               0.000005526              -0.001601402               0.999999987              -0.000004970              -0.001636139               0.999999987              -0.000017991              -0.001670112               0.999999987              -0.000034694              -0.001702609               0.999999987              -0.000055978              -0.001732960               0.999999987              -0.000083127              -0.001760351               0.999999987              -0.000000000              -0.001329331               0.999999987               0.000000000              -0.001361799               0.999999987              -0.000000000              -0.001377599               0.999999987              -0.000000000              -0.001391990               0.999999987               0.000000000              -0.001409695               0.999999987               0.000000000              -0.001431679               0.999999987              -0.000000000              -0.001457827               0.999999987              -0.000000000              -0.001487513               0.999999987              -0.000000000              -0.001519811               0.999999987              -0.000000000              -0.001554014               0.999999987              -0.000000000              -0.001589728               0.999999987               0.000000000              -0.001626382               0.999999987               0.000000000              -0.001663187               0.999999987               0.000000000              -0.001699580               0.999999987              -0.000000000              -0.001734649               0.999999987              -0.000000000              -0.001767617               0.999999987              -0.000000000              -0.001797622               0.999999987               0.000921245               0.000000000               0.999999987               0.000969440               0.000000000               0.999999987               0.000989161               0.000000000               0.999999987               0.000999399               0.000000000               0.999999987               0.001007279              -0.000000000               0.999999987               0.001015240               0.000000000               0.999999987               0.001024154               0.000000000               0.999999987               0.001034213              -0.000000000               0.999999987               0.001044994               0.000000000               0.999999987               0.001056033              -0.000000000               0.999999987               0.001067195               0.000000000               0.999999987               0.001078134              -0.000000000               0.999999987               0.001088439               0.000000000               0.999999987               0.001097705              -0.000000000               0.999999987               0.001105233              -0.000000000               0.999999987               0.001110341               0.000000000               0.999999987               0.001112138              -0.000000000               0.999999987               0.000916051               0.000126935               0.999999987               0.000959997               0.000099894               0.999999987               0.000976964               0.000087277               0.999999987               0.000985491               0.000081701               0.999999987               0.000992164               0.000079602               0.999999987               0.000999180               0.000079026               0.999999987               0.001007260               0.000079072               0.999999987               0.001016298               0.000078957               0.999999987               0.001025945               0.000077910               0.999999987               0.001035821               0.000075780               0.999999987               0.001045530               0.000072446               0.999999987               0.001054755               0.000067600               0.999999987               0.001063088               0.000060756               0.999999987               0.001070017               0.000051112               0.999999987               0.001074989               0.000037949               0.999999987               0.001077418               0.000020700               0.999999987               0.001076679              -0.000001782               0.999999987               0.000900572               0.000252794               0.999999987               0.000932079               0.000199520               0.999999987               0.000941310               0.000175664               0.999999987               0.000945075               0.000165747               0.999999987               0.000948626               0.000162361               0.999999987               0.000953252               0.000161841               0.999999987               0.000959019               0.000162144               0.999999987               0.000965513               0.000161866               0.999999987               0.000972198               0.000159991               0.999999987               0.000978515               0.000155884               0.999999987               0.000984026               0.000149419               0.999999987               0.000988311               0.000139763               0.999999987               0.000990866               0.000126384               0.999999987               0.000991350               0.000108080               0.999999987               0.000989404               0.000083690               0.999999987               0.000984807               0.000052234               0.999999987               0.000977376               0.000012641               0.999999987               0.000875028               0.000376333               0.999999987               0.000886917               0.000298700               0.999999987               0.000885134               0.000266109               0.999999987               0.000882591               0.000253789               0.999999987               0.000882002               0.000250525               0.999999987               0.000883440               0.000250867               0.999999987               0.000885976               0.000251898               0.999999987               0.000888763               0.000251757               0.999999987               0.000890962               0.000249009               0.999999987               0.000891879               0.000243077               0.999999987               0.000890986               0.000233481               0.999999987               0.000887779               0.000219421               0.999999987               0.000881905               0.000200092               0.999999987               0.000873135               0.000174598               0.999999987               0.000861553               0.000141922               0.999999987               0.000847354               0.000101614               0.999999987               0.000831003               0.000053179               0.999999987               0.000840054               0.000496283               0.999999987               0.000827141               0.000397372               0.999999987               0.000813157               0.000359201               0.999999987               0.000804282               0.000346591               0.999999987               0.000799774               0.000344808               0.999999987               0.000797848               0.000346762               0.999999987               0.000796680               0.000348812               0.999999987               0.000795004               0.000348855               0.999999987               0.000791599               0.000345345               0.999999987               0.000785797               0.000337469               0.999999987               0.000776968               0.000324789               0.999999987               0.000764792               0.000306608               0.999999987               0.000749057               0.000282295               0.999999987               0.000730015               0.000251579               0.999999987               0.000708151               0.000214172               0.999999987               0.000684173               0.000170290               0.999999987               0.000659136               0.000121086               0.999999987               0.000796390               0.000611581               0.999999987               0.000755865               0.000495731               0.999999987               0.000730685               0.000455012               0.999999987               0.000716875               0.000443848               0.999999987               0.000709447               0.000444383               0.999999987               0.000704566               0.000448277               0.999999987               0.000699675               0.000451507               0.999999987               0.000693039               0.000451605               0.999999987               0.000683409               0.000447083               0.999999987               0.000670090               0.000437230               0.999999987               0.000652624               0.000421594               0.999999987               0.000630918               0.000399877               0.999999987               0.000605202               0.000371854               0.999999987               0.000576068               0.000337911               0.999999987               0.000544426               0.000298868               0.999999987               0.000511351               0.000255789               0.999999987               0.000477813               0.000210248               0.999999987               0.000745031               0.000721114               0.999999987               0.000676674               0.000593780               0.999999987               0.000643000               0.000553111               0.999999987               0.000626724               0.000544348               0.999999987               0.000617812               0.000547353               0.999999987               0.000610595               0.000553169               0.999999987               0.000602009               0.000557273               0.999999987               0.000590047               0.000557206               0.999999987               0.000573633               0.000551672               0.999999987               0.000552134               0.000539919               0.999999987               0.000525417               0.000521718               0.999999987               0.000493646               0.000497203               0.999999987               0.000457761               0.000466670               0.999999987               0.000418587               0.000431593               0.999999987               0.000377332               0.000393163               0.999999987               0.000334950               0.000352661               0.999999987               0.000292095               0.000311091               0.999999987               0.000687013               0.000823774               0.999999987               0.000593399               0.000691207               0.999999987               0.000555072               0.000652403               0.999999987               0.000538952               0.000646252               0.999999987               0.000529727               0.000651439               0.999999987               0.000520579               0.000658736               0.999999987               0.000508084               0.000663420               0.999999987               0.000490360               0.000663045               0.999999987               0.000466456               0.000656508               0.999999987               0.000436058               0.000642884               0.999999987               0.000399248               0.000622489               0.999999987               0.000356773               0.000595934               0.999999987               0.000309756               0.000564532               0.999999987               0.000259640               0.000529954               0.999999987               0.000207722               0.000493669               0.999999987               0.000154730               0.000456527               0.999999987               0.000101293               0.000418994               0.999999987               0.000624244               0.000917637               0.999999987               0.000508872               0.000787964               0.999999987               0.000471273               0.000751344               0.999999987               0.000457218               0.000747244               0.999999987               0.000448316               0.000754251               0.999999987               0.000437283               0.000762558               0.999999987               0.000420432               0.000767619               0.999999987               0.000396248               0.000767021               0.999999987               0.000363896               0.000759348               0.999999987               0.000323261               0.000744066               0.999999987               0.000274904               0.000721937               0.999999987               0.000219999               0.000694478               0.999999987               0.000160525               0.000663419               0.999999987               0.000098275               0.000630718               0.999999987               0.000034481               0.000597818               0.999999987              -0.000029876               0.000565229               0.999999987              -0.000094069               0.000532901               0.999999987               0.000559321               0.001006518               0.999999987               0.000437882               0.000896788               0.999999987               0.000398032               0.000857049               0.999999987               0.000383825               0.000848955               0.999999987               0.000376216               0.000853815               0.999999987               0.000367526               0.000862756               0.999999987               0.000354114               0.000871088               0.999999987               0.000334474               0.000876291               0.999999987               0.000307510               0.000876786               0.999999987               0.000272631               0.000871459               0.999999987               0.000229969               0.000860227               0.999999987               0.000179921               0.000843600               0.999999987               0.000123686               0.000822882               0.999999987               0.000062659               0.000799620               0.999999987              -0.000001380               0.000775476               0.999999987              -0.000066665               0.000751497               0.999999987              -0.000131841               0.000728329               0.999999987               0.000488762               0.001087568               0.999999987               0.000369416               0.001002103               0.999999987               0.000327456               0.000965560               0.999999987               0.000312254               0.000955609               0.999999987               0.000305139               0.000959217               0.999999987               0.000298120               0.000968763               0.999999987               0.000287606               0.000979885               0.999999987               0.000271817               0.000990089               0.999999987               0.000249723               0.000997712               0.999999987               0.000220496               0.001001429               0.999999987               0.000183674               0.001000510               0.999999987               0.000139417               0.000994875               0.999999987               0.000087982               0.000984705               0.999999987               0.000030191               0.000971206               0.999999987              -0.000032721               0.000955692               0.999999987              -0.000098979               0.000939704               0.999999987              -0.000166365               0.000924380               0.999999987               0.000413948               0.001158737               0.999999987               0.000303343               0.001100782               0.999999987               0.000261169               0.001071944               0.999999987               0.000244828               0.001063303               0.999999987               0.000237462               0.001067120               0.999999987               0.000231521               0.001077814               0.999999987               0.000223127               0.001091616               0.999999987               0.000210631               0.001106201               0.999999987               0.000192808               0.001120059               0.999999987               0.000168829               0.001131839               0.999999987               0.000138093               0.001140449               0.999999987               0.000100235               0.001145277               0.999999987               0.000054875               0.001146105               0.999999987               0.000002083               0.001143290               0.999999987              -0.000057493               0.001137626               0.999999987              -0.000122999               0.001130354               0.999999987              -0.000192796               0.001122839               0.999999987               0.000335505               0.001218739               0.999999987               0.000239687               0.001188673               0.999999987               0.000200071               0.001170753               0.999999987               0.000183405               0.001166357               0.999999987               0.000175757               0.001172151               0.999999987               0.000170352               0.001184742               0.999999987               0.000163518               0.001201527               0.999999987               0.000153574               0.001220267               0.999999987               0.000139520               0.001239695               0.999999987               0.000120490               0.001258547               0.999999987               0.000095750               0.001275769               0.999999987               0.000064793               0.001290446               0.999999987               0.000026699               0.001302101               0.999999987              -0.000019090               0.001310412               0.999999987              -0.000072821               0.001315661               0.999999987              -0.000134382               0.001318450               0.999999987              -0.000203469               0.001319854               0.999999987               0.000254119               0.001266562               0.999999987               0.000178084               0.001261751               0.999999987               0.000144283               0.001255998               0.999999987               0.000128987               0.001257606               0.999999987               0.000121638               0.001266967               0.999999987               0.000116576               0.001282503               0.999999987               0.000111127               0.001302466               0.999999987               0.000103411               0.001325220               0.999999987               0.000092894               0.001349483               0.999999987               0.000078593               0.001374431               0.999999987               0.000059829               0.001399104               0.999999987               0.000035915               0.001422547               0.999999987               0.000006170               0.001444011               0.999999987              -0.000030460               0.001462968               0.999999987              -0.000074852               0.001479124               0.999999987              -0.000127866               0.001492521               0.999999987              -0.000190717               0.001503699               0.999999987               0.000170583               0.001301314               0.999999987               0.000117984               0.001316511               0.999999987               0.000093245               0.001321810               0.999999987               0.000081386               0.001329704               0.999999987               0.000075331               0.001343053               0.999999987               0.000071287               0.001361791               0.999999987               0.000067215               0.001384885               0.999999987               0.000061881               0.001411187               0.999999987               0.000054719               0.001439623               0.999999987               0.000045217               0.001469419               0.999999987               0.000032647               0.001499825               0.999999987               0.000016375               0.001530035               0.999999987              -0.000004103               0.001559353               0.999999987              -0.000029634               0.001587137               0.999999987              -0.000061400               0.001612833               0.999999987              -0.000100867               0.001636123               0.999999987              -0.000149778               0.001656668               0.999999987               0.000085645               0.001322333               0.999999987               0.000058810               0.001350342               0.999999987               0.000045723               0.001363330               0.999999987               0.000039207               0.001376025               0.999999987               0.000035755               0.001392536               0.999999987               0.000033404               0.001413673               0.999999987               0.000031248               0.001439063               0.999999987               0.000028418               0.001467783               0.999999987               0.000024791               0.001499065               0.999999987               0.000020029               0.001532206               0.999999987               0.000013765               0.001566526               0.999999987               0.000005526               0.001601402               0.999999987              -0.000004970               0.001636139               0.999999987              -0.000017991               0.001670112               0.999999987              -0.000034694               0.001702609               0.999999987              -0.000055978               0.001732960               0.999999987              -0.000083127               0.001760351               0.999999987              -0.000000000               0.001329331               0.999999987              -0.000000000               0.001361799               0.999999987               0.000000000               0.001377599               0.999999987              -0.000000000               0.001391990               0.999999987              -0.000000000               0.001409695               0.999999987               0.000000000               0.001431679               0.999999987              -0.000000000               0.001457827               0.999999987               0.000000000               0.001487513               0.999999987               0.000000000               0.001519811               0.999999987              -0.000000000               0.001554014               0.999999987               0.000000000               0.001589728               0.999999987              -0.000000000               0.001626382               0.999999987              -0.000000000               0.001663187               0.999999987              -0.000000000               0.001699580               0.999999987               0.000000000               0.001734649               0.999999987              -0.000000000               0.001767617               0.999999987               0.000000000               0.001797622               0.999999987 </DataArray>
<DataArray type="Float64"                                    Name="defo"                                                      NumberOfComponents=" 3" format="ascii">
             -0.000921245               0.000000000               0.999999987              -0.000969440               0.000000000               0.999999987              -0.000989161               0.000000000               0.999999987              -0.000999399               0.000000000               0.999999987              -0.001007279               0.000000000               0.999999987              -0.001015240               0.000000000               0.999999987              -0.001024154               0.000000000               0.999999987              -0.001034213               0.000000000               0.999999987              -0.001044994               0.000000000               0.999999987              -0.001056033               0.000000000               0.999999987              -0.001067195              -0.000000000               0.999999987              -0.001078134               0.000000000               0.999999987              -0.001088439               0.000000000               0.999999987              -0.001097705              -0.000000000               0.999999987              -0.001105233              -0.000000000               0.999999987              -0.001110341              -0.000000000               0.999999987              -0.001112138              -0.000000000               0.999999987              -0.000916051               0.000126935               0.999999987              -0.000959997               0.000099894               0.999999987              -0.000976964               0.000087277               0.999999987              -0.000985491               0.000081701               0.999999987              -0.000992164               0.000079602               0.999999987              -0.000999180               0.000079026               0.999999987              -0.001007260               0.000079072               0.999999987              -0.001016298               0.000078957               0.999999987              -0.001025945               0.000077910               0.999999987              -0.001035821               0.000075780               0.999999987              -0.001045530               0.000072446               0.999999987              -0.001054755               0.000067600               0.999999987              -0.001063088               0.000060756               0.999999987              -0.001070017               0.000051112               0.999999987              -0.001074989               0.000037949               0.999999987              -0.001077418               0.000020700               0.999999987              -0.001076679              -0.000001782               0.999999987              -0.000900572               0.000252794               0.999999987              -0.000932079               0.000199520               0.999999987              -0.000941310               0.000175664               0.999999987              -0.000945075               0.000165747               0.999999987              -0.000948626               0.000162361               0.999999987              -0.000953252               0.000161841               0.999999987              -0.000959019               0.000162144               0.999999987              -0.000965513               0.000161866               0.999999987              -0.000972198               0.000159991               0.999999987              -0.000978515               0.000155884               0.999999987              -0.000984026               0.000149419               0.999999987              -0.000988311               0.000139763               0.999999987              -0.000990866               0.000126384               0.999999987              -0.000991350               0.000108080               0.999999987              -0.000989404               0.000083690               0.999999987              -0.000984807               0.000052234               0.999999987              -0.000977376               0.000012641               0.999999987              -0.000875028               0.000376333               0.999999987              -0.000886917               0.000298700               0.999999987              -0.000885134               0.000266109               0.999999987              -0.000882591               0.000253789               0.999999987              -0.000882002               0.000250525               0.999999987              -0.000883440               0.000250867               0.999999987              -0.000885976               0.000251898               0.999999987              -0.000888763               0.000251757               0.999999987              -0.000890962               0.000249009               0.999999987              -0.000891879               0.000243077               0.999999987              -0.000890986               0.000233481               0.999999987              -0.000887779               0.000219421               0.999999987              -0.000881905               0.000200092               0.999999987              -0.000873135               0.000174598               0.999999987              -0.000861553               0.000141922               0.999999987              -0.000847354               0.000101614               0.999999987              -0.000831003               0.000053179               0.999999987              -0.000840054               0.000496283               0.999999987              -0.000827141               0.000397372               0.999999987              -0.000813157               0.000359201               0.999999987              -0.000804282               0.000346591               0.999999987              -0.000799774               0.000344808               0.999999987              -0.000797848               0.000346762               0.999999987              -0.000796680               0.000348812               0.999999987              -0.000795004               0.000348855               0.999999987              -0.000791599               0.000345345               0.999999987              -0.000785797               0.000337469               0.999999987              -0.000776968               0.000324789               0.999999987              -0.000764792               0.000306608               0.999999987              -0.000749057               0.000282295               0.999999987              -0.000730015               0.000251579               0.999999987              -0.000708151               0.000214172               0.999999987              -0.000684173               0.000170290               0.999999987              -0.000659136               0.000121086               0.999999987              -0.000796390               0.000611581               0.999999987              -0.000755865               0.000495731               0.999999987              -0.000730685               0.000455012               0.999999987              -0.000716875               0.000443848               0.999999987              -0.000709447               0.000444383               0.999999987              -0.000704566               0.000448277               0.999999987              -0.000699675               0.000451507               0.999999987              -0.000693039               0.000451605               0.999999987              -0.000683409               0.000447083               0.999999987              -0.000670090               0.000437230               0.999999987              -0.000652624               0.000421594               0.999999987              -0.000630918               0.000399877               0.999999987              -0.000605202               0.000371854               0.999999987              -0.000576068               0.000337911               0.999999987              -0.000544426               0.000298868               0.999999987              -0.000511351               0.000255789               0.999999987              -0.000477813               0.000210248               0.999999987              -0.000745031               0.000721114               0.999999987              -0.000676674               0.000593780               0.999999987              -0.000643000               0.000553111               0.999999987              -0.000626724               0.000544348               0.999999987              -0.000617812               0.000547353               0.999999987              -0.000610595               0.000553169               0.999999987              -0.000602009               0.000557273               0.999999987              -0.000590047               0.000557206               0.999999987              -0.000573633               0.000551672               0.999999987              -0.000552134               0.000539919               0.999999987              -0.000525417               0.000521718               0.999999987              -0.000493646               0.000497203               0.999999987              -0.000457761               0.000466670               0.999999987              -0.000418587               0.000431593               0.999999987              -0.000377332               0.000393163               0.999999987              -0.000334950               0.000352661               0.999999987              -0.000292095               0.000311091               0.999999987              -0.000687013               0.000823774               0.999999987              -0.000593399               0.000691207               0.999999987              -0.000555072               0.000652403               0.999999987              -0.000538952               0.000646252               0.999999987              -0.000529727               0.000651439               0.999999987              -0.000520579               0.000658736               0.999999987              -0.000508084               0.000663420               0.999999987              -0.000490360               0.000663045               0.999999987              -0.000466456               0.000656508               0.999999987              -0.000436058               0.000642884               0.999999987              -0.000399248               0.000622489               0.999999987              -0.000356773               0.000595934               0.999999987              -0.000309756               0.000564532               0.999999987              -0.000259640               0.000529954               0.999999987              -0.000207722               0.000493669               0.999999987              -0.000154730               0.000456527               0.999999987              -0.000101293               0.000418994               0.999999987              -0.000624244               0.000917637               0.999999987              -0.000508872               0.000787964               0.999999987              -0.000471273               0.000751344               0.999999987              -0.000457218               0.000747244               0.999999987              -0.000448316               0.000754251               0.999999987              -0.000437283               0.000762558               0.999999987              -0.000420432               0.000767619               0.999999987              -0.000396248               0.000767021               0.999999987              -0.000363896               0.000759348               0.999999987              -0.000323261               0.000744066               0.999999987              -0.000274904               0.000721937               0.999999987              -0.000219999               0.000694478               0.999999987              -0.000160525               0.000663419               0.999999987              -0.000098275               0.000630718               0.999999987              -0.000034481               0.000597818               0.999999987               0.000029876               0.000565229               0.999999987               0.000094069               0.000532901               0.999999987              -0.000559321               0.001006518               0.999999987              -0.000437882               0.000896788               0.999999987              -0.000398032               0.000857049               0.999999987              -0.000383825               0.000848955               0.999999987              -0.000376216               0.000853815               0.999999987              -0.000367526               0.000862756               0.999999987              -0.000354114               0.000871088               0.999999987              -0.000334474               0.000876291               0.999999987              -0.000307510               0.000876786               0.999999987              -0.000272631               0.000871459               0.999999987              -0.000229969               0.000860227               0.999999987              -0.000179921               0.000843600               0.999999987              -0.000123686               0.000822882               0.999999987              -0.000062659               0.000799620               0.999999987               0.000001380               0.000775476               0.999999987               0.000066665               0.000751497               0.999999987               0.000131841               0.000728329               0.999999987              -0.000488762               0.001087568               0.999999987              -0.000369416               0.001002103               0.999999987              -0.000327456               0.000965560               0.999999987              -0.000312254               0.000955609               0.999999987              -0.000305139               0.000959217               0.999999987              -0.000298120               0.000968763               0.999999987              -0.000287606               0.000979885               0.999999987              -0.000271817               0.000990089               0.999999987              -0.000249723               0.000997712               0.999999987              -0.000220496               0.001001429               0.999999987              -0.000183674               0.001000510               0.999999987              -0.000139417               0.000994875               0.999999987              -0.000087982               0.000984705               0.999999987              -0.000030191               0.000971206               0.999999987               0.000032721               0.000955692               0.999999987               0.000098979               0.000939704               0.999999987               0.000166365               0.000924380               0.999999987              -0.000413948               0.001158737               0.999999987              -0.000303343               0.001100782               0.999999987              -0.000261169               0.001071944               0.999999987              -0.000244828               0.001063303               0.999999987              -0.000237462               0.001067120               0.999999987              -0.000231521               0.001077814               0.999999987              -0.000223127               0.001091616               0.999999987              -0.000210631               0.001106201               0.999999987              -0.000192808               0.001120059               0.999999987              -0.000168829               0.001131839               0.999999987              -0.000138093               0.001140449               0.999999987              -0.000100235               0.001145277               0.999999987              -0.000054875               0.001146105               0.999999987              -0.000002083               0.001143290               0.999999987               0.000057493               0.001137626               0.999999987               0.000122999               0.001130354               0.999999987               0.000192796               0.001122839               0.999999987              -0.000335505               0.001218739               0.999999987              -0.000239687               0.001188673               0.999999987              -0.000200071               0.001170753               0.999999987              -0.000183405               0.001166357               0.999999987              -0.000175757               0.001172151               0.999999987              -0.000170352               0.001184742               0.999999987              -0.000163518               0.001201527               0.999999987              -0.000153574               0.001220267               0.999999987              -0.000139520               0.001239695               0.999999987              -0.000120490               0.001258547               0.999999987              -0.000095750               0.001275769               0.999999987              -0.000064793               0.001290446               0.999999987              -0.000026699               0.001302101               0.999999987               0.000019090               0.001310412               0.999999987               0.000072821               0.001315661               0.999999987               0.000134382               0.001318450               0.999999987               0.000203469               0.001319854               0.999999987              -0.000254119               0.001266562               0.999999987              -0.000178084               0.001261751               0.999999987              -0.000144283               0.001255998               0.999999987              -0.000128987               0.001257606               0.999999987              -0.000121638               0.001266967               0.999999987              -0.000116576               0.001282503               0.999999987              -0.000111127               0.001302466               0.999999987              -0.000103411               0.001325220               0.999999987              -0.000092894               0.001349483               0.999999987              -0.000078593               0.001374431               0.999999987              -0.000059829               0.001399104               0.999999987              -0.000035915               0.001422547               0.999999987              -0.000006170               0.001444011               0.999999987               0.000030460               0.001462968               0.999999987               0.000074852               0.001479124               0.999999987               0.000127866               0.001492521               0.999999987               0.000190717               0.001503699               0.999999987              -0.000170583               0.001301314               0.999999987              -0.000117984               0.001316511               0.999999987              -0.000093245               0.001321810               0.999999987              -0.000081386               0.001329704               0.999999987              -0.000075331               0.001343053               0.999999987              -0.000071287               0.001361791               0.999999987              -0.000067215               0.001384885               0.999999987              -0.000061881               0.001411187               0.999999987              -0.000054719               0.001439623               0.999999987              -0.000045217               0.001469419               0.999999987              -0.000032647               0.001499825               0.999999987              -0.000016375               0.001530035               0.999999987               0.000004103               0.001559353               0.999999987               0.000029634               0.001587137               0.999999987               0.000061400               0.001612833               0.999999987               0.000100867               0.001636123               0.999999987               0.000149778               0.001656668               0.999999987              -0.000085645               0.001322333               0.999999987              -0.000058810               0.001350342               0.999999987              -0.000045723               0.001363330               0.999999987              -0.000039207               0.001376025               0.999999987              -0.000035755               0.001392536               0.999999987              -0.000033404               0.001413673               0.999999987              -0.000031248               0.001439063               0.999999987              -0.000028418               0.001467783               0.999999987              -0.000024791               0.001499065               0.999999987              -0.000020029               0.001532206               0.999999987              -0.000013765               0.001566526               0.999999987              -0.000005526               0.001601402               0.999999987               0.000004970               0.001636139               0.999999987               0.000017991               0.001670112               0.999999987               0.000034694               0.001702609               0.999999987               0.000055978               0.001732960               0.999999987               0.000083127               0.001760351               0.999999987              -0.000000000               0.001329331               0.999999987              -0.000000000               0.001361799               0.999999987               0.000000000               0.001377599               0.999999987              -0.000000000               0.001391990               0.999999987              -0.000000000               0.001409695               0.999999987               0.000000000               0.001431679               0.999999987              -0.000000000               0.001457827               0.999999987               0.000000000               0.001487513               0.999999987               0.000000000               0.001519811               0.999999987              -0.000000000               0.001554014               0.999999987               0.000000000               0.001589728               0.999999987              -0.000000000               0.001626382               0.999999987              -0.000000000               0.001663187               0.999999987              -0.000000000               0.001699580               0.999999987               0.000000000               0.001734649               0.999999987              -0.000000000               0.001767617               0.999999987               0.000000000               0.001797622               0.999999987              -0.000921245               0.000000000               0.999999987              -0.000969440               0.000000000               0.999999987              -0.000989161               0.000000000               0.999999987              -0.000999399               0.000000000               0.999999987              -0.001007279               0.000000000               0.999999987              -0.001015240               0.000000000               0.999999987              -0.001024154               0.000000000               0.999999987              -0.001034213               0.000000000               0.999999987              -0.001044994               0.000000000               0.999999987              -0.001056033               0.000000000               0.999999987              -0.001067195              -0.000000000               0.999999987              -0.001078134               0.000000000               0.999999987              -0.001088439               0.000000000               0.999999987              -0.001097705              -0.000000000               0.999999987              -0.001105233              -0.000000000               0.999999987              -0.001110341              -0.000000000               0.999999987              -0.001112138              -0.000000000               0.999999987              -0.000916051              -0.000126935               0.999999987              -0.000959997              -0.000099894               0.999999987              -0.000976964              -0.000087277               0.999999987              -0.000985491              -0.000081701               0.999999987              -0.000992164              -0.000079602               0.999999987              -0.000999180              -0.000079026               0.999999987              -0.001007260              -0.000079072               0.999999987              -0.001016298              -0.000078957               0.999999987              -0.001025945              -0.000077910               0.999999987              -0.001035821              -0.000075780               0.999999987              -0.001045530              -0.000072446               0.999999987              -0.001054755              -0.000067600               0.999999987              -0.001063088              -0.000060756               0.999999987              -0.001070017              -0.000051112               0.999999987              -0.001074989              -0.000037949               0.999999987              -0.001077418              -0.000020700               0.999999987              -0.001076679               0.000001782               0.999999987              -0.000900572              -0.000252794               0.999999987              -0.000932079              -0.000199520               0.999999987              -0.000941310              -0.000175664               0.999999987              -0.000945075              -0.000165747               0.999999987              -0.000948626              -0.000162361               0.999999987              -0.000953252              -0.000161841               0.999999987              -0.000959019              -0.000162144               0.999999987              -0.000965513              -0.000161866               0.999999987              -0.000972198              -0.000159991               0.999999987              -0.000978515              -0.000155884               0.999999987              -0.000984026              -0.000149419               0.999999987              -0.000988311              -0.000139763               0.999999987              -0.000990866              -0.000126384               0.999999987              -0.000991350              -0.000108080               0.999999987              -0.000989404              -0.000083690               0.999999987              -0.000984807              -0.000052234               0.999999987              -0.000977376              -0.000012641               0.999999987              -0.000875028              -0.000376333               0.999999987              -0.000886917              -0.000298700               0.999999987              -0.000885134              -0.000266109               0.999999987              -0.000882591              -0.000253789               0.999999987              -0.000882002              -0.000250525               0.999999987              -0.000883440              -0.000250867               0.999999987              -0.000885976              -0.000251898               0.999999987              -0.000888763              -0.000251757               0.999999987              -0.000890962              -0.000249009               0.999999987              -0.000891879              -0.000243077               0.999999987              -0.000890986              -0.000233481               0.999999987              -0.000887779              -0.000219421               0.999999987              -0.000881905              -0.000200092               0.999999987              -0.000873135              -0.000174598               0.999999987              -0.000861553              -0.000141922               0.999999987              -0.000847354              -0.000101614               0.999999987              -0.000831003              -0.000053179               0.999999987              -0.000840054              -0.000496283               0.999999987              -0.000827141              -0.000397372               0.999999987              -0.000813157              -0.000359201               0.999999987              -0.000804282              -0.000346591               0.999999987              -0.000799774              -0.000344808               0.999999987              -0.000797848              -0.000346762               0.999999987              -0.000796680              -0.000348812               0.999999987              -0.000795004              -0.000348855               0.999999987              -0.000791599              -0.000345345               0.999999987              -0.000785797              -0.000337469               0.999999987              -0.000776968              -0.000324789               0.999999987              -0.000764792              -0.000306608               0.999999987              -0.000749057              -0.000282295               0.999999987              -0.000730015              -0.000251579               0.999999987              -0.000708151              -0.000214172               0.999999987              -0.000684173              -0.000170290               0.999999987              -0.000659136              -0.000121086               0.999999987              -0.000796390              -0.000611581               0.999999987              -0.000755865              -0.000495731               0.999999987              -0.000730685              -0.000455012               0.999999987              -0.000716875              -0.000443848               0.999999987              -0.000709447              -0.000444383               0.999999987              -0.000704566              -0.000448277               0.999999987              -0.000699675              -0.000451507               0.999999987              -0.000693039              -0.000451605               0.999999987              -0.000683409              -0.000447083               0.999999987              -0.000670090              -0.000437230               0.999999987              -0.000652624              -0.000421594               0.999999987              -0.000630918              -0.000399877               0.999999987              -0.000605202              -0.000371854               0.999999987              -0.000576068              -0.000337911               0.999999987              -0.000544426              -0.000298868               0.999999987              -0.000511351              -0.000255789               0.999999987              -0.000477813              -0.000210248               0.999999987              -0.000745031              -0.000721114               0.999999987              -0.000676674              -0.000593780               0.999999987              -0.000643000              -0.000553111               0.999999987              -0.000626724              -0.000544348               0.999999987              -0.000617812              -0.000547353               0.999999987              -0.000610595              -0.000553169               0.999999987              -0.000602009              -0.000557273               0.999999987              -0.000590047              -0.000557206               0.999999987              -0.000573633              -0.000551672               0.999999987              -0.000552134              -0.000539919               0.999999987              -0.000525417              -0.000521718               0.999999987              -0.000493646              -0.000497203               0.999999987              -0.000457761              -0.000466670               0.999999987              -0.000418587              -0.000431593               0.999999987              -0.000377332              -0.000393163               0.999999987              -0.000334950              -0.000352661               0.999999987              -0.000292095              -0.000311091               0.999999987              -0.000687013              -0.000823774               0.999999987              -0.000593399              -0.000691207               0.999999987              -0.000555072              -0.000652403               0.999999987              -0.000538952              -0.000646252               0.999999987              -0.000529727              -0.000651439               0.999999987              -0.000520579              -0.000658736               0.999999987              -0.000508084              -0.000663420               0.999999987              -0.000490360              -0.000663045               0.999999987              -0.000466456              -0.000656508               0.999999987              -0.000436058              -0.000642884               0.999999987              -0.000399248              -0.000622489               0.999999987              -0.000356773              -0.000595934               0.999999987              -0.000309756              -0.000564532               0.999999987              -0.000259640              -0.000529954               0.999999987              -0.000207722              -0.000493669               0.999999987              -0.000154730              -0.000456527               0.999999987              -0.000101293              -0.000418994               0.999999987              -0.000624244              -0.000917637               0.999999987              -0.000508872              -0.000787964               0.999999987              -0.000471273              -0.000751344               0.999999987              -0.000457218              -0.000747244               0.999999987              -0.000448316              -0.000754251               0.999999987              -0.000437283              -0.000762558               0.999999987              -0.000420432              -0.000767619               0.999999987              -0.000396248              -0.000767021               0.999999987              -0.000363896              -0.000759348               0.999999987              -0.000323261              -0.000744066               0.999999987              -0.000274904              -0.000721937               0.999999987              -0.000219999              -0.000694478               0.999999987              -0.000160525              -0.000663419               0.999999987              -0.000098275              -0.000630718               0.999999987              -0.000034481              -0.000597818               0.999999987               0.000029876              -0.000565229               0.999999987               0.000094069              -0.000532901               0.999999987              -0.000559321              -0.001006518               0.999999987              -0.000437882              -0.000896788               0.999999987              -0.000398032              -0.000857049               0.999999987              -0.000383825              -0.000848955               0.999999987              -0.000376216              -0.000853815               0.999999987              -0.000367526              -0.000862756               0.999999987              -0.000354114              -0.000871088               0.999999987              -0.000334474              -0.000876291               0.999999987              -0.000307510              -0.000876786               0.999999987              -0.000272631              -0.000871459               0.999999987              -0.000229969              -0.000860227               0.999999987              -0.000179921              -0.000843600               0.999999987              -0.000123686              -0.000822882               0.999999987              -0.000062659              -0.000799620               0.999999987               0.000001380              -0.000775476               0.999999987               0.000066665              -0.000751497               0.999999987               0.000131841              -0.000728329               0.999999987              -0.000488762              -0.001087568               0.999999987              -0.000369416              -0.001002103               0.999999987              -0.000327456              -0.000965560               0.999999987              -0.000312254              -0.000955609               0.999999987              -0.000305139              -0.000959217               0.999999987              -0.000298120              -0.000968763               0.999999987              -0.000287606              -0.000979885               0.999999987              -0.000271817              -0.000990089               0.999999987              -0.000249723              -0.000997712               0.999999987              -0.000220496              -0.001001429               0.999999987              -0.000183674              -0.001000510               0.999999987              -0.000139417              -0.000994875               0.999999987              -0.000087982              -0.000984705               0.999999987              -0.000030191              -0.000971206               0.999999987               0.000032721              -0.000955692               0.999999987               0.000098979              -0.000939704               0.999999987               0.000166365              -0.000924380               0.999999987              -0.000413948              -0.001158737               0.999999987              -0.000303343              -0.001100782               0.999999987              -0.000261169              -0.001071944               0.999999987              -0.000244828              -0.001063303               0.999999987              -0.000237462              -0.001067120               0.999999987              -0.000231521              -0.001077814               0.999999987              -0.000223127              -0.001091616               0.999999987              -0.000210631              -0.001106201               0.999999987              -0.000192808              -0.001120059               0.999999987              -0.000168829              -0.001131839               0.999999987              -0.000138093              -0.001140449               0.999999987              -0.000100235              -0.001145277               0.999999987              -0.000054875              -0.001146105               0.999999987              -0.000002083              -0.001143290               0.999999987               0.000057493              -0.001137626               0.999999987               0.000122999              -0.001130354               0.999999987               0.000192796              -0.001122839               0.999999987              -0.000335505              -0.001218739               0.999999987              -0.000239687              -0.001188673               0.999999987              -0.000200071              -0.001170753               0.999999987              -0.000183405              -0.001166357               0.999999987              -0.000175757              -0.001172151               0.999999987              -0.000170352              -0.001184742               0.999999987              -0.000163518              -0.001201527               0.999999987              -0.000153574              -0.001220267               0.999999987              -0.000139520              -0.001239695               0.999999987              -0.000120490              -0.001258547               0.999999987              -0.000095750              -0.001275769               0.999999987              -0.000064793              -0.001290446               0.999999987              -0.000026699              -0.001302101               0.999999987               0.000019090              -0.001310412               0.999999987               0.000072821              -0.001315661               0.999999987               0.000134382              -0.001318450               0.999999987               0.000203469              -0.001319854               0.999999987              -0.000254119              -0.001266562               0.999999987              -0.000178084              -0.001261751               0.999999987              -0.000144283              -0.001255998               0.999999987              -0.000128987              -0.001257606               0.999999987              -0.000121638              -0.001266967               0.999999987              -0.000116576              -0.001282503               0.999999987              -0.000111127              -0.001302466               0.999999987              -0.000103411              -0.001325220               0.999999987              -0.000092894              -0.001349483               0.999999987              -0.000078593              -0.001374431               0.999999987              -0.000059829              -0.001399104               0.999999987              -0.000035915              -0.001422547               0.999999987              -0.000006170              -0.001444011               0.999999987               0.000030460              -0.001462968               0.999999987               0.000074852              -0.001479124               0.999999987               0.000127866              -0.001492521               0.999999987               0.000190717              -0.001503699               0.999999987              -0.000170583              -0.001301314               0.999999987              -0.000117984              -0.001316511               0.999999987              -0.000093245              -0.001321810               0.999999987              -0.000081386              -0.001329704               0.999999987              -0.000075331              -0.001343053               0.999999987              -0.000071287              -0.001361791               0.999999987              -0.000067215              -0.001384885               0.999999987              -0.000061881              -0.001411187               0.999999987              -0.000054719              -0.001439623               0.999999987              -0.000045217              -0.001469419               0.999999987              -0.000032647              -0.001499825               0.999999987              -0.000016375              -0.001530035               0.999999987               0.000004103              -0.001559353               0.999999987               0.000029634              -0.001587137               0.999999987               0.000061400              -0.001612833               0.999999987               0.000100867              -0.001636123               0.999999987               0.000149778              -0.001656668               0.999999987              -0.000085645              -0.001322333               0.999999987              -0.000058810              -0.001350342               0.999999987              -0.000045723              -0.001363330               0.999999987              -0.000039207              -0.001376025               0.999999987              -0.000035755              -0.001392536               0.999999987              -0.000033404              -0.001413673               0.999999987              -0.000031248              -0.001439063               0.999999987              -0.000028418              -0.001467783               0.999999987              -0.000024791              -0.001499065               0.999999987              -0.000020029              -0.001532206               0.999999987              -0.000013765              -0.001566526               0.999999987              -0.000005526              -0.001601402               0.999999987               0.000004970              -0.001636139               0.999999987               0.000017991              -0.001670112               0.999999987               0.000034694              -0.001702609               0.999999987               0.000055978              -0.001732960               0.999999987               0.000083127              -0.001760351               0.999999987              -0.000000000              -0.001329331               0.999999987               0.000000000              -0.001361799               0.999999987              -0.000000000              -0.001377599               0.999999987              -0.000000000              -0.001391990               0.999999987               0.000000000              -0.001409695               0.999999987               0.000000000              -0.001431679               0.999999987              -0.000000000              -0.001457827               0.999999987              -0.000000000              -0.001487513               0.999999987              -0.000000000              -0.001519811               0.999999987              -0.000000000              -0.001554014               0.999999987              -0.000000000              -0.001589728               0.999999987               0.000000000              -0.001626382               0.999999987               0.000000000              -0.001663187               0.999999987               0.000000000              -0.001699580               0.999999987              -0.000000000              -0.001734649               0.999999987              -0.000000000              -0.001767617               0.999999987              -0.000000000              -0.001797622               0.999999987               0.000921245               0.000000000               0.999999987               0.000969440               0.000000000               0.999999987               0.000989161               0.000000000               0.999999987               0.000999399               0.000000000               0.999999987               0.001007279              -0.000000000               0.999999987               0.001015240               0.000000000               0.999999987               0.001024154               0.000000000               0.999999987               0.001034213              -0.000000000               0.999999987               0.001044994               0.000000000               0.999999987               0.001056033              -0.000000000               0.999999987               0.001067195               0.000000000               0.999999987               0.001078134              -0.000000000               0.999999987               0.001088439               0.000000000               0.999999987               0.001097705              -0.000000000               0.999999987               0.001105233              -0.000000000               0.999999987               0.001110341               0.000000000               0.999999987               0.001112138              -0.000000000               0.999999987               0.000916051              -0.000126935               0.999999987               0.000959997              -0.000099894               0.999999987               0.000976964              -0.000087277               0.999999987               0.000985491              -0.000081701               0.999999987               0.000992164              -0.000079602               0.999999987               0.000999180              -0.000079026               0.999999987               0.001007260              -0.000079072               0.999999987               0.001016298              -0.000078957               0.999999987               0.001025945              -0.000077910               0.999999987               0.001035821              -0.000075780               0.999999987               0.001045530              -0.000072446               0.999999987               0.001054755              -0.000067600               0.999999987               0.001063088              -0.000060756               0.999999987               0.001070017              -0.000051112               0.999999987               0.001074989              -0.000037949               0.999999987               0.001077418              -0.000020700               0.999999987               0.001076679               0.000001782               0.999999987               0.000900572              -0.000252794               0.999999987               0.000932079              -0.000199520               0.999999987               0.000941310              -0.000175664               0.999999987               0.000945075              -0.000165747               0.999999987               0.000948626              -0.000162361               0.999999987               0.000953252              -0.000161841               0.999999987               0.000959019              -0.000162144               0.999999987               0.000965513              -0.000161866               0.999999987               0.000972198              -0.000159991               0.999999987               0.000978515              -0.000155884               0.999999987               0.000984026              -0.000149419               0.999999987               0.000988311              -0.000139763               0.999999987               0.000990866              -0.000126384               0.999999987               0.000991350              -0.000108080               0.999999987               0.000989404              -0.000083690               0.999999987               0.000984807              -0.000052234               0.999999987               0.000977376              -0.000012641               0.999999987               0.000875028              -0.000376333               0.999999987               0.000886917              -0.000298700               0.999999987               0.000885134              -0.000266109               0.999999987               0.000882591              -0.000253789               0.999999987               0.000882002              -0.000250525               0.999999987               0.000883440              -0.000250867               0.999999987               0.000885976              -0.000251898               0.999999987               0.000888763              -0.000251757               0.999999987               0.000890962              -0.000249009               0.999999987               0.000891879              -0.000243077               0.999999987               0.000890986              -0.000233481               0.999999987               0.000887779              -0.000219421               0.999999987               0.000881905              -0.000200092               0.999999987               0.000873135              -0.000174598               0.999999987               0.000861553              -0.000141922               0.999999987               0.000847354              -0.000101614               0.999999987               0.000831003              -0.000053179               0.999999987               0.000840054              -0.000496283               0.999999987               0.000827141              -0.000397372               0.999999987               0.000813157              -0.000359201               0.999999987               0.000804282              -0.000346591               0.999999987               0.000799774              -0.000344808               0.999999987               0.000797848              -0.000346762               0.999999987               0.000796680              -0.000348812               0.999999987               0.000795004              -0.000348855               0.999999987               0.000791599              -0.000345345               0.999999987               0.000785797              -0.000337469               0.999999987               0.000776968              -0.000324789               0.999999987               0.000764792              -0.000306608               0.999999987               0.000749057              -0.000282295               0.999999987               0.000730015              -0.000251579               0.999999987               0.000708151              -0.000214172               0.999999987               0.000684173              -0.000170290               0.999999987               0.000659136              -0.000121086               0.999999987               0.000796390              -0.000611581               0.999999987               0.000755865              -0.000495731               0.999999987               0.000730685              -0.000455012               0.999999987               0.000716875              -0.000443848               0.999999987               0.000709447              -0.000444383               0.999999987               0.000704566              -0.000448277               0.999999987               0.000699675              -0.000451507               0.999999987               0.000693039              -0.000451605               0.999999987               0.000683409              -0.000447083               0.999999987               0.000670090              -0.000437230               0.999999987               0.000652624              -0.000421594               0.999999987               0.000630918              -0.000399877               0.999999987               0.000605202              -0.000371854               0.999999987               0.000576068              -0.000337911               0.999999987               0.000544426              -0.000298868               0.999999987               0.000511351              -0.000255789               0.999999987               0.000477813              -0.000210248               0.999999987               0.000745031              -0.000721114               0.999999987               0.000676674              -0.000593780               0.999999987               0.000643000              -0.000553111               0.999999987               0.000626724              -0.000544348               0.999999987               0.000617812              -0.000547353               0.999999987               0.000610595              -0.000553169               0.999999987               0.000602009              -0.000557273               0.999999987               0.000590047              -0.000557206               0.999999987               0.000573633              -0.000551672               0.999999987               0.000552134              -0.000539919               0.999999987               0.000525417              -0.000521718               0.999999987               0.000493646              -0.000497203               0.999999987               0.000457761              -0.000466670               0.999999987               0.000418587              -0.000431593               0.999999987               0.000377332              -0.000393163               0.999999987               0.000334950              -0.000352661               0.999999987               0.000292095              -0.000311091               0.999999987               0.000687013              -0.000823774               0.999999987               0.000593399              -0.000691207               0.999999987               0.000555072              -0.000652403               0.999999987               0.000538952              -0.000646252               0.999999987               0.000529727              -0.000651439               0.999999987               0.000520579              -0.000658736               0.999999987               0.000508084              -0.000663420               0.999999987               0.000490360              -0.000663045               0.999999987               0.000466456              -0.000656508               0.999999987               0.000436058              -0.000642884               0.999999987               0.000399248              -0.000622489               0.999999987               0.000356773              -0.000595934               0.999999987               0.000309756              -0.000564532               0.999999987               0.000259640              -0.000529954               0.999999987               0.000207722              -0.000493669               0.999999987               0.000154730              -0.000456527               0.999999987               0.000101293              -0.000418994               0.999999987               0.000624244              -0.000917637               0.999999987               0.000508872              -0.000787964               0.999999987               0.000471273              -0.000751344               0.999999987               0.000457218              -0.000747244               0.999999987               0.000448316              -0.000754251               0.999999987               0.000437283              -0.000762558               0.999999987               0.000420432              -0.000767619               0.999999987               0.000396248              -0.000767021               0.999999987               0.000363896              -0.000759348               0.999999987               0.000323261              -0.000744066               0.999999987               0.000274904              -0.000721937               0.999999987               0.000219999              -0.000694478               0.999999987               0.000160525              -0.000663419               0.999999987               0.000098275              -0.000630718               0.999999987               0.000034481              -0.000597818               0.999999987              -0.000029876              -0.000565229               0.999999987              -0.000094069              -0.000532901               0.999999987               0.000559321              -0.001006518               0.999999987               0.000437882              -0.000896788               0.999999987               0.000398032              -0.000857049               0.999999987               0.000383825              -0.000848955               0.999999987               0.000376216              -0.000853815               0.999999987               0.000367526              -0.000862756               0.999999987               0.000354114              -0.000871088               0.999999987               0.000334474              -0.000876291               0.999999987               0.000307510              -0.000876786               0.999999987               0.000272631              -0.000871459               0.999999987               0.000229969              -0.000860227               0.999999987               0.000179921              -0.000843600               0.999999987               0.000123686              -0.000822882               0.999999987               0.000062659              -0.000799620               0.999999987              -0.000001380              -0.000775476               0.999999987              -0.000066665              -0.000751497               0.999999987              -0.000131841              -0.000728329               0.999999987               0.000488762              -0.001087568               0.999999987               0.000369416              -0.001002103               0.999999987               0.000327456              -0.000965560               0.999999987               0.000312254              -0.000955609               0.999999987               0.000305139              -0.000959217               0.999999987               0.000298120              -0.000968763               0.999999987               0.000287606              -0.000979885               0.999999987               0.000271817              -0.000990089               0.999999987               0.000249723              -0.000997712               0.999999987               0.000220496              -0.001001429               0.999999987               0.000183674              -0.001000510               0.999999987               0.000139417              -0.000994875               0.999999987               0.000087982              -0.000984705               0.999999987               0.000030191              -0.000971206               0.999999987              -0.000032721              -0.000955692               0.999999987              -0.000098979              -0.000939704               0.999999987              -0.000166365              -0.000924380               0.999999987               0.000413948              -0.001158737               0.999999987               0.000303343              -0.001100782               0.999999987               0.000261169              -0.001071944               0.999999987               0.000244828              -0.001063303               0.999999987               0.000237462              -0.001067120               0.999999987               0.000231521              -0.001077814               0.999999987               0.000223127              -0.001091616               0.999999987               0.000210631              -0.001106201               0.999999987               0.000192808              -0.001120059               0.999999987               0.000168829              -0.001131839               0.999999987               0.000138093              -0.001140449               0.999999987               0.000100235              -0.001145277               0.999999987               0.000054875              -0.001146105               0.999999987               0.000002083              -0.001143290               0.999999987              -0.000057493              -0.001137626               0.999999987              -0.000122999              -0.001130354               0.999999987              -0.000192796              -0.001122839               0.999999987               0.000335505              -0.001218739               0.999999987               0.000239687              -0.001188673               0.999999987               0.000200071              -0.001170753               0.999999987               0.000183405              -0.001166357               0.999999987               0.000175757              -0.001172151               0.999999987               0.000170352              -0.001184742               0.999999987               0.000163518              -0.001201527               0.999999987               0.000153574              -0.001220267               0.999999987               0.000139520              -0.001239695               0.999999987               0.000120490              -0.001258547               0.999999987               0.000095750              -0.001275769               0.999999987               0.000064793              -0.001290446               0.999999987               0.000026699              -0.001302101               0.999999987              -0.000019090              -0.001310412               0.999999987              -0.000072821              -0.001315661               0.999999987              -0.000134382              -0.001318450               0.999999987              -0.000203469              -0.001319854               0.999999987               0.000254119              -0.001266562               0.999999987               0.000178084              -0.001261751               0.999999987               0.000144283              -0.001255998               0.999999987               0.000128987              -0.001257606               0.999999987               0.000121638              -0.001266967               0.999999987               0.000116576              -0.001282503               0.999999987               0.000111127              -0.001302466               0.999999987               0.000103411              -0.001325220               0.999999987               0.000092894              -0.001349483               0.999999987               0.000078593              -0.001374431               0.999999987               0.000059829              -0.001399104               0.999999987               0.000035915              -0.001422547               0.999999987               0.000006170              -0.001444011               0.999999987              -0.000030460              -0.001462968               0.999999987              -0.000074852              -0.001479124               0.999999987              -0.000127866              -0.001492521               0.999999987              -0.000190717              -0.001503699               0.999999987               0.000170583              -0.001301314               0.999999987               0.000117984              -0.001316511               0.999999987               0.000093245              -0.001321810               0.999999987               0.000081386              -0.001329704               0.999999987               0.000075331              -0.001343053               0.999999987               0.000071287              -0.001361791               0.999999987               0.000067215              -0.001384885               0.999999987               0.000061881              -0.001411187               0.999999987               0.000054719              -0.001439623               0.999999987               0.000045217              -0.001469419               0.999999987               0.000032647              -0.001499825               0.999999987               0.000016375              -0.001530035               0.999999987              -0.000004103              -0.001559353               0.999999987              -0.000029634              -0.001587137               0.999999987              -0.000061400              -0.001612833               0.999999987              -0.000100867              -0.001636123               0.999999987              -0.000149778              -0.001656668               0.999999987               0.000085645              -0.001322333               0.999999987               0.000058810              -0.001350342               0.999999987               0.000045723              -0.001363330               0.999999987               0.000039207              -0.001376025               0.999999987               0.000035755              -0.001392536               0.999999987               0.000033404              -0.001413673               0.999999987               0.000031248              -0.001439063               0.999999987               0.000028418              -0.001467783               0.999999987               0.000024791              -0.001499065               0.999999987               0.000020029              -0.001532206               0.999999987               0.000013765              -0.001566526               0.999999987               0.000005526              -0.001601402               0.999999987              -0.000004970              -0.001636139               0.999999987              -0.000017991              -0.001670112               0.999999987              -0.000034694              -0.001702609               0.999999987              -0.000055978              -0.001732960               0.999999987              -0.000083127              -0.001760351               0.999999987              -0.000000000              -0.001329331               0.999999987               0.000000000              -0.001361799               0.999999987              -0.000000000              -0.001377599               0.999999987              -0.000000000              -0.001391990               0.999999987               0.000000000              -0.001409695               0.999999987               0.000000000              -0.001431679               0.999999987              -0.000000000              -0.001457827               0.999999987              -0.000000000              -0.001487513               0.999999987              -0.000000000              -0.001519811               0.999999987              -0.000000000              -0.001554014               0.999999987              -0.000000000              -0.001589728               0.999999987               0.000000000              -0.001626382               0.999999987               0.000000000              -0.001663187               0.999999987               0.000000000              -0.001699580               0.999999987              -0.000000000              -0.001734649               0.999999987              -0.000000000              -0.001767617               0.999999987              -0.000000000              -0.001797622               0.999999987               0.000921245               0.000000000               0.999999987               0.000969440               0.000000000               0.999999987               0.000989161               0.000000000               0.999999987               0.000999399               0.000000000               0.999999987               0.001007279              -0.000000000               0.999999987               0.001015240               0.000000000               0.999999987               0.001024154               0.000000000               0.999999987               0.001034213              -0.000000000               0.999999987               0.001044994               0.000000000               0.999999987               0.001056033              -0.000000000               0.999999987               0.001067195               0.000000000               0.999999987               0.001078134              -0.000000000               0.999999987               0.001088439               0.000000000               0.999999987               0.001097705              -0.000000000               0.999999987               0.001105233              -0.000000000               0.999999987               0.001110341               0.000000000               0.999999987               0.001112138              -0.000000000               0.999999987               0.000916051               0.000126935               0.999999987               0.000959997               0.000099894               0.999999987               0.000976964               0.000087277               0.999999987               0.000985491               0.000081701               0.999999987               0.000992164               0.000079602               0.999999987               0.000999180               0.000079026               0.999999987               0.001007260               0.000079072               0.999999987               0.001016298               0.000078957               0.999999987               0.001025945               0.000077910               0.999999987               0.001035821               0.000075780               0.999999987               0.001045530               0.000072446               0.999999987               0.001054755               0.000067600               0.999999987               0.001063088               0.000060756               0.999999987               0.001070017               0.000051112               0.999999987               0.001074989               0.000037949               0.999999987               0.001077418               0.000020700               0.999999987               0.001076679              -0.000001782               0.999999987               0.000900572               0.000252794               0.999999987               0.000932079               0.000199520               0.999999987               0.000941310               0.000175664               0.999999987               0.000945075               0.000165747               0.999999987               0.000948626               0.000162361               0.999999987               0.000953252               0.000161841               0.999999987               0.000959019               0.000162144               0.999999987               0.000965513               0.000161866               0.999999987               0.000972198               0.000159991               0.999999987               0.000978515               0.000155884               0.999999987               0.000984026               0.000149419               0.999999987               0.000988311               0.000139763               0.999999987               0.000990866               0.000126384               0.999999987               0.000991350               0.000108080               0.999999987               0.000989404               0.000083690               0.999999987               0.000984807               0.000052234               0.999999987               0.000977376               0.000012641               0.999999987               0.000875028               0.000376333               0.999999987               0.000886917               0.000298700               0.999999987               0.000885134               0.000266109               0.999999987               0.000882591               0.000253789               0.999999987               0.000882002               0.000250525               0.999999987               0.000883440               0.000250867               0.999999987               0.000885976               0.000251898               0.999999987               0.000888763               0.000251757               0.999999987               0.000890962               0.000249009               0.999999987               0.000891879               0.000243077               0.999999987               0.000890986               0.000233481               0.999999987               0.000887779               0.000219421               0.999999987               0.000881905               0.000200092               0.999999987               0.000873135               0.000174598               0.999999987               0.000861553               0.000141922               0.999999987               0.000847354               0.000101614               0.999999987               0.000831003               0.000053179               0.999999987               0.000840054               0.000496283               0.999999987               0.000827141               0.000397372               0.999999987               0.000813157               0.000359201               0.999999987               0.000804282               0.000346591               0.999999987               0.000799774               0.000344808               0.999999987               0.000797848               0.000346762               0.999999987               0.000796680               0.000348812               0.999999987               0.000795004               0.000348855               0.999999987               0.000791599               0.000345345               0.999999987               0.000785797               0.000337469               0.999999987               0.000776968               0.000324789               0.999999987               0.000764792               0.000306608               0.999999987               0.000749057               0.000282295               0.999999987               0.000730015               0.000251579               0.999999987               0.000708151               0.000214172               0.999999987               0.000684173               0.000170290               0.999999987               0.000659136               0.000121086               0.999999987               0.000796390               0.000611581               0.999999987               0.000755865               0.000495731               0.999999987               0.000730685               0.000455012               0.999999987               0.000716875               0.000443848               0.999999987               0.000709447               0.000444383               0.999999987               0.000704566               0.000448277               0.999999987               0.000699675               0.000451507               0.999999987               0.000693039               0.000451605               0.999999987               0.000683409               0.000447083               0.999999987               0.000670090               0.000437230               0.999999987               0.000652624               0.000421594               0.999999987               0.000630918               0.000399877               0.999999987               0.000605202               0.000371854               0.999999987               0.000576068               0.000337911               0.999999987               0.000544426               0.000298868               0.999999987               0.000511351               0.000255789               0.999999987               0.000477813               0.000210248               0.999999987               0.000745031               0.000721114               0.999999987               0.000676674               0.000593780               0.999999987               0.000643000               0.000553111               0.999999987               0.000626724               0.000544348               0.999999987               0.000617812               0.000547353               0.999999987               0.000610595               0.000553169               0.999999987               0.000602009               0.000557273               0.999999987               0.000590047               0.000557206               0.999999987               0.000573633               0.000551672               0.999999987               0.000552134               0.000539919               0.999999987               0.000525417               0.000521718               0.999999987               0.000493646               0.000497203               0.999999987               0.000457761               0.000466670               0.999999987               0.000418587               0.000431593               0.999999987               0.000377332               0.000393163               0.999999987               0.000334950               0.000352661               0.999999987               0.000292095               0.000311091               0.999999987               0.000687013               0.000823774               0.999999987               0.000593399               0.000691207               0.999999987               0.000555072               0.000652403               0.999999987               0.000538952               0.000646252               0.999999987               0.000529727               0.000651439               0.999999987               0.000520579               0.000658736               0.999999987               0.000508084               0.000663420               0.999999987               0.000490360               0.000663045               0.999999987               0.000466456               0.000656508               0.999999987               0.000436058               0.000642884               0.999999987               0.000399248               0.000622489               0.999999987               0.000356773               0.000595934               0.999999987               0.000309756               0.000564532               0.999999987               0.000259640               0.000529954               0.999999987               0.000207722               0.000493669               0.999999987               0.000154730               0.000456527               0.999999987               0.000101293               0.000418994               0.999999987               0.000624244               0.000917637               0.999999987               0.000508872               0.000787964               0.999999987               0.000471273               0.000751344               0.999999987               0.000457218               0.000747244               0.999999987               0.000448316               0.000754251               0.999999987               0.000437283               0.000762558               0.999999987               0.000420432               0.000767619               0.999999987               0.000396248               0.000767021               0.999999987               0.000363896               0.000759348               0.999999987               0.000323261               0.000744066               0.999999987               0.000274904               0.000721937               0.999999987               0.000219999               0.000694478               0.999999987               0.000160525               0.000663419               0.999999987               0.000098275               0.000630718               0.999999987               0.000034481               0.000597818               0.999999987              -0.000029876               0.000565229               0.999999987              -0.000094069               0.000532901               0.999999987               0.000559321               0.001006518               0.999999987               0.000437882               0.000896788               0.999999987               0.000398032               0.000857049               0.999999987               0.000383825               0.000848955               0.999999987               0.000376216               0.000853815               0.999999987               0.000367526               0.000862756               0.999999987               0.000354114               0.000871088               0.999999987               0.000334474               0.000876291               0.999999987               0.000307510               0.000876786               0.999999987               0.000272631               0.000871459               0.999999987               0.000229969               0.000860227               0.999999987               0.000179921               0.000843600               0.999999987               0.000123686               0.000822882               0.999999987               0.000062659               0.000799620               0.999999987              -0.000001380               0.000775476               0.999999987              -0.000066665               0.000751497               0.999999987              -0.000131841               0.000728329               0.999999987               0.000488762               0.001087568               0.999999987               0.000369416               0.001002103               0.999999987               0.000327456               0.000965560               0.999999987               0.000312254               0.000955609               0.999999987               0.000305139               0.000959217               0.999999987               0.000298120               0.000968763               0.999999987               0.000287606               0.000979885               0.999999987               0.000271817               0.000990089               0.999999987               0.000249723               0.000997712               0.999999987               0.000220496               0.001001429               0.999999987               0.000183674               0.001000510               0.999999987               0.000139417               0.000994875               0.999999987               0.000087982               0.000984705               0.999999987               0.000030191               0.000971206               0.999999987              -0.000032721               0.000955692               0.999999987              -0.000098979               0.000939704               0.999999987              -0.000166365               0.000924380               0.999999987               0.000413948               0.001158737               0.999999987               0.000303343               0.001100782               0.999999987               0.000261169               0.001071944               0.999999987               0.000244828               0.001063303               0.999999987               0.000237462               0.001067120               0.999999987               0.000231521               0.001077814               0.999999987               0.000223127               0.001091616               0.999999987               0.000210631               0.001106201               0.999999987               0.000192808               0.001120059               0.999999987               0.000168829               0.001131839               0.999999987               0.000138093               0.001140449               0.999999987               0.000100235               0.001145277               0.999999987               0.000054875               0.001146105               0.999999987               0.000002083               0.001143290               0.999999987              -0.000057493               0.001137626               0.999999987              -0.000122999               0.001130354               0.999999987              -0.000192796               0.001122839               0.999999987               0.000335505               0.001218739               0.999999987               0.000239687               0.001188673               0.999999987               0.000200071               0.001170753               0.999999987               0.000183405               0.001166357               0.999999987               0.000175757               0.001172151               0.999999987               0.000170352               0.001184742               0.999999987               0.000163518               0.001201527               0.999999987               0.000153574               0.001220267               0.999999987               0.000139520               0.001239695               0.999999987               0.000120490               0.001258547               0.999999987               0.000095750               0.001275769               0.999999987               0.000064793               0.001290446               0.999999987               0.000026699               0.001302101               0.999999987              -0.000019090               0.001310412               0.999999987              -0.000072821               0.001315661               0.999999987              -0.000134382               0.001318450               0.999999987              -0.000203469               0.001319854               0.999999987               0.000254119               0.001266562               0.999999987               0.000178084               0.001261751               0.999999987               0.000144283               0.001255998               0.999999987               0.000128987               0.001257606               0.999999987               0.000121638               0.001266967               0.999999987               0.000116576               0.001282503               0.999999987               0.000111127               0.001302466               0.999999987               0.000103411               0.001325220               0.999999987               0.000092894               0.001349483               0.999999987               0.000078593               0.001374431               0.999999987               0.000059829               0.001399104               0.999999987               0.000035915               0.001422547               0.999999987               0.000006170               0.001444011               0.999999987              -0.000030460               0.001462968               0.999999987              -0.000074852               0.001479124               0.999999987              -0.000127866               0.001492521               0.999999987              -0.000190717               0.001503699               0.999999987               0.000170583               0.001301314               0.999999987               0.000117984               0.001316511               0.999999987               0.000093245               0.001321810               0.999999987               0.000081386               0.001329704               0.999999987               0.000075331               0.001343053               0.999999987               0.000071287               0.001361791               0.999999987               0.000067215               0.001384885               0.999999987               0.000061881               0.001411187               0.999999987               0.000054719               0.001439623               0.999999987               0.000045217               0.001469419               0.999999987               0.000032647               0.001499825               0.999999987               0.000016375               0.001530035               0.999999987              -0.000004103               0.001559353               0.999999987              -0.000029634               0.001587137               0.999999987              -0.000061400               0.001612833               0.999999987              -0.000100867               0.001636123               0.999999987              -0.000149778               0.001656668               0.999999987               0.000085645               0.001322333               0.999999987               0.000058810               0.001350342               0.999999987               0.000045723               0.001363330               0.999999987               0.000039207               0.001376025               0.999999987               0.000035755               0.001392536               0.999999987               0.000033404               0.001413673               0.999999987               0.000031248               0.001439063               0.999999987               0.000028418               0.001467783               0.999999987               0.000024791               0.001499065               0.999999987               0.000020029               0.001532206               0.999999987               0.000013765               0.001566526               0.999999987               0.000005526               0.001601402               0.999999987              -0.000004970               0.001636139               0.999999987              -0.000017991               0.001670112               0.999999987              -0.000034694               0.001702609               0.999999987              -0.000055978               0.001732960               0.999999987              -0.000083127               0.001760351               0.999999987              -0.000000000               0.001329331               0.999999987              -0.000000000               0.001361799               0.999999987               0.000000000               0.001377599               0.999999987              -0.000000000               0.001391990               0.999999987              -0.000000000               0.001409695               0.999999987               0.000000000               0.001431679               0.999999987              -0.000000000               0.001457827               0.999999987               0.000000000               0.001487513               0.999999987               0.000000000               0.001519811               0.999999987              -0.000000000               0.001554014               0.999999987               0.000000000               0.001589728               0.999999987              -0.000000000               0.001626382               0.999999987              -0.000000000               0.001663187               0.999999987              -0.000000000               0.001699580               0.999999987               0.000000000               0.001734649               0.999999987              -0.000000000               0.001767617               0.999999987               0.000000000               0.001797622               0.999999987 </DataArray>
<DataArray type="Float64"                                    Name="stress"                                                      NumberOfComponents="10" format="ascii">
              0.002183237               0.022991325               0.000000000              -0.002055197               0.008348764               0.006293567               0.000000000               0.000000000               0.000000000               0.000000000               0.002082592               0.017551997               0.000000000              -0.001413024               0.006321615               0.004908591               0.000000000               0.000000000               0.000000000               0.000000000               0.002681823               0.013140159               0.000000000              -0.000636835               0.004592287               0.003955453               0.000000000               0.000000000               0.000000000               0.000000000               0.002486622               0.010649644               0.000000000              -0.000398721               0.003682753               0.003284032               0.000000000               0.000000000               0.000000000               0.000000000               0.002072753               0.009065991              -0.000000000              -0.000355966               0.003140622               0.002784656               0.000000000               0.000000000               0.000000000               0.000000000               0.001633589               0.007944909               0.000000000              -0.000380517               0.002775115               0.002394598               0.000000000               0.000000000               0.000000000               0.000000000               0.001227785               0.007079112               0.000000000              -0.000424469               0.002501170               0.002076701               0.000000000               0.000000000               0.000000000               0.000000000               0.000885906               0.006352233              -0.000000000              -0.000461813               0.002271328               0.001809514               0.000000000               0.000000000               0.000000000               0.000000000               0.000613251               0.005690058              -0.000000000              -0.000481287               0.002057096               0.001575809               0.000000000               0.000000000               0.000000000               0.000000000               0.000388492               0.005059914              -0.000000000              -0.000486804               0.001848889               0.001362085               0.000000000               0.000000000               0.000000000               0.000000000               0.000200695               0.004445253              -0.000000000              -0.000480395               0.001641868               0.001161473               0.000000000               0.000000000               0.000000000               0.000000000               0.000055419               0.003829926               0.000000000              -0.000457958               0.001429282               0.000971324               0.000000000               0.000000000               0.000000000               0.000000000              -0.000049727               0.003188809              -0.000000000              -0.000417248               0.001202008               0.000784761               0.000000000               0.000000000               0.000000000               0.000000000              -0.000109952               0.002493542              -0.000000000              -0.000352924               0.000948814               0.000595890               0.000000000               0.000000000               0.000000000               0.000000000              -0.000119818               0.001723840               0.000000000              -0.000260411               0.000661411               0.000401000               0.000000000               0.000000000               0.000000000               0.000000000              -0.000074986               0.000864514              -0.000000000              -0.000136184               0.000333563               0.000197379               0.000000000               0.000000000               0.000000000               0.000000000              -0.000107291               0.000211861              -0.000000000              -0.000066717               0.000092858               0.000026141               0.000000000               0.000000000               0.000000000               0.000000000               0.002239487               0.022493117              -0.001498004              -0.001971828               0.008154907               0.006183079               0.000000000               0.000000000               0.000000000               0.000000000               0.002010073               0.017239363              -0.000642602              -0.001401139               0.006213443               0.004812304               0.000000000               0.000000000               0.000000000               0.000000000               0.002468796               0.013024463               0.000197181              -0.000702258               0.004575530               0.003873273               0.000000000               0.000000000               0.000000000               0.000000000               0.002220920               0.010638323               0.000532918              -0.000496944               0.003711720               0.003214776               0.000000000               0.000000000               0.000000000               0.000000000               0.001799734               0.009106709               0.000653548              -0.000463437               0.003190018               0.002726581               0.000000000               0.000000000               0.000000000               0.000000000               0.001373966               0.008012026               0.000682802              -0.000486265               0.002832737               0.002346472               0.000000000               0.000000000               0.000000000               0.000000000               0.000994245               0.007153700               0.000673178              -0.000521370               0.002558333               0.002036963               0.000000000               0.000000000               0.000000000               0.000000000               0.000681289               0.006425552               0.000641885              -0.000547710               0.002324399               0.001776690               0.000000000               0.000000000               0.000000000               0.000000000               0.000432533               0.005765715               0.000602829              -0.000558513               0.002108057               0.001549543               0.000000000               0.000000000               0.000000000               0.000000000               0.000235045               0.005140150               0.000568417              -0.000554376               0.001898158               0.001343782               0.000000000               0.000000000               0.000000000               0.000000000               0.000078789               0.004531996               0.000536100              -0.000536952               0.001689634               0.001152682               0.000000000               0.000000000               0.000000000               0.000000000              -0.000038558               0.003920874               0.000498983              -0.000504567               0.001475134               0.000970567               0.000000000               0.000000000               0.000000000               0.000000000              -0.000114084               0.003292374               0.000447684              -0.000454327               0.001248889               0.000794562               0.000000000               0.000000000               0.000000000               0.000000000              -0.000146484               0.002625489               0.000375138              -0.000383117               0.001002860               0.000619743               0.000000000               0.000000000               0.000000000               0.000000000              -0.000135776               0.001902399               0.000282377              -0.000288715               0.000730365               0.000441650               0.000000000               0.000000000               0.000000000               0.000000000              -0.000080870               0.001111750               0.000159261              -0.000169295               0.000427011               0.000257716               0.000000000               0.000000000               0.000000000               0.000000000              -0.000103982               0.000524893               0.000099335              -0.000104605               0.000209831               0.000105226               0.000000000               0.000000000               0.000000000               0.000000000               0.002358969               0.021055182              -0.002755995              -0.001747281               0.007600750               0.005853469               0.000000000               0.000000000               0.000000000               0.000000000               0.001774997               0.016346965              -0.001169954              -0.001377744               0.005908182               0.004530438               0.000000000               0.000000000               0.000000000               0.000000000               0.001854044               0.012695207               0.000367179              -0.000891632               0.004528904               0.003637272               0.000000000               0.000000000               0.000000000               0.000000000               0.001474125               0.010592311               0.000955055              -0.000771240               0.003787815               0.003016575               0.000000000               0.000000000               0.000000000               0.000000000               0.001040778               0.009201714               0.001154711              -0.000759921               0.003320514               0.002560593               0.000000000               0.000000000               0.000000000               0.000000000               0.000664363               0.008175935               0.001193345              -0.000772854               0.002982902               0.002210048               0.000000000               0.000000000               0.000000000               0.000000000               0.000361241               0.007344697               0.001165383              -0.000782620               0.002709081               0.001926461               0.000000000               0.000000000               0.000000000               0.000000000               0.000130232               0.006623543               0.001105918              -0.000779105               0.002467527               0.001688422               0.000000000               0.000000000               0.000000000               0.000000000              -0.000036331               0.005968287               0.001036476              -0.000759658               0.002242628               0.001482970               0.000000000               0.000000000               0.000000000               0.000000000              -0.000151270               0.005352442               0.000974691              -0.000725780               0.002026056               0.001300276               0.000000000               0.000000000               0.000000000               0.000000000              -0.000226302               0.004755885               0.000913826              -0.000679348               0.001811728               0.001132381               0.000000000               0.000000000               0.000000000               0.000000000              -0.000262616               0.004164750               0.000844157              -0.000619073               0.001594594               0.000975520               0.000000000               0.000000000               0.000000000               0.000000000              -0.000263407               0.003571653               0.000754402              -0.000545233               0.001372283               0.000827050               0.000000000               0.000000000               0.000000000               0.000000000              -0.000233953               0.002973681               0.000628493              -0.000459442               0.001144364               0.000684923               0.000000000               0.000000000               0.000000000               0.000000000              -0.000177732               0.002368674               0.000465078              -0.000362733               0.000910461               0.000547728               0.000000000               0.000000000               0.000000000               0.000000000              -0.000097339               0.001762283               0.000257521              -0.000256787               0.000673018               0.000416231               0.000000000               0.000000000               0.000000000               0.000000000              -0.000094142               0.001345475               0.000156558              -0.000203487               0.000516316               0.000312829               0.000000000               0.000000000               0.000000000               0.000000000               0.002426060               0.018856909              -0.003599546              -0.001447339               0.006768019               0.005320680               0.000000000               0.000000000               0.000000000               0.000000000               0.001349561               0.015004834              -0.001518814              -0.001369516               0.005458067               0.004088551               0.000000000               0.000000000               0.000000000               0.000000000               0.000907075               0.012197941               0.000462537              -0.001184587               0.004460802               0.003276215               0.000000000               0.000000000               0.000000000               0.000000000               0.000390355               0.010492499               0.001172486              -0.001165177               0.003885857               0.002720680               0.000000000               0.000000000               0.000000000               0.000000000              -0.000017658               0.009294678               0.001392860              -0.001168454               0.003487680               0.002319226               0.000000000               0.000000000               0.000000000               0.000000000              -0.000301166               0.008357474               0.001421356              -0.001157619               0.003171670               0.002014050               0.000000000               0.000000000               0.000000000               0.000000000              -0.000481934               0.007565488               0.001375248              -0.001126409               0.002897273               0.001770864               0.000000000               0.000000000               0.000000000               0.000000000              -0.000584436               0.006861814               0.001295749              -0.001076888               0.002646211               0.001569323               0.000000000               0.000000000               0.000000000               0.000000000              -0.000625641               0.006215405               0.001208994              -0.001011539               0.002408960               0.001397422               0.000000000               0.000000000               0.000000000               0.000000000              -0.000621604               0.005608762               0.001130007              -0.000934195               0.002180967               0.001246772               0.000000000               0.000000000               0.000000000               0.000000000              -0.000582258               0.005027781               0.001050467              -0.000846818               0.001958183               0.001111365               0.000000000               0.000000000               0.000000000               0.000000000              -0.000511243               0.004469796               0.000957391              -0.000750439               0.001740063               0.000989624               0.000000000               0.000000000               0.000000000               0.000000000              -0.000417828               0.003933654               0.000841878              -0.000648391               0.001527335               0.000878944               0.000000000               0.000000000               0.000000000               0.000000000              -0.000313360               0.003432931               0.000689061              -0.000546625               0.001326507               0.000779882               0.000000000               0.000000000               0.000000000               0.000000000              -0.000205287               0.002983570               0.000496989              -0.000449928               0.001144489               0.000694561               0.000000000               0.000000000               0.000000000               0.000000000              -0.000100276               0.002606239               0.000267240              -0.000363383               0.000989865               0.000626483               0.000000000               0.000000000               0.000000000               0.000000000              -0.000067114               0.002393483               0.000150808              -0.000324352               0.000905937               0.000581585               0.000000000               0.000000000               0.000000000               0.000000000               0.002295175               0.016181058              -0.003952914              -0.001161942               0.005780945               0.004619004               0.000000000               0.000000000               0.000000000               0.000000000               0.000723035               0.013404755              -0.001680459              -0.001404454               0.004936358               0.003531904               0.000000000               0.000000000               0.000000000               0.000000000              -0.000245197               0.011594273               0.000444347              -0.001541229               0.004378462               0.002837233               0.000000000               0.000000000               0.000000000               0.000000000              -0.000835468               0.010318976               0.001147517              -0.001603169               0.003974014               0.002370845               0.000000000               0.000000000               0.000000000               0.000000000              -0.001149292               0.009317555               0.001341905              -0.001595675               0.003637712               0.002042037               0.000000000               0.000000000               0.000000000               0.000000000              -0.001285636               0.008470483               0.001350388              -0.001540921               0.003337106               0.001796186               0.000000000               0.000000000               0.000000000               0.000000000              -0.001309337               0.007720558               0.001291936              -0.001456068               0.003058849               0.001602782               0.000000000               0.000000000               0.000000000               0.000000000              -0.001256986               0.007036167               0.001207288              -0.001350888               0.002795661               0.001444774               0.000000000               0.000000000               0.000000000               0.000000000              -0.001152082               0.006404685               0.001116051              -0.001232614               0.002545745               0.001313131               0.000000000               0.000000000               0.000000000               0.000000000              -0.001014214               0.005815109               0.001030093              -0.001107216               0.002307422               0.001200206               0.000000000               0.000000000               0.000000000               0.000000000              -0.000851939               0.005262606               0.000942216              -0.000977301               0.002079951               0.001102651               0.000000000               0.000000000               0.000000000               0.000000000              -0.000673274               0.004752202               0.000838043              -0.000846501               0.001866219               0.001019717               0.000000000               0.000000000               0.000000000               0.000000000              -0.000492840               0.004292392               0.000713659              -0.000721362               0.001671237               0.000949875               0.000000000               0.000000000               0.000000000               0.000000000              -0.000328768               0.003901313               0.000563058              -0.000610951               0.001504075               0.000893124               0.000000000               0.000000000               0.000000000               0.000000000              -0.000187915               0.003605541               0.000384399              -0.000521160               0.001375555               0.000854395               0.000000000               0.000000000               0.000000000               0.000000000              -0.000082962               0.003422734               0.000193086              -0.000458951               0.001293884               0.000834932               0.000000000               0.000000000               0.000000000               0.000000000              -0.000039230               0.003363736               0.000096457              -0.000435177               0.001266293               0.000831116               0.000000000               0.000000000               0.000000000               0.000000000               0.001849704               0.013321383              -0.003832372              -0.000971535               0.004764260               0.003792726               0.000000000               0.000000000               0.000000000               0.000000000              -0.000093791               0.011726070              -0.001684646              -0.001500928               0.004408960               0.002908032               0.000000000               0.000000000               0.000000000               0.000000000              -0.001466972               0.010930456               0.000292283              -0.001916417               0.004282255               0.002365838               0.000000000               0.000000000               0.000000000               0.000000000              -0.002011128               0.010051909               0.000892370              -0.002010657               0.004020822               0.002010165               0.000000000               0.000000000               0.000000000               0.000000000              -0.002153867               0.009219692               0.001042481              -0.001960157               0.003726585               0.001766429               0.000000000               0.000000000               0.000000000               0.000000000              -0.002099622               0.008453853               0.001038580              -0.001844085               0.003432618               0.001588532               0.000000000               0.000000000               0.000000000               0.000000000              -0.001944573               0.007745771               0.000981926              -0.001697432               0.003147708               0.001450276               0.000000000               0.000000000               0.000000000               0.000000000              -0.001732196               0.007087933               0.000906524              -0.001535561               0.002874474               0.001338913               0.000000000               0.000000000               0.000000000               0.000000000              -0.001484990               0.006483684               0.000825391              -0.001367328               0.002616982               0.001249654               0.000000000               0.000000000               0.000000000               0.000000000              -0.001222383               0.005928590               0.000745542              -0.001199464               0.002375998               0.001176534               0.000000000               0.000000000               0.000000000               0.000000000              -0.000954845               0.005422080               0.000662384              -0.001035824               0.002152617               0.001116792               0.000000000               0.000000000               0.000000000               0.000000000              -0.000699358               0.004971991               0.000565517              -0.000883756               0.001951899               0.001068143               0.000000000               0.000000000               0.000000000               0.000000000              -0.000467232               0.004593415               0.000454580              -0.000749387               0.001780919               0.001031532               0.000000000               0.000000000               0.000000000               0.000000000              -0.000274598               0.004307643               0.000335321              -0.000641428               0.001649676               0.001008248               0.000000000               0.000000000               0.000000000               0.000000000              -0.000133714               0.004127286               0.000210377              -0.000566052               0.001564432               0.000998380               0.000000000               0.000000000               0.000000000               0.000000000              -0.000047997               0.004052222               0.000095121              -0.000524525               0.001525569               0.001001044               0.000000000               0.000000000               0.000000000               0.000000000              -0.000015082               0.004048588               0.000041044              -0.000511728               0.001520092               0.001008364               0.000000000               0.000000000               0.000000000               0.000000000               0.001035345               0.010518232              -0.003329964              -0.000926525               0.003814883               0.002888358               0.000000000               0.000000000               0.000000000               0.000000000              -0.001047124               0.010097897              -0.001590254              -0.001654906               0.003917567               0.002262661               0.000000000               0.000000000               0.000000000               0.000000000              -0.002621624               0.010227320               0.000003015              -0.002261518               0.004162912               0.001901394               0.000000000               0.000000000               0.000000000               0.000000000              -0.002992416               0.009678359               0.000457086              -0.002331945               0.004003403               0.001671457               0.000000000               0.000000000               0.000000000               0.000000000              -0.002902666               0.008985937               0.000577252              -0.002211736               0.003732528               0.001520791               0.000000000               0.000000000               0.000000000               0.000000000              -0.002639062               0.008290776               0.000584096              -0.002025990               0.003438894               0.001412904               0.000000000               0.000000000               0.000000000               0.000000000              -0.002307588               0.007626534               0.000550410              -0.001818658               0.003148372               0.001329714               0.000000000               0.000000000               0.000000000               0.000000000              -0.001946078               0.007011011               0.000501839              -0.001606152               0.002872364               0.001266212               0.000000000               0.000000000               0.000000000               0.000000000              -0.001576251               0.006451696               0.000444551              -0.001397553               0.002616395               0.001218842               0.000000000               0.000000000               0.000000000               0.000000000              -0.001215569               0.005941707               0.000384697              -0.001198549               0.002380065               0.001181517               0.000000000               0.000000000               0.000000000               0.000000000              -0.000876703               0.005489993               0.000323196              -0.001015010               0.002168316               0.001153306               0.000000000               0.000000000               0.000000000               0.000000000              -0.000586216               0.005104893               0.000253879              -0.000857940               0.001987594               0.001129654               0.000000000               0.000000000               0.000000000               0.000000000              -0.000354103               0.004806881               0.000184938              -0.000733647               0.001846827               0.001113180               0.000000000               0.000000000               0.000000000               0.000000000              -0.000182134               0.004607304               0.000123167              -0.000644212               0.001750490               0.001106278               0.000000000               0.000000000               0.000000000               0.000000000              -0.000074182               0.004497656               0.000067137              -0.000590024               0.001695878               0.001105855               0.000000000               0.000000000               0.000000000               0.000000000              -0.000020742               0.004457056               0.000024929              -0.000564909               0.001673974               0.001109065               0.000000000               0.000000000               0.000000000               0.000000000              -0.000009515               0.004451502               0.000009197              -0.000560004               0.001670487               0.001110483               0.000000000               0.000000000               0.000000000               0.000000000              -0.000109104               0.007948839              -0.002564565              -0.001034518               0.002994425               0.001959907               0.000000000               0.000000000               0.000000000               0.000000000              -0.002079038               0.008619820              -0.001453808              -0.001857113               0.003492282               0.001635169               0.000000000               0.000000000               0.000000000               0.000000000              -0.003590104               0.009492071              -0.000404732              -0.002532792               0.004008256               0.001475464               0.000000000               0.000000000               0.000000000               0.000000000              -0.003684391               0.009194402              -0.000078061              -0.002530940               0.003908417               0.001377476               0.000000000               0.000000000               0.000000000               0.000000000              -0.003344593               0.008624545               0.000045309              -0.002332285               0.003652248               0.001319963               0.000000000               0.000000000               0.000000000               0.000000000              -0.002881657               0.007999624               0.000089692              -0.002080569               0.003360038               0.001279468               0.000000000               0.000000000               0.000000000               0.000000000              -0.002393262               0.007394742               0.000098171              -0.001821811               0.003072160               0.001250348               0.000000000               0.000000000               0.000000000               0.000000000              -0.001907118               0.006837762               0.000088283              -0.001569886               0.002802526               0.001232641               0.000000000               0.000000000               0.000000000               0.000000000              -0.001446641               0.006326086               0.000065981              -0.001333248               0.002553090               0.001219842               0.000000000               0.000000000               0.000000000               0.000000000              -0.001025974               0.005864018               0.000040660              -0.001117740               0.002327233               0.001209493               0.000000000               0.000000000               0.000000000               0.000000000              -0.000661289               0.005468337               0.000020261              -0.000931523               0.002133268               0.001201745               0.000000000               0.000000000               0.000000000               0.000000000              -0.000376319               0.005153717               0.000002690              -0.000785332               0.001979666               0.001194334               0.000000000               0.000000000               0.000000000               0.000000000              -0.000180489               0.004931228              -0.000005915              -0.000684085               0.001871754               0.001187669               0.000000000               0.000000000               0.000000000               0.000000000              -0.000066400               0.004795090              -0.000003639              -0.000624285               0.001806442               0.001182158               0.000000000               0.000000000               0.000000000               0.000000000              -0.000011101               0.004733560               0.000001516              -0.000595856               0.001776456               0.001180600               0.000000000               0.000000000               0.000000000               0.000000000               0.000004301               0.004721492               0.000003558              -0.000588572               0.001770006               0.001181433               0.000000000               0.000000000               0.000000000               0.000000000              -0.000000784               0.004726801               0.000003819              -0.000591143               0.001772632               0.001181489               0.000000000               0.000000000               0.000000000               0.000000000              -0.001438803               0.005805498              -0.001657316              -0.001265236               0.002356892               0.001091656               0.000000000               0.000000000               0.000000000               0.000000000              -0.003082885               0.007304283              -0.001312194              -0.002069112               0.003124441               0.001055328               0.000000000               0.000000000               0.000000000               0.000000000              -0.004346425               0.008742777              -0.000890219              -0.002722750               0.003821813               0.001099063               0.000000000               0.000000000               0.000000000               0.000000000              -0.004152627               0.008703818              -0.000639273              -0.002645206               0.003782979               0.001137773               0.000000000               0.000000000               0.000000000               0.000000000              -0.003604914               0.008278515              -0.000484826              -0.002386651               0.003555028               0.001168377               0.000000000               0.000000000               0.000000000               0.000000000              -0.002986721               0.007750404              -0.000386850              -0.002088816               0.003279714               0.001190898               0.000000000               0.000000000               0.000000000               0.000000000              -0.002376517               0.007223862              -0.000323950              -0.001794172               0.003005987               0.001211815               0.000000000               0.000000000               0.000000000               0.000000000              -0.001797546               0.006727904              -0.000287910              -0.001515064               0.002747634               0.001232570               0.000000000               0.000000000               0.000000000               0.000000000              -0.001269172               0.006260193              -0.000265718              -0.001258461               0.002506197               0.001247737               0.000000000               0.000000000               0.000000000               0.000000000              -0.000808856               0.005838967              -0.000244599              -0.001033189               0.002290699               0.001257510               0.000000000               0.000000000               0.000000000               0.000000000              -0.000429310               0.005488190              -0.000213608              -0.000847013               0.002111716               0.001264703               0.000000000               0.000000000               0.000000000               0.000000000              -0.000157216               0.005215790              -0.000173198              -0.000710928               0.001975555               0.001264627               0.000000000               0.000000000               0.000000000               0.000000000               0.000002013               0.005029482              -0.000124835              -0.000627929               0.001885787               0.001257858               0.000000000               0.000000000               0.000000000               0.000000000               0.000068917               0.004927665              -0.000068135              -0.000590113               0.001839243               0.001249130               0.000000000               0.000000000               0.000000000               0.000000000               0.000074846               0.004889655              -0.000017562              -0.000583138               0.001824248               0.001241110               0.000000000               0.000000000               0.000000000               0.000000000               0.000050022               0.004890665               0.000009440              -0.000592574               0.001827730               0.001235156               0.000000000               0.000000000               0.000000000               0.000000000               0.000031121               0.004902685               0.000015142              -0.000601164               0.001834600               0.001233436               0.000000000               0.000000000               0.000000000               0.000000000              -0.002960649               0.003845400              -0.000722209              -0.001590915               0.001812092               0.000221177               0.000000000               0.000000000               0.000000000               0.000000000              -0.003934557               0.005779454              -0.001159194              -0.002197886               0.002659094               0.000461208               0.000000000               0.000000000               0.000000000               0.000000000              -0.004816382               0.007622515              -0.001392514              -0.002758951               0.003460463               0.000701512               0.000000000               0.000000000               0.000000000               0.000000000              -0.004472525               0.007970322              -0.001228100              -0.002673481               0.003547908               0.000874427               0.000000000               0.000000000               0.000000000               0.000000000              -0.003834314               0.007816833              -0.001040632              -0.002414966               0.003410573               0.000995607               0.000000000               0.000000000               0.000000000               0.000000000              -0.003155399               0.007494616              -0.000883413              -0.002120096               0.003204879               0.001084783               0.000000000               0.000000000               0.000000000               0.000000000              -0.002499733               0.007126576              -0.000763136              -0.001828217               0.002984907               0.001156690               0.000000000               0.000000000               0.000000000               0.000000000              -0.001887925               0.006754641              -0.000672416              -0.001552298               0.002768957               0.001216659               0.000000000               0.000000000               0.000000000               0.000000000              -0.001331645               0.006379344              -0.000596947              -0.001296782               0.002558687               0.001261906               0.000000000               0.000000000               0.000000000               0.000000000              -0.000845345               0.006013477              -0.000526611              -0.001068686               0.002360701               0.001292015               0.000000000               0.000000000               0.000000000               0.000000000              -0.000440933               0.005679551              -0.000450222              -0.000875292               0.002184928               0.001309637               0.000000000               0.000000000               0.000000000               0.000000000              -0.000130200               0.005393620              -0.000364131              -0.000723026               0.002038864               0.001315838               0.000000000               0.000000000               0.000000000               0.000000000               0.000073445               0.005174364              -0.000266812              -0.000619252               0.001931188               0.001311936               0.000000000               0.000000000               0.000000000               0.000000000               0.000175678               0.005037113              -0.000164318              -0.000563759               0.001866940               0.001303182               0.000000000               0.000000000               0.000000000               0.000000000               0.000195786               0.004971643              -0.000074717              -0.000548034               0.001839876               0.001291842               0.000000000               0.000000000               0.000000000               0.000000000               0.000166268               0.004964296              -0.000017544              -0.000558185               0.001840810               0.001282625               0.000000000               0.000000000               0.000000000               0.000000000               0.000131959               0.004966927               0.000005544              -0.000571380               0.001846086               0.001274706               0.000000000               0.000000000               0.000000000               0.000000000              -0.004874893               0.002091767               0.000166997              -0.002089552               0.001393764              -0.000695789               0.000000000               0.000000000               0.000000000               0.000000000              -0.004903438               0.004247998              -0.000947570              -0.002369784               0.002205912              -0.000163872               0.000000000               0.000000000               0.000000000               0.000000000              -0.005218540               0.006294160              -0.001795067              -0.002743716               0.003012604               0.000268888               0.000000000               0.000000000               0.000000000               0.000000000              -0.004741148               0.007002219              -0.001788422              -0.002653202               0.003218450               0.000565248               0.000000000               0.000000000               0.000000000               0.000000000              -0.004055024               0.007162000              -0.001603105              -0.002415878               0.003192602               0.000776724               0.000000000               0.000000000               0.000000000               0.000000000              -0.003344707               0.007084093              -0.001404176              -0.002139772               0.003074598               0.000934826               0.000000000               0.000000000               0.000000000               0.000000000              -0.002668375               0.006905935              -0.001230936              -0.001863878               0.002923248               0.001059370               0.000000000               0.000000000               0.000000000               0.000000000              -0.002038594               0.006687106              -0.001086524              -0.001600357               0.002762465               0.001162108               0.000000000               0.000000000               0.000000000               0.000000000              -0.001460292               0.006436160              -0.000961875              -0.001352126               0.002596074               0.001243947               0.000000000               0.000000000               0.000000000               0.000000000              -0.000938971               0.006158688              -0.000847669              -0.001121947               0.002426858               0.001304910               0.000000000               0.000000000               0.000000000               0.000000000              -0.000483532               0.005873122              -0.000735946              -0.000915463               0.002262842               0.001347379               0.000000000               0.000000000               0.000000000               0.000000000              -0.000105749               0.005591094              -0.000618023              -0.000738541               0.002109860               0.001371319               0.000000000               0.000000000               0.000000000               0.000000000               0.000179650               0.005340270              -0.000485193              -0.000600164               0.001980127               0.001379963               0.000000000               0.000000000               0.000000000               0.000000000               0.000367029               0.005152503              -0.000342035              -0.000506426               0.001886292               0.001379867               0.000000000               0.000000000               0.000000000               0.000000000               0.000453030               0.005036927              -0.000200938              -0.000459729               0.001832202               0.001372473               0.000000000               0.000000000               0.000000000               0.000000000               0.000443129               0.004995560              -0.000084050              -0.000458270               0.001817927               0.001359656               0.000000000               0.000000000               0.000000000               0.000000000               0.000387233               0.004972539              -0.000024617              -0.000476354               0.001816281               0.001339927               0.000000000               0.000000000               0.000000000               0.000000000              -0.007047636               0.000688771               0.000925001              -0.002728957               0.001139235              -0.001589722               0.000000000               0.000000000               0.000000000               0.000000000              -0.006020223               0.002816176              -0.000672567              -0.002609601               0.001808580              -0.000801021               0.000000000               0.000000000               0.000000000               0.000000000              -0.005562979               0.004783939              -0.001998546              -0.002684104               0.002489330              -0.000194774               0.000000000               0.000000000               0.000000000               0.000000000              -0.004866820               0.005740785              -0.002188582              -0.002542650               0.002761125               0.000218475               0.000000000               0.000000000               0.000000000               0.000000000              -0.004120352               0.006186560              -0.002058381              -0.002318447               0.002834981               0.000516534               0.000000000               0.000000000               0.000000000               0.000000000              -0.003391152               0.006363142              -0.001853044              -0.002067070               0.002810049               0.000742979               0.000000000               0.000000000               0.000000000               0.000000000              -0.002710000               0.006396018              -0.001651278              -0.001815748               0.002737234               0.000921486               0.000000000               0.000000000               0.000000000               0.000000000              -0.002076189               0.006353282              -0.001471999              -0.001572728               0.002641982               0.001069254               0.000000000               0.000000000               0.000000000               0.000000000              -0.001484802               0.006256807              -0.001312242              -0.001338899               0.002531881               0.001192982               0.000000000               0.000000000               0.000000000               0.000000000              -0.000938671               0.006104206              -0.001167324              -0.001115025               0.002406390               0.001291365               0.000000000               0.000000000               0.000000000               0.000000000              -0.000440753               0.005908441              -0.001030591              -0.000903836               0.002270739               0.001366903               0.000000000               0.000000000               0.000000000               0.000000000              -0.000000592               0.005685076              -0.000887548              -0.000710855               0.002131958               0.001421103               0.000000000               0.000000000               0.000000000               0.000000000               0.000368205               0.005461037              -0.000728471              -0.000544551               0.002001844               0.001457293               0.000000000               0.000000000               0.000000000               0.000000000               0.000650784               0.005262578              -0.000554024              -0.000413777               0.001892101               0.001478324               0.000000000               0.000000000               0.000000000               0.000000000               0.000835535               0.005115723              -0.000367390              -0.000326139               0.001813937               0.001487798               0.000000000               0.000000000               0.000000000               0.000000000               0.000908580               0.005036116              -0.000179343              -0.000288796               0.001774954               0.001486158               0.000000000               0.000000000               0.000000000               0.000000000               0.000888310               0.004997474              -0.000079485              -0.000291567               0.001762997               0.001471430               0.000000000               0.000000000               0.000000000               0.000000000              -0.009327200              -0.000293033               0.001431140              -0.003461068               0.001056004              -0.002405064               0.000000000               0.000000000               0.000000000               0.000000000              -0.007215998               0.001557995              -0.000384555              -0.002900745               0.001486236              -0.001414509               0.000000000               0.000000000               0.000000000               0.000000000              -0.005872904               0.003221274              -0.001970601              -0.002604994               0.001942075              -0.000662918               0.000000000               0.000000000               0.000000000               0.000000000              -0.004874656               0.004287969              -0.002331709              -0.002363988               0.002217303              -0.000146684               0.000000000               0.000000000               0.000000000               0.000000000              -0.004034055               0.004953372              -0.002288151              -0.002131938               0.002361753               0.000229815               0.000000000               0.000000000               0.000000000               0.000000000              -0.003287081               0.005367206              -0.002113833              -0.001903552               0.002423567               0.000520015               0.000000000               0.000000000               0.000000000               0.000000000              -0.002602570               0.005615669              -0.001915893              -0.001677919               0.002431177               0.000753258               0.000000000               0.000000000               0.000000000               0.000000000              -0.001973609               0.005754594              -0.001730279              -0.001459425               0.002404653               0.000945229               0.000000000               0.000000000               0.000000000               0.000000000              -0.001376123               0.005822258              -0.001560951              -0.001243826               0.002355341               0.001111516               0.000000000               0.000000000               0.000000000               0.000000000              -0.000811042               0.005820369              -0.001404301              -0.001031685               0.002283998               0.001252314               0.000000000               0.000000000               0.000000000               0.000000000              -0.000281917               0.005752728              -0.001257424              -0.000824808               0.002192493               0.001367684               0.000000000               0.000000000               0.000000000               0.000000000               0.000209910               0.005634580              -0.001105392              -0.000625605               0.002086710               0.001461104               0.000000000               0.000000000               0.000000000               0.000000000               0.000661189               0.005484234              -0.000934809              -0.000437583               0.001973920               0.001536338               0.000000000               0.000000000               0.000000000               0.000000000               0.001055861               0.005322979              -0.000742275              -0.000269424               0.001864117               0.001594693               0.000000000               0.000000000               0.000000000               0.000000000               0.001375265               0.005178246              -0.000524776              -0.000131556               0.001769917               0.001638361               0.000000000               0.000000000               0.000000000               0.000000000               0.001597512               0.005074330              -0.000278287              -0.000035225               0.001703168               0.001667943               0.000000000               0.000000000               0.000000000               0.000000000               0.001684765               0.005036680              -0.000149184               0.000002201               0.001678143               0.001680344               0.000000000               0.000000000               0.000000000               0.000000000              -0.011491707              -0.000884559               0.001582146              -0.004198817               0.001104745              -0.003094072               0.000000000               0.000000000               0.000000000               0.000000000              -0.008385518               0.000543355              -0.000144455              -0.003212485               0.001251938              -0.001960547               0.000000000               0.000000000               0.000000000               0.000000000              -0.006156961               0.001760584              -0.001709530              -0.002528930               0.001429828              -0.001099102               0.000000000               0.000000000               0.000000000               0.000000000              -0.004810191               0.002814126              -0.002155418              -0.002155584               0.001656558              -0.000499026               0.000000000               0.000000000               0.000000000               0.000000000              -0.003843331               0.003621658              -0.002188218              -0.001893953               0.001838524              -0.000055429               0.000000000               0.000000000               0.000000000               0.000000000              -0.003059324               0.004219954              -0.002071241              -0.001674738               0.001964882               0.000290145               0.000000000               0.000000000               0.000000000               0.000000000              -0.002370178               0.004652204              -0.001909056              -0.001470339               0.002040832               0.000570492               0.000000000               0.000000000               0.000000000               0.000000000              -0.001740961               0.004957902              -0.001747790              -0.001272596               0.002076815               0.000804220               0.000000000               0.000000000               0.000000000               0.000000000              -0.001143720               0.005179209              -0.001597339              -0.001076294               0.002085150               0.001008856               0.000000000               0.000000000               0.000000000               0.000000000              -0.000563813               0.005331603              -0.001451831              -0.000877879               0.002069809               0.001191930               0.000000000               0.000000000               0.000000000               0.000000000              -0.000006081               0.005405985              -0.001310959              -0.000678028               0.002027986               0.001349958               0.000000000               0.000000000               0.000000000               0.000000000               0.000529649               0.005409773              -0.001168218              -0.000477603               0.001962440               0.001484837               0.000000000               0.000000000               0.000000000               0.000000000               0.001054030               0.005361742              -0.001010700              -0.000274956               0.001878881               0.001603925               0.000000000               0.000000000               0.000000000               0.000000000               0.001563444               0.005278472              -0.000826726              -0.000073518               0.001783979               0.001710461               0.000000000               0.000000000               0.000000000               0.000000000               0.002041079               0.005178239              -0.000606649               0.000118123               0.001686688               0.001804811               0.000000000               0.000000000               0.000000000               0.000000000               0.002463142               0.005085110              -0.000331774               0.000288037               0.001599008               0.001887044               0.000000000               0.000000000               0.000000000               0.000000000               0.002714678               0.005067090              -0.000190341               0.000384614               0.001560809               0.001945423               0.000000000               0.000000000               0.000000000               0.000000000              -0.013286883              -0.001177154               0.001345687              -0.004835434               0.001219418              -0.003616016               0.000000000               0.000000000               0.000000000               0.000000000              -0.009384047              -0.000185923               0.000001024              -0.003495775               0.001103276              -0.002392498               0.000000000               0.000000000               0.000000000               0.000000000              -0.006397249               0.000574487              -0.001250429              -0.002470777               0.001015081              -0.001455696               0.000000000               0.000000000               0.000000000               0.000000000              -0.004718137               0.001538254              -0.001656713              -0.001961581               0.001166603              -0.000794978               0.000000000               0.000000000               0.000000000               0.000000000              -0.003613118               0.002407121              -0.001725831              -0.001655806               0.001354299              -0.000301507               0.000000000               0.000000000               0.000000000               0.000000000              -0.002775462               0.003124724              -0.001662910              -0.001431386               0.001518692               0.000087306               0.000000000               0.000000000               0.000000000               0.000000000              -0.002072967               0.003692294              -0.001553560              -0.001238897               0.001643717               0.000404821               0.000000000               0.000000000               0.000000000               0.000000000              -0.001442489               0.004131968              -0.001437486              -0.001057427               0.001729784               0.000672357               0.000000000               0.000000000               0.000000000               0.000000000              -0.000849198               0.004477451              -0.001329003              -0.000878129               0.001785178               0.000907049               0.000000000               0.000000000               0.000000000               0.000000000              -0.000267523               0.004749351              -0.001221306              -0.000693989               0.001814431               0.001120442               0.000000000               0.000000000               0.000000000               0.000000000               0.000309131               0.004945982              -0.001111130              -0.000502323               0.001816085               0.001313762               0.000000000               0.000000000               0.000000000               0.000000000               0.000884652               0.005071350              -0.001000247              -0.000302174               0.001791158               0.001488984               0.000000000               0.000000000               0.000000000               0.000000000               0.001469631               0.005136677              -0.000882027              -0.000090973               0.001742533               0.001651560               0.000000000               0.000000000               0.000000000               0.000000000               0.002075512               0.005151938              -0.000739012               0.000134323               0.001672521               0.001806844               0.000000000               0.000000000               0.000000000               0.000000000               0.002697793               0.005128875              -0.000553733               0.000370559               0.001586088               0.001956647               0.000000000               0.000000000               0.000000000               0.000000000               0.003331602               0.005075330              -0.000307561               0.000614928               0.001486784               0.002101712               0.000000000               0.000000000               0.000000000               0.000000000               0.003774796               0.005087348              -0.000184188               0.000779622               0.001435892               0.002215514               0.000000000               0.000000000               0.000000000               0.000000000              -0.014479913              -0.001283161               0.000772839              -0.005269569               0.001328794              -0.003940775               0.000000000               0.000000000               0.000000000               0.000000000              -0.010065079              -0.000616014               0.000037070              -0.003697400               0.001027122              -0.002670279               0.000000000               0.000000000               0.000000000               0.000000000              -0.006566402              -0.000194187              -0.000658140              -0.002438126               0.000747974              -0.001690151               0.000000000               0.000000000               0.000000000               0.000000000              -0.004643217               0.000671872              -0.000899448              -0.001825188               0.000832347              -0.000992841               0.000000000               0.000000000               0.000000000               0.000000000              -0.003425429               0.001549060              -0.000951976              -0.001478166               0.001009068              -0.000469098               0.000000000               0.000000000               0.000000000               0.000000000              -0.002540143               0.002327042              -0.000926804              -0.001243431               0.001190149              -0.000053282               0.000000000               0.000000000               0.000000000               0.000000000              -0.001820605               0.002976690              -0.000871972              -0.001054811               0.001343824               0.000289013               0.000000000               0.000000000               0.000000000               0.000000000              -0.001185745               0.003503944              -0.000812057              -0.000882645               0.001462184               0.000579539               0.000000000               0.000000000               0.000000000               0.000000000              -0.000594079               0.003933414              -0.000756529              -0.000714455               0.001549276               0.000834821               0.000000000               0.000000000               0.000000000               0.000000000              -0.000018528               0.004284692              -0.000700110              -0.000542533               0.001609061               0.001066527               0.000000000               0.000000000               0.000000000               0.000000000               0.000562760               0.004568733              -0.000641553              -0.000360056               0.001642914               0.001282858               0.000000000               0.000000000               0.000000000               0.000000000               0.001161652               0.004785306              -0.000582839              -0.000162544               0.001649267               0.001486723               0.000000000               0.000000000               0.000000000               0.000000000               0.001787275               0.004938227              -0.000523843               0.000052949               0.001628409               0.001681358               0.000000000               0.000000000               0.000000000               0.000000000               0.002453433               0.005030431              -0.000447689               0.000291231               0.001579717               0.001870947               0.000000000               0.000000000               0.000000000               0.000000000               0.003179105               0.005066243              -0.000339803               0.000558878               0.001502438               0.002061316               0.000000000               0.000000000               0.000000000               0.000000000               0.003985672               0.005049226              -0.000192460               0.000863465               0.001395237               0.002258702               0.000000000               0.000000000               0.000000000               0.000000000               0.004593397               0.005091502              -0.000119920               0.001086075               0.001335125               0.002421201               0.000000000               0.000000000               0.000000000               0.000000000              -0.014898749              -0.001301543              -0.000000000              -0.005424334               0.001374254              -0.004050080               0.000000000               0.000000000               0.000000000               0.000000000              -0.010308404              -0.000754051               0.000000000              -0.003771392               0.001005774              -0.002765619               0.000000000               0.000000000               0.000000000               0.000000000              -0.006630141              -0.000461178               0.000000000              -0.002428654               0.000655821              -0.001772833               0.000000000               0.000000000               0.000000000               0.000000000              -0.004616985               0.000362238              -0.000000000              -0.001776647               0.000712957              -0.001063690               0.000000000               0.000000000               0.000000000               0.000000000              -0.003355138               0.001236842               0.000000000              -0.001412780               0.000883201              -0.000529579               0.000000000               0.000000000               0.000000000               0.000000000              -0.002448629               0.002031384               0.000000000              -0.001172156               0.001067840              -0.000104317               0.000000000               0.000000000               0.000000000               0.000000000              -0.001721912               0.002712305              -0.000000000              -0.000984753               0.001232344               0.000247591               0.000000000               0.000000000               0.000000000               0.000000000              -0.001081856               0.003272950               0.000000000              -0.000814813               0.001362576               0.000547764               0.000000000               0.000000000               0.000000000               0.000000000              -0.000492938               0.003726195               0.000000000              -0.000650625               0.001458927               0.000808303               0.000000000               0.000000000               0.000000000               0.000000000               0.000079580               0.004105713              -0.000000000              -0.000483370               0.001529681               0.001046310               0.000000000               0.000000000               0.000000000               0.000000000               0.000662184               0.004427025              -0.000000000              -0.000305059               0.001577346               0.001272288               0.000000000               0.000000000               0.000000000               0.000000000               0.001269426               0.004679268              -0.000000000              -0.000108874               0.001596032               0.001487158               0.000000000               0.000000000               0.000000000               0.000000000               0.001910071               0.004865753               0.000000000               0.000108056               0.001585883               0.001693939               0.000000000               0.000000000               0.000000000               0.000000000               0.002594737               0.004984280               0.000000000               0.000349988               0.001544747               0.001894735               0.000000000               0.000000000               0.000000000               0.000000000               0.003359056               0.005037518              -0.000000000               0.000629950               0.001469173               0.002099122               0.000000000               0.000000000               0.000000000               0.000000000               0.004235727               0.005035821              -0.000000000               0.000958910               0.001358953               0.002317864               0.000000000               0.000000000               0.000000000               0.000000000               0.004911558               0.005093112               0.000000000               0.001205183               0.001295959               0.002501142               0.000000000               0.000000000               0.000000000               0.000000000               0.000000000               0.000000000               0.000000000               0.000000000               0.000000000               0.000000000               0.000000000               0.000000000               0.000000000               0.000000000               0.000000000               0.000000000               0.000000000               0.000000000               0.000000000               0.000000000               0.000000000               0.000000000               0.000000000               0.000000000               0.000000000               0.000000000               0.000000000               0.000000000               0.000000000               0.000000000               0.000000000               0.000000000               0.000000000               0.000000000               0.000000000               0.000000000               0.000000000               0.000000000               0.000000000               0.000000000               0.000000000               0.000000000               0.000000000               0.000000000               0.000000000               0.000000000               0.000000000               0.000000000               0.000000000               0.000000000               0.000000000               0.000000000               0.000000000               0.000000000               0.000000000               0.000000000               0.000000000               0.000000000               0.000000000               0.000000000               0.000000000               0.000000000               0.000000000               0.000000000               0.000000000               0.000000000               0.000000000               0.000000000               0.000000000               0.000000000               0.000000000               0.000000000               0.000000000               0.000000000               0.000000000               0.000000000               0.000000000               0.000000000               0.000000000               0.000000000               0.000000000               0.000000000               0.000000000               0.000000000               0.000000000               0.000000000               0.000000000               0.000000000               0.000000000               0.000000000               0.000000000               0.000000000               0.000000000               0.000000000               0.000000000               0.000000000               0.000000000               0.000000000               0.000000000               0.000000000               0.000000000               0.000000000               0.000000000               0.000000000               0.000000000               0.000000000               0.000000000               0.000000000               0.000000000               0.000000000               0.000000000               0.000000000               0.000000000               0.000000000               0.000000000               0.000000000               0.000000000               0.000000000               0.000000000               0.000000000               0.000000000               0.000000000               0.000000000               0.000000000               0.000000000               0.000000000               0.000000000               0.000000000               0.000000000               0.000000000               0.000000000               0.000000000               0.000000000               0.000000000               0.000000000               0.000000000               0.000000000               0.000000000               0.000000000               0.000000000               0.000000000               0.000000000               0.000000000               0.000000000               0.000000000               0.000000000               0.000000000               0.000000000               0.000000000               0.000000000               0.000000000               0.000000000               0.000000000               0.000000000               0.000000000               0.000000000               0.000000000               0.000000000               0.000000000               0.000000000               0.000000000               0.000000000               0.000000000               0.000000000               0.000000000               0.000000000               0.000000000               0.000000000               0.000000000               0.000000000               0.000000000               0.000000000               0.000000000               0.000000000               0.002239487               0.022493117               0.001498004              -0.001971828               0.008154907               0.006183079               0.000000000               0.000000000               0.000000000               0.000000000               0.002010073               0.017239363               0.000642602              -0.001401139               0.006213443               0.004812304               0.000000000               0.000000000               0.000000000               0.000000000               0.002468796               0.013024463              -0.000197181              -0.000702258               0.004575530               0.003873273               0.000000000               0.000000000               0.000000000               0.000000000               0.002220920               0.010638323              -0.000532918              -0.000496944               0.003711720               0.003214776               0.000000000               0.000000000               0.000000000               0.000000000               0.001799734               0.009106709              -0.000653548              -0.000463437               0.003190018               0.002726581               0.000000000               0.000000000               0.000000000               0.000000000               0.001373966               0.008012026              -0.000682802              -0.000486265               0.002832737               0.002346472               0.000000000               0.000000000               0.000000000               0.000000000               0.000994245               0.007153700              -0.000673178              -0.000521370               0.002558333               0.002036963               0.000000000               0.000000000               0.000000000               0.000000000               0.000681289               0.006425552              -0.000641885              -0.000547710               0.002324399               0.001776690               0.000000000               0.000000000               0.000000000               0.000000000               0.000432533               0.005765715              -0.000602829              -0.000558513               0.002108057               0.001549543               0.000000000               0.000000000               0.000000000               0.000000000               0.000235045               0.005140150              -0.000568417              -0.000554376               0.001898158               0.001343782               0.000000000               0.000000000               0.000000000               0.000000000               0.000078789               0.004531996              -0.000536100              -0.000536952               0.001689634               0.001152682               0.000000000               0.000000000               0.000000000               0.000000000              -0.000038558               0.003920874              -0.000498983              -0.000504567               0.001475134               0.000970567               0.000000000               0.000000000               0.000000000               0.000000000              -0.000114084               0.003292374              -0.000447684              -0.000454327               0.001248889               0.000794562               0.000000000               0.000000000               0.000000000               0.000000000              -0.000146484               0.002625489              -0.000375138              -0.000383117               0.001002860               0.000619743               0.000000000               0.000000000               0.000000000               0.000000000              -0.000135776               0.001902399              -0.000282377              -0.000288715               0.000730365               0.000441650               0.000000000               0.000000000               0.000000000               0.000000000              -0.000080870               0.001111750              -0.000159261              -0.000169295               0.000427011               0.000257716               0.000000000               0.000000000               0.000000000               0.000000000              -0.000103982               0.000524893              -0.000099335              -0.000104605               0.000209831               0.000105226               0.000000000               0.000000000               0.000000000               0.000000000               0.002358969               0.021055182               0.002755995              -0.001747281               0.007600750               0.005853469               0.000000000               0.000000000               0.000000000               0.000000000               0.001774997               0.016346965               0.001169954              -0.001377744               0.005908182               0.004530438               0.000000000               0.000000000               0.000000000               0.000000000               0.001854044               0.012695207              -0.000367179              -0.000891632               0.004528904               0.003637272               0.000000000               0.000000000               0.000000000               0.000000000               0.001474125               0.010592311              -0.000955055              -0.000771240               0.003787815               0.003016575               0.000000000               0.000000000               0.000000000               0.000000000               0.001040778               0.009201714              -0.001154711              -0.000759921               0.003320514               0.002560593               0.000000000               0.000000000               0.000000000               0.000000000               0.000664363               0.008175935              -0.001193345              -0.000772854               0.002982902               0.002210048               0.000000000               0.000000000               0.000000000               0.000000000               0.000361241               0.007344697              -0.001165383              -0.000782620               0.002709081               0.001926461               0.000000000               0.000000000               0.000000000               0.000000000               0.000130232               0.006623543              -0.001105918              -0.000779105               0.002467527               0.001688422               0.000000000               0.000000000               0.000000000               0.000000000              -0.000036331               0.005968287              -0.001036476              -0.000759658               0.002242628               0.001482970               0.000000000               0.000000000               0.000000000               0.000000000              -0.000151270               0.005352442              -0.000974691              -0.000725780               0.002026056               0.001300276               0.000000000               0.000000000               0.000000000               0.000000000              -0.000226302               0.004755885              -0.000913826              -0.000679348               0.001811728               0.001132381               0.000000000               0.000000000               0.000000000               0.000000000              -0.000262616               0.004164750              -0.000844157              -0.000619073               0.001594594               0.000975520               0.000000000               0.000000000               0.000000000               0.000000000              -0.000263407               0.003571653              -0.000754402              -0.000545233               0.001372283               0.000827050               0.000000000               0.000000000               0.000000000               0.000000000              -0.000233953               0.002973681              -0.000628493              -0.000459442               0.001144364               0.000684923               0.000000000               0.000000000               0.000000000               0.000000000              -0.000177732               0.002368674              -0.000465078              -0.000362733               0.000910461               0.000547728               0.000000000               0.000000000               0.000000000               0.000000000              -0.000097339               0.001762283              -0.000257521              -0.000256787               0.000673018               0.000416231               0.000000000               0.000000000               0.000000000               0.000000000              -0.000094142               0.001345475              -0.000156558              -0.000203487               0.000516316               0.000312829               0.000000000               0.000000000               0.000000000               0.000000000               0.002426060               0.018856909               0.003599546              -0.001447339               0.006768019               0.005320680               0.000000000               0.000000000               0.000000000               0.000000000               0.001349561               0.015004834               0.001518814              -0.001369516               0.005458067               0.004088551               0.000000000               0.000000000               0.000000000               0.000000000               0.000907075               0.012197941              -0.000462537              -0.001184587               0.004460802               0.003276215               0.000000000               0.000000000               0.000000000               0.000000000               0.000390355               0.010492499              -0.001172486              -0.001165177               0.003885857               0.002720680               0.000000000               0.000000000               0.000000000               0.000000000              -0.000017658               0.009294678              -0.001392860              -0.001168454               0.003487680               0.002319226               0.000000000               0.000000000               0.000000000               0.000000000              -0.000301166               0.008357474              -0.001421356              -0.001157619               0.003171670               0.002014050               0.000000000               0.000000000               0.000000000               0.000000000              -0.000481934               0.007565488              -0.001375248              -0.001126409               0.002897273               0.001770864               0.000000000               0.000000000               0.000000000               0.000000000              -0.000584436               0.006861814              -0.001295749              -0.001076888               0.002646211               0.001569323               0.000000000               0.000000000               0.000000000               0.000000000              -0.000625641               0.006215405              -0.001208994              -0.001011539               0.002408960               0.001397422               0.000000000               0.000000000               0.000000000               0.000000000              -0.000621604               0.005608762              -0.001130007              -0.000934195               0.002180967               0.001246772               0.000000000               0.000000000               0.000000000               0.000000000              -0.000582258               0.005027781              -0.001050467              -0.000846818               0.001958183               0.001111365               0.000000000               0.000000000               0.000000000               0.000000000              -0.000511243               0.004469796              -0.000957391              -0.000750439               0.001740063               0.000989624               0.000000000               0.000000000               0.000000000               0.000000000              -0.000417828               0.003933654              -0.000841878              -0.000648391               0.001527335               0.000878944               0.000000000               0.000000000               0.000000000               0.000000000              -0.000313360               0.003432931              -0.000689061              -0.000546625               0.001326507               0.000779882               0.000000000               0.000000000               0.000000000               0.000000000              -0.000205287               0.002983570              -0.000496989              -0.000449928               0.001144489               0.000694561               0.000000000               0.000000000               0.000000000               0.000000000              -0.000100276               0.002606239              -0.000267240              -0.000363383               0.000989865               0.000626483               0.000000000               0.000000000               0.000000000               0.000000000              -0.000067114               0.002393483              -0.000150808              -0.000324352               0.000905937               0.000581585               0.000000000               0.000000000               0.000000000               0.000000000               0.002295175               0.016181058               0.003952914              -0.001161942               0.005780945               0.004619004               0.000000000               0.000000000               0.000000000               0.000000000               0.000723035               0.013404755               0.001680459              -0.001404454               0.004936358               0.003531904               0.000000000               0.000000000               0.000000000               0.000000000              -0.000245197               0.011594273              -0.000444347              -0.001541229               0.004378462               0.002837233               0.000000000               0.000000000               0.000000000               0.000000000              -0.000835468               0.010318976              -0.001147517              -0.001603169               0.003974014               0.002370845               0.000000000               0.000000000               0.000000000               0.000000000              -0.001149292               0.009317555              -0.001341905              -0.001595675               0.003637712               0.002042037               0.000000000               0.000000000               0.000000000               0.000000000              -0.001285636               0.008470483              -0.001350388              -0.001540921               0.003337106               0.001796186               0.000000000               0.000000000               0.000000000               0.000000000              -0.001309337               0.007720558              -0.001291936              -0.001456068               0.003058849               0.001602782               0.000000000               0.000000000               0.000000000               0.000000000              -0.001256986               0.007036167              -0.001207288              -0.001350888               0.002795661               0.001444774               0.000000000               0.000000000               0.000000000               0.000000000              -0.001152082               0.006404685              -0.001116051              -0.001232614               0.002545745               0.001313131               0.000000000               0.000000000               0.000000000               0.000000000              -0.001014214               0.005815109              -0.001030093              -0.001107216               0.002307422               0.001200206               0.000000000               0.000000000               0.000000000               0.000000000              -0.000851939               0.005262606              -0.000942216              -0.000977301               0.002079951               0.001102651               0.000000000               0.000000000               0.000000000               0.000000000              -0.000673274               0.004752202              -0.000838043              -0.000846501               0.001866219               0.001019717               0.000000000               0.000000000               0.000000000               0.000000000              -0.000492840               0.004292392              -0.000713659              -0.000721362               0.001671237               0.000949875               0.000000000               0.000000000               0.000000000               0.000000000              -0.000328768               0.003901313              -0.000563058              -0.000610951               0.001504075               0.000893124               0.000000000               0.000000000               0.000000000               0.000000000              -0.000187915               0.003605541              -0.000384399              -0.000521160               0.001375555               0.000854395               0.000000000               0.000000000               0.000000000               0.000000000              -0.000082962               0.003422734              -0.000193086              -0.000458951               0.001293884               0.000834932               0.000000000               0.000000000               0.000000000               0.000000000              -0.000039230               0.003363736              -0.000096457              -0.000435177               0.001266293               0.000831116               0.000000000               0.000000000               0.000000000               0.000000000               0.001849704               0.013321383               0.003832372              -0.000971535               0.004764260               0.003792726               0.000000000               0.000000000               0.000000000               0.000000000              -0.000093791               0.011726070               0.001684646              -0.001500928               0.004408960               0.002908032               0.000000000               0.000000000               0.000000000               0.000000000              -0.001466972               0.010930456              -0.000292283              -0.001916417               0.004282255               0.002365838               0.000000000               0.000000000               0.000000000               0.000000000              -0.002011128               0.010051909              -0.000892370              -0.002010657               0.004020822               0.002010165               0.000000000               0.000000000               0.000000000               0.000000000              -0.002153867               0.009219692              -0.001042481              -0.001960157               0.003726585               0.001766429               0.000000000               0.000000000               0.000000000               0.000000000              -0.002099622               0.008453853              -0.001038580              -0.001844085               0.003432618               0.001588532               0.000000000               0.000000000               0.000000000               0.000000000              -0.001944573               0.007745771              -0.000981926              -0.001697432               0.003147708               0.001450276               0.000000000               0.000000000               0.000000000               0.000000000              -0.001732196               0.007087933              -0.000906524              -0.001535561               0.002874474               0.001338913               0.000000000               0.000000000               0.000000000               0.000000000              -0.001484990               0.006483684              -0.000825391              -0.001367328               0.002616982               0.001249654               0.000000000               0.000000000               0.000000000               0.000000000              -0.001222383               0.005928590              -0.000745542              -0.001199464               0.002375998               0.001176534               0.000000000               0.000000000               0.000000000               0.000000000              -0.000954845               0.005422080              -0.000662384              -0.001035824               0.002152617               0.001116792               0.000000000               0.000000000               0.000000000               0.000000000              -0.000699358               0.004971991              -0.000565517              -0.000883756               0.001951899               0.001068143               0.000000000               0.000000000               0.000000000               0.000000000              -0.000467232               0.004593415              -0.000454580              -0.000749387               0.001780919               0.001031532               0.000000000               0.000000000               0.000000000               0.000000000              -0.000274598               0.004307643              -0.000335321              -0.000641428               0.001649676               0.001008248               0.000000000               0.000000000               0.000000000               0.000000000              -0.000133714               0.004127286              -0.000210377              -0.000566052               0.001564432               0.000998380               0.000000000               0.000000000               0.000000000               0.000000000              -0.000047997               0.004052222              -0.000095121              -0.000524525               0.001525569               0.001001044               0.000000000               0.000000000               0.000000000               0.000000000              -0.000015082               0.004048588              -0.000041044              -0.000511728               0.001520092               0.001008364               0.000000000               0.000000000               0.000000000               0.000000000               0.001035345               0.010518232               0.003329964              -0.000926525               0.003814883               0.002888358               0.000000000               0.000000000               0.000000000               0.000000000              -0.001047124               0.010097897               0.001590254              -0.001654906               0.003917567               0.002262661               0.000000000               0.000000000               0.000000000               0.000000000              -0.002621624               0.010227320              -0.000003015              -0.002261518               0.004162912               0.001901394               0.000000000               0.000000000               0.000000000               0.000000000              -0.002992416               0.009678359              -0.000457086              -0.002331945               0.004003403               0.001671457               0.000000000               0.000000000               0.000000000               0.000000000              -0.002902666               0.008985937              -0.000577252              -0.002211736               0.003732528               0.001520791               0.000000000               0.000000000               0.000000000               0.000000000              -0.002639062               0.008290776              -0.000584096              -0.002025990               0.003438894               0.001412904               0.000000000               0.000000000               0.000000000               0.000000000              -0.002307588               0.007626534              -0.000550410              -0.001818658               0.003148372               0.001329714               0.000000000               0.000000000               0.000000000               0.000000000              -0.001946078               0.007011011              -0.000501839              -0.001606152               0.002872364               0.001266212               0.000000000               0.000000000               0.000000000               0.000000000              -0.001576251               0.006451696              -0.000444551              -0.001397553               0.002616395               0.001218842               0.000000000               0.000000000               0.000000000               0.000000000              -0.001215569               0.005941707              -0.000384697              -0.001198549               0.002380065               0.001181517               0.000000000               0.000000000               0.000000000               0.000000000              -0.000876703               0.005489993              -0.000323196              -0.001015010               0.002168316               0.001153306               0.000000000               0.000000000               0.000000000               0.000000000              -0.000586216               0.005104893              -0.000253879              -0.000857940               0.001987594               0.001129654               0.000000000               0.000000000               0.000000000               0.000000000              -0.000354103               0.004806881              -0.000184938              -0.000733647               0.001846827               0.001113180               0.000000000               0.000000000               0.000000000               0.000000000              -0.000182134               0.004607304              -0.000123167              -0.000644212               0.001750490               0.001106278               0.000000000               0.000000000               0.000000000               0.000000000              -0.000074182               0.004497656              -0.000067137              -0.000590024               0.001695878               0.001105855               0.000000000               0.000000000               0.000000000               0.000000000              -0.000020742               0.004457056              -0.000024929              -0.000564909               0.001673974               0.001109065               0.000000000               0.000000000               0.000000000               0.000000000              -0.000009515               0.004451502              -0.000009197              -0.000560004               0.001670487               0.001110483               0.000000000               0.000000000               0.000000000               0.000000000              -0.000109104               0.007948839               0.002564565              -0.001034518               0.002994425               0.001959907               0.000000000               0.000000000               0.000000000               0.000000000              -0.002079038               0.008619820               0.001453808              -0.001857113               0.003492282               0.001635169               0.000000000               0.000000000               0.000000000               0.000000000              -0.003590104               0.009492071               0.000404732              -0.002532792               0.004008256               0.001475464               0.000000000               0.000000000               0.000000000               0.000000000              -0.003684391               0.009194402               0.000078061              -0.002530940               0.003908417               0.001377476               0.000000000               0.000000000               0.000000000               0.000000000              -0.003344593               0.008624545              -0.000045309              -0.002332285               0.003652248               0.001319963               0.000000000               0.000000000               0.000000000               0.000000000              -0.002881657               0.007999624              -0.000089692              -0.002080569               0.003360038               0.001279468               0.000000000               0.000000000               0.000000000               0.000000000              -0.002393262               0.007394742              -0.000098171              -0.001821811               0.003072160               0.001250348               0.000000000               0.000000000               0.000000000               0.000000000              -0.001907118               0.006837762              -0.000088283              -0.001569886               0.002802526               0.001232641               0.000000000               0.000000000               0.000000000               0.000000000              -0.001446641               0.006326086              -0.000065981              -0.001333248               0.002553090               0.001219842               0.000000000               0.000000000               0.000000000               0.000000000              -0.001025974               0.005864018              -0.000040660              -0.001117740               0.002327233               0.001209493               0.000000000               0.000000000               0.000000000               0.000000000              -0.000661289               0.005468337              -0.000020261              -0.000931523               0.002133268               0.001201745               0.000000000               0.000000000               0.000000000               0.000000000              -0.000376319               0.005153717              -0.000002690              -0.000785332               0.001979666               0.001194334               0.000000000               0.000000000               0.000000000               0.000000000              -0.000180489               0.004931228               0.000005915              -0.000684085               0.001871754               0.001187669               0.000000000               0.000000000               0.000000000               0.000000000              -0.000066400               0.004795090               0.000003639              -0.000624285               0.001806442               0.001182158               0.000000000               0.000000000               0.000000000               0.000000000              -0.000011101               0.004733560              -0.000001516              -0.000595856               0.001776456               0.001180600               0.000000000               0.000000000               0.000000000               0.000000000               0.000004301               0.004721492              -0.000003558              -0.000588572               0.001770006               0.001181433               0.000000000               0.000000000               0.000000000               0.000000000              -0.000000784               0.004726801              -0.000003819              -0.000591143               0.001772632               0.001181489               0.000000000               0.000000000               0.000000000               0.000000000              -0.001438803               0.005805498               0.001657316              -0.001265236               0.002356892               0.001091656               0.000000000               0.000000000               0.000000000               0.000000000              -0.003082885               0.007304283               0.001312194              -0.002069112               0.003124441               0.001055328               0.000000000               0.000000000               0.000000000               0.000000000              -0.004346425               0.008742777               0.000890219              -0.002722750               0.003821813               0.001099063               0.000000000               0.000000000               0.000000000               0.000000000              -0.004152627               0.008703818               0.000639273              -0.002645206               0.003782979               0.001137773               0.000000000               0.000000000               0.000000000               0.000000000              -0.003604914               0.008278515               0.000484826              -0.002386651               0.003555028               0.001168377               0.000000000               0.000000000               0.000000000               0.000000000              -0.002986721               0.007750404               0.000386850              -0.002088816               0.003279714               0.001190898               0.000000000               0.000000000               0.000000000               0.000000000              -0.002376517               0.007223862               0.000323950              -0.001794172               0.003005987               0.001211815               0.000000000               0.000000000               0.000000000               0.000000000              -0.001797546               0.006727904               0.000287910              -0.001515064               0.002747634               0.001232570               0.000000000               0.000000000               0.000000000               0.000000000              -0.001269172               0.006260193               0.000265718              -0.001258461               0.002506197               0.001247737               0.000000000               0.000000000               0.000000000               0.000000000              -0.000808856               0.005838967               0.000244599              -0.001033189               0.002290699               0.001257510               0.000000000               0.000000000               0.000000000               0.000000000              -0.000429310               0.005488190               0.000213608              -0.000847013               0.002111716               0.001264703               0.000000000               0.000000000               0.000000000               0.000000000              -0.000157216               0.005215790               0.000173198              -0.000710928               0.001975555               0.001264627               0.000000000               0.000000000               0.000000000               0.000000000               0.000002013               0.005029482               0.000124835              -0.000627929               0.001885787               0.001257858               0.000000000               0.000000000               0.000000000               0.000000000               0.000068917               0.004927665               0.000068135              -0.000590113               0.001839243               0.001249130               0.000000000               0.000000000               0.000000000               0.000000000               0.000074846               0.004889655               0.000017562              -0.000583138               0.001824248               0.001241110               0.000000000               0.000000000               0.000000000               0.000000000               0.000050022               0.004890665              -0.000009440              -0.000592574               0.001827730               0.001235156               0.000000000               0.000000000               0.000000000               0.000000000               0.000031121               0.004902685              -0.000015142              -0.000601164               0.001834600               0.001233436               0.000000000               0.000000000               0.000000000               0.000000000              -0.002960649               0.003845400               0.000722209              -0.001590915               0.001812092               0.000221177               0.000000000               0.000000000               0.000000000               0.000000000              -0.003934557               0.005779454               0.001159194              -0.002197886               0.002659094               0.000461208               0.000000000               0.000000000               0.000000000               0.000000000              -0.004816382               0.007622515               0.001392514              -0.002758951               0.003460463               0.000701512               0.000000000               0.000000000               0.000000000               0.000000000              -0.004472525               0.007970322               0.001228100              -0.002673481               0.003547908               0.000874427               0.000000000               0.000000000               0.000000000               0.000000000              -0.003834314               0.007816833               0.001040632              -0.002414966               0.003410573               0.000995607               0.000000000               0.000000000               0.000000000               0.000000000              -0.003155399               0.007494616               0.000883413              -0.002120096               0.003204879               0.001084783               0.000000000               0.000000000               0.000000000               0.000000000              -0.002499733               0.007126576               0.000763136              -0.001828217               0.002984907               0.001156690               0.000000000               0.000000000               0.000000000               0.000000000              -0.001887925               0.006754641               0.000672416              -0.001552298               0.002768957               0.001216659               0.000000000               0.000000000               0.000000000               0.000000000              -0.001331645               0.006379344               0.000596947              -0.001296782               0.002558687               0.001261906               0.000000000               0.000000000               0.000000000               0.000000000              -0.000845345               0.006013477               0.000526611              -0.001068686               0.002360701               0.001292015               0.000000000               0.000000000               0.000000000               0.000000000              -0.000440933               0.005679551               0.000450222              -0.000875292               0.002184928               0.001309637               0.000000000               0.000000000               0.000000000               0.000000000              -0.000130200               0.005393620               0.000364131              -0.000723026               0.002038864               0.001315838               0.000000000               0.000000000               0.000000000               0.000000000               0.000073445               0.005174364               0.000266812              -0.000619252               0.001931188               0.001311936               0.000000000               0.000000000               0.000000000               0.000000000               0.000175678               0.005037113               0.000164318              -0.000563759               0.001866940               0.001303182               0.000000000               0.000000000               0.000000000               0.000000000               0.000195786               0.004971643               0.000074717              -0.000548034               0.001839876               0.001291842               0.000000000               0.000000000               0.000000000               0.000000000               0.000166268               0.004964296               0.000017544              -0.000558185               0.001840810               0.001282625               0.000000000               0.000000000               0.000000000               0.000000000               0.000131959               0.004966927              -0.000005544              -0.000571380               0.001846086               0.001274706               0.000000000               0.000000000               0.000000000               0.000000000              -0.004874893               0.002091767              -0.000166997              -0.002089552               0.001393764              -0.000695789               0.000000000               0.000000000               0.000000000               0.000000000              -0.004903438               0.004247998               0.000947570              -0.002369784               0.002205912              -0.000163872               0.000000000               0.000000000               0.000000000               0.000000000              -0.005218540               0.006294160               0.001795067              -0.002743716               0.003012604               0.000268888               0.000000000               0.000000000               0.000000000               0.000000000              -0.004741148               0.007002219               0.001788422              -0.002653202               0.003218450               0.000565248               0.000000000               0.000000000               0.000000000               0.000000000              -0.004055024               0.007162000               0.001603105              -0.002415878               0.003192602               0.000776724               0.000000000               0.000000000               0.000000000               0.000000000              -0.003344707               0.007084093               0.001404176              -0.002139772               0.003074598               0.000934826               0.000000000               0.000000000               0.000000000               0.000000000              -0.002668375               0.006905935               0.001230936              -0.001863878               0.002923248               0.001059370               0.000000000               0.000000000               0.000000000               0.000000000              -0.002038594               0.006687106               0.001086524              -0.001600357               0.002762465               0.001162108               0.000000000               0.000000000               0.000000000               0.000000000              -0.001460292               0.006436160               0.000961875              -0.001352126               0.002596074               0.001243947               0.000000000               0.000000000               0.000000000               0.000000000              -0.000938971               0.006158688               0.000847669              -0.001121947               0.002426858               0.001304910               0.000000000               0.000000000               0.000000000               0.000000000              -0.000483532               0.005873122               0.000735946              -0.000915463               0.002262842               0.001347379               0.000000000               0.000000000               0.000000000               0.000000000              -0.000105749               0.005591094               0.000618023              -0.000738541               0.002109860               0.001371319               0.000000000               0.000000000               0.000000000               0.000000000               0.000179650               0.005340270               0.000485193              -0.000600164               0.001980127               0.001379963               0.000000000               0.000000000               0.000000000               0.000000000               0.000367029               0.005152503               0.000342035              -0.000506426               0.001886292               0.001379867               0.000000000               0.000000000               0.000000000               0.000000000               0.000453030               0.005036927               0.000200938              -0.000459729               0.001832202               0.001372473               0.000000000               0.000000000               0.000000000               0.000000000               0.000443129               0.004995560               0.000084050              -0.000458270               0.001817927               0.001359656               0.000000000               0.000000000               0.000000000               0.000000000               0.000387233               0.004972539               0.000024617              -0.000476354               0.001816281               0.001339927               0.000000000               0.000000000               0.000000000               0.000000000              -0.007047636               0.000688771              -0.000925001              -0.002728957               0.001139235              -0.001589722               0.000000000               0.000000000               0.000000000               0.000000000              -0.006020223               0.002816176               0.000672567              -0.002609601               0.001808580              -0.000801021               0.000000000               0.000000000               0.000000000               0.000000000              -0.005562979               0.004783939               0.001998546              -0.002684104               0.002489330              -0.000194774               0.000000000               0.000000000               0.000000000               0.000000000              -0.004866820               0.005740785               0.002188582              -0.002542650               0.002761125               0.000218475               0.000000000               0.000000000               0.000000000               0.000000000              -0.004120352               0.006186560               0.002058381              -0.002318447               0.002834981               0.000516534               0.000000000               0.000000000               0.000000000               0.000000000              -0.003391152               0.006363142               0.001853044              -0.002067070               0.002810049               0.000742979               0.000000000               0.000000000               0.000000000               0.000000000              -0.002710000               0.006396018               0.001651278              -0.001815748               0.002737234               0.000921486               0.000000000               0.000000000               0.000000000               0.000000000              -0.002076189               0.006353282               0.001471999              -0.001572728               0.002641982               0.001069254               0.000000000               0.000000000               0.000000000               0.000000000              -0.001484802               0.006256807               0.001312242              -0.001338899               0.002531881               0.001192982               0.000000000               0.000000000               0.000000000               0.000000000              -0.000938671               0.006104206               0.001167324              -0.001115025               0.002406390               0.001291365               0.000000000               0.000000000               0.000000000               0.000000000              -0.000440753               0.005908441               0.001030591              -0.000903836               0.002270739               0.001366903               0.000000000               0.000000000               0.000000000               0.000000000              -0.000000592               0.005685076               0.000887548              -0.000710855               0.002131958               0.001421103               0.000000000               0.000000000               0.000000000               0.000000000               0.000368205               0.005461037               0.000728471              -0.000544551               0.002001844               0.001457293               0.000000000               0.000000000               0.000000000               0.000000000               0.000650784               0.005262578               0.000554024              -0.000413777               0.001892101               0.001478324               0.000000000               0.000000000               0.000000000               0.000000000               0.000835535               0.005115723               0.000367390              -0.000326139               0.001813937               0.001487798               0.000000000               0.000000000               0.000000000               0.000000000               0.000908580               0.005036116               0.000179343              -0.000288796               0.001774954               0.001486158               0.000000000               0.000000000               0.000000000               0.000000000               0.000888310               0.004997474               0.000079485              -0.000291567               0.001762997               0.001471430               0.000000000               0.000000000               0.000000000               0.000000000              -0.009327200              -0.000293033              -0.001431140              -0.003461068               0.001056004              -0.002405064               0.000000000               0.000000000               0.000000000               0.000000000              -0.007215998               0.001557995               0.000384555              -0.002900745               0.001486236              -0.001414509               0.000000000               0.000000000               0.000000000               0.000000000              -0.005872904               0.003221274               0.001970601              -0.002604994               0.001942075              -0.000662918               0.000000000               0.000000000               0.000000000               0.000000000              -0.004874656               0.004287969               0.002331709              -0.002363988               0.002217303              -0.000146684               0.000000000               0.000000000               0.000000000               0.000000000              -0.004034055               0.004953372               0.002288151              -0.002131938               0.002361753               0.000229815               0.000000000               0.000000000               0.000000000               0.000000000              -0.003287081               0.005367206               0.002113833              -0.001903552               0.002423567               0.000520015               0.000000000               0.000000000               0.000000000               0.000000000              -0.002602570               0.005615669               0.001915893              -0.001677919               0.002431177               0.000753258               0.000000000               0.000000000               0.000000000               0.000000000              -0.001973609               0.005754594               0.001730279              -0.001459425               0.002404653               0.000945229               0.000000000               0.000000000               0.000000000               0.000000000              -0.001376123               0.005822258               0.001560951              -0.001243826               0.002355341               0.001111516               0.000000000               0.000000000               0.000000000               0.000000000              -0.000811042               0.005820369               0.001404301              -0.001031685               0.002283998               0.001252314               0.000000000               0.000000000               0.000000000               0.000000000              -0.000281917               0.005752728               0.001257424              -0.000824808               0.002192493               0.001367684               0.000000000               0.000000000               0.000000000               0.000000000               0.000209910               0.005634580               0.001105392              -0.000625605               0.002086710               0.001461104               0.000000000               0.000000000               0.000000000               0.000000000               0.000661189               0.005484234               0.000934809              -0.000437583               0.001973920               0.001536338               0.000000000               0.000000000               0.000000000               0.000000000               0.001055861               0.005322979               0.000742275              -0.000269424               0.001864117               0.001594693               0.000000000               0.000000000               0.000000000               0.000000000               0.001375265               0.005178246               0.000524776              -0.000131556               0.001769917               0.001638361               0.000000000               0.000000000               0.000000000               0.000000000               0.001597512               0.005074330               0.000278287              -0.000035225               0.001703168               0.001667943               0.000000000               0.000000000               0.000000000               0.000000000               0.001684765               0.005036680               0.000149184               0.000002201               0.001678143               0.001680344               0.000000000               0.000000000               0.000000000               0.000000000              -0.011491707              -0.000884559              -0.001582146              -0.004198817               0.001104745              -0.003094072               0.000000000               0.000000000               0.000000000               0.000000000              -0.008385518               0.000543355               0.000144455              -0.003212485               0.001251938              -0.001960547               0.000000000               0.000000000               0.000000000               0.000000000              -0.006156961               0.001760584               0.001709530              -0.002528930               0.001429828              -0.001099102               0.000000000               0.000000000               0.000000000               0.000000000              -0.004810191               0.002814126               0.002155418              -0.002155584               0.001656558              -0.000499026               0.000000000               0.000000000               0.000000000               0.000000000              -0.003843331               0.003621658               0.002188218              -0.001893953               0.001838524              -0.000055429               0.000000000               0.000000000               0.000000000               0.000000000              -0.003059324               0.004219954               0.002071241              -0.001674738               0.001964882               0.000290145               0.000000000               0.000000000               0.000000000               0.000000000              -0.002370178               0.004652204               0.001909056              -0.001470339               0.002040832               0.000570492               0.000000000               0.000000000               0.000000000               0.000000000              -0.001740961               0.004957902               0.001747790              -0.001272596               0.002076815               0.000804220               0.000000000               0.000000000               0.000000000               0.000000000              -0.001143720               0.005179209               0.001597339              -0.001076294               0.002085150               0.001008856               0.000000000               0.000000000               0.000000000               0.000000000              -0.000563813               0.005331603               0.001451831              -0.000877879               0.002069809               0.001191930               0.000000000               0.000000000               0.000000000               0.000000000              -0.000006081               0.005405985               0.001310959              -0.000678028               0.002027986               0.001349958               0.000000000               0.000000000               0.000000000               0.000000000               0.000529649               0.005409773               0.001168218              -0.000477603               0.001962440               0.001484837               0.000000000               0.000000000               0.000000000               0.000000000               0.001054030               0.005361742               0.001010700              -0.000274956               0.001878881               0.001603925               0.000000000               0.000000000               0.000000000               0.000000000               0.001563444               0.005278472               0.000826726              -0.000073518               0.001783979               0.001710461               0.000000000               0.000000000               0.000000000               0.000000000               0.002041079               0.005178239               0.000606649               0.000118123               0.001686688               0.001804811               0.000000000               0.000000000               0.000000000               0.000000000               0.002463142               0.005085110               0.000331774               0.000288037               0.001599008               0.001887044               0.000000000               0.000000000               0.000000000               0.000000000               0.002714678               0.005067090               0.000190341               0.000384614               0.001560809               0.001945423               0.000000000               0.000000000               0.000000000               0.000000000              -0.013286883              -0.001177154              -0.001345687              -0.004835434               0.001219418              -0.003616016               0.000000000               0.000000000               0.000000000               0.000000000              -0.009384047              -0.000185923              -0.000001024              -0.003495775               0.001103276              -0.002392498               0.000000000               0.000000000               0.000000000               0.000000000              -0.006397249               0.000574487               0.001250429              -0.002470777               0.001015081              -0.001455696               0.000000000               0.000000000               0.000000000               0.000000000              -0.004718137               0.001538254               0.001656713              -0.001961581               0.001166603              -0.000794978               0.000000000               0.000000000               0.000000000               0.000000000              -0.003613118               0.002407121               0.001725831              -0.001655806               0.001354299              -0.000301507               0.000000000               0.000000000               0.000000000               0.000000000              -0.002775462               0.003124724               0.001662910              -0.001431386               0.001518692               0.000087306               0.000000000               0.000000000               0.000000000               0.000000000              -0.002072967               0.003692294               0.001553560              -0.001238897               0.001643717               0.000404821               0.000000000               0.000000000               0.000000000               0.000000000              -0.001442489               0.004131968               0.001437486              -0.001057427               0.001729784               0.000672357               0.000000000               0.000000000               0.000000000               0.000000000              -0.000849198               0.004477451               0.001329003              -0.000878129               0.001785178               0.000907049               0.000000000               0.000000000               0.000000000               0.000000000              -0.000267523               0.004749351               0.001221306              -0.000693989               0.001814431               0.001120442               0.000000000               0.000000000               0.000000000               0.000000000               0.000309131               0.004945982               0.001111130              -0.000502323               0.001816085               0.001313762               0.000000000               0.000000000               0.000000000               0.000000000               0.000884652               0.005071350               0.001000247              -0.000302174               0.001791158               0.001488984               0.000000000               0.000000000               0.000000000               0.000000000               0.001469631               0.005136677               0.000882027              -0.000090973               0.001742533               0.001651560               0.000000000               0.000000000               0.000000000               0.000000000               0.002075512               0.005151938               0.000739012               0.000134323               0.001672521               0.001806844               0.000000000               0.000000000               0.000000000               0.000000000               0.002697793               0.005128875               0.000553733               0.000370559               0.001586088               0.001956647               0.000000000               0.000000000               0.000000000               0.000000000               0.003331602               0.005075330               0.000307561               0.000614928               0.001486784               0.002101712               0.000000000               0.000000000               0.000000000               0.000000000               0.003774796               0.005087348               0.000184188               0.000779622               0.001435892               0.002215514               0.000000000               0.000000000               0.000000000               0.000000000              -0.014479913              -0.001283161              -0.000772839              -0.005269569               0.001328794              -0.003940775               0.000000000               0.000000000               0.000000000               0.000000000              -0.010065079              -0.000616014              -0.000037070              -0.003697400               0.001027122              -0.002670279               0.000000000               0.000000000               0.000000000               0.000000000              -0.006566402              -0.000194187               0.000658140              -0.002438126               0.000747974              -0.001690151               0.000000000               0.000000000               0.000000000               0.000000000              -0.004643217               0.000671872               0.000899448              -0.001825188               0.000832347              -0.000992841               0.000000000               0.000000000               0.000000000               0.000000000              -0.003425429               0.001549060               0.000951976              -0.001478166               0.001009068              -0.000469098               0.000000000               0.000000000               0.000000000               0.000000000              -0.002540143               0.002327042               0.000926804              -0.001243431               0.001190149              -0.000053282               0.000000000               0.000000000               0.000000000               0.000000000              -0.001820605               0.002976690               0.000871972              -0.001054811               0.001343824               0.000289013               0.000000000               0.000000000               0.000000000               0.000000000              -0.001185745               0.003503944               0.000812057              -0.000882645               0.001462184               0.000579539               0.000000000               0.000000000               0.000000000               0.000000000              -0.000594079               0.003933414               0.000756529              -0.000714455               0.001549276               0.000834821               0.000000000               0.000000000               0.000000000               0.000000000              -0.000018528               0.004284692               0.000700110              -0.000542533               0.001609061               0.001066527               0.000000000               0.000000000               0.000000000               0.000000000               0.000562760               0.004568733               0.000641553              -0.000360056               0.001642914               0.001282858               0.000000000               0.000000000               0.000000000               0.000000000               0.001161652               0.004785306               0.000582839              -0.000162544               0.001649267               0.001486723               0.000000000               0.000000000               0.000000000               0.000000000               0.001787275               0.004938227               0.000523843               0.000052949               0.001628409               0.001681358               0.000000000               0.000000000               0.000000000               0.000000000               0.002453433               0.005030431               0.000447689               0.000291231               0.001579717               0.001870947               0.000000000               0.000000000               0.000000000               0.000000000               0.003179105               0.005066243               0.000339803               0.000558878               0.001502438               0.002061316               0.000000000               0.000000000               0.000000000               0.000000000               0.003985672               0.005049226               0.000192460               0.000863465               0.001395237               0.002258702               0.000000000               0.000000000               0.000000000               0.000000000               0.004593397               0.005091502               0.000119920               0.001086075               0.001335125               0.002421201               0.000000000               0.000000000               0.000000000               0.000000000              -0.014898749              -0.001301543              -0.000000000              -0.005424334               0.001374254              -0.004050080               0.000000000               0.000000000               0.000000000               0.000000000              -0.010308404              -0.000754051              -0.000000000              -0.003771392               0.001005774              -0.002765619               0.000000000               0.000000000               0.000000000               0.000000000              -0.006630141              -0.000461178               0.000000000              -0.002428654               0.000655821              -0.001772833               0.000000000               0.000000000               0.000000000               0.000000000              -0.004616985               0.000362238              -0.000000000              -0.001776647               0.000712957              -0.001063690               0.000000000               0.000000000               0.000000000               0.000000000              -0.003355138               0.001236842              -0.000000000              -0.001412780               0.000883201              -0.000529579               0.000000000               0.000000000               0.000000000               0.000000000              -0.002448629               0.002031384               0.000000000              -0.001172156               0.001067840              -0.000104317               0.000000000               0.000000000               0.000000000               0.000000000              -0.001721912               0.002712305              -0.000000000              -0.000984753               0.001232344               0.000247591               0.000000000               0.000000000               0.000000000               0.000000000              -0.001081856               0.003272950              -0.000000000              -0.000814813               0.001362576               0.000547764               0.000000000               0.000000000               0.000000000               0.000000000              -0.000492938               0.003726195               0.000000000              -0.000650625               0.001458927               0.000808303               0.000000000               0.000000000               0.000000000               0.000000000               0.000079580               0.004105713              -0.000000000              -0.000483370               0.001529681               0.001046310               0.000000000               0.000000000               0.000000000               0.000000000               0.000662184               0.004427025              -0.000000000              -0.000305059               0.001577346               0.001272288               0.000000000               0.000000000               0.000000000               0.000000000               0.001269426               0.004679268              -0.000000000              -0.000108874               0.001596032               0.001487158               0.000000000               0.000000000               0.000000000               0.000000000               0.001910071               0.004865753              -0.000000000               0.000108056               0.001585883               0.001693939               0.000000000               0.000000000               0.000000000               0.000000000               0.002594737               0.004984280               0.000000000               0.000349988               0.001544747               0.001894735               0.000000000               0.000000000               0.000000000               0.000000000               0.003359056               0.005037518               0.000000000               0.000629950               0.001469173               0.002099122               0.000000000               0.000000000               0.000000000               0.000000000               0.004235727               0.005035821               0.000000000               0.000958910               0.001358953               0.002317864               0.000000000               0.000000000               0.000000000               0.000000000               0.004911558               0.005093112               0.000000000               0.001205183               0.001295959               0.002501142               0.000000000               0.000000000               0.000000000               0.000000000               0.002183237               0.022991325               0.000000000              -0.002055197               0.008348764               0.006293567               0.000000000               0.000000000               0.000000000               0.000000000               0.002082592               0.017551997               0.000000000              -0.001413024               0.006321615               0.004908591               0.000000000               0.000000000               0.000000000               0.000000000               0.002681823               0.013140159               0.000000000              -0.000636835               0.004592287               0.003955453               0.000000000               0.000000000               0.000000000               0.000000000               0.002486622               0.010649644               0.000000000              -0.000398721               0.003682753               0.003284032               0.000000000               0.000000000               0.000000000               0.000000000               0.002072753               0.009065991              -0.000000000              -0.000355966               0.003140622               0.002784656               0.000000000               0.000000000               0.000000000               0.000000000               0.001633589               0.007944909              -0.000000000              -0.000380517               0.002775115               0.002394598               0.000000000               0.000000000               0.000000000               0.000000000               0.001227785               0.007079112               0.000000000              -0.000424469               0.002501170               0.002076701               0.000000000               0.000000000               0.000000000               0.000000000               0.000885906               0.006352233              -0.000000000              -0.000461813               0.002271328               0.001809514               0.000000000               0.000000000               0.000000000               0.000000000               0.000613251               0.005690058              -0.000000000              -0.000481287               0.002057096               0.001575809               0.000000000               0.000000000               0.000000000               0.000000000               0.000388492               0.005059914               0.000000000              -0.000486804               0.001848889               0.001362085               0.000000000               0.000000000               0.000000000               0.000000000               0.000200695               0.004445253              -0.000000000              -0.000480395               0.001641868               0.001161473               0.000000000               0.000000000               0.000000000               0.000000000               0.000055419               0.003829926               0.000000000              -0.000457958               0.001429282               0.000971324               0.000000000               0.000000000               0.000000000               0.000000000              -0.000049727               0.003188809               0.000000000              -0.000417248               0.001202008               0.000784761               0.000000000               0.000000000               0.000000000               0.000000000              -0.000109952               0.002493542               0.000000000              -0.000352924               0.000948814               0.000595890               0.000000000               0.000000000               0.000000000               0.000000000              -0.000119818               0.001723840              -0.000000000              -0.000260411               0.000661411               0.000401000               0.000000000               0.000000000               0.000000000               0.000000000              -0.000074986               0.000864514               0.000000000              -0.000136184               0.000333563               0.000197379               0.000000000               0.000000000               0.000000000               0.000000000              -0.000107291               0.000211861               0.000000000              -0.000066717               0.000092858               0.000026141               0.000000000               0.000000000               0.000000000               0.000000000               0.002239487               0.022493117              -0.001498004              -0.001971828               0.008154907               0.006183079               0.000000000               0.000000000               0.000000000               0.000000000               0.002010073               0.017239363              -0.000642602              -0.001401139               0.006213443               0.004812304               0.000000000               0.000000000               0.000000000               0.000000000               0.002468796               0.013024463               0.000197181              -0.000702258               0.004575530               0.003873273               0.000000000               0.000000000               0.000000000               0.000000000               0.002220920               0.010638323               0.000532918              -0.000496944               0.003711720               0.003214776               0.000000000               0.000000000               0.000000000               0.000000000               0.001799734               0.009106709               0.000653548              -0.000463437               0.003190018               0.002726581               0.000000000               0.000000000               0.000000000               0.000000000               0.001373966               0.008012026               0.000682802              -0.000486265               0.002832737               0.002346472               0.000000000               0.000000000               0.000000000               0.000000000               0.000994245               0.007153700               0.000673178              -0.000521370               0.002558333               0.002036963               0.000000000               0.000000000               0.000000000               0.000000000               0.000681289               0.006425552               0.000641885              -0.000547710               0.002324399               0.001776690               0.000000000               0.000000000               0.000000000               0.000000000               0.000432533               0.005765715               0.000602829              -0.000558513               0.002108057               0.001549543               0.000000000               0.000000000               0.000000000               0.000000000               0.000235045               0.005140150               0.000568417              -0.000554376               0.001898158               0.001343782               0.000000000               0.000000000               0.000000000               0.000000000               0.000078789               0.004531996               0.000536100              -0.000536952               0.001689634               0.001152682               0.000000000               0.000000000               0.000000000               0.000000000              -0.000038558               0.003920874               0.000498983              -0.000504567               0.001475134               0.000970567               0.000000000               0.000000000               0.000000000               0.000000000              -0.000114084               0.003292374               0.000447684              -0.000454327               0.001248889               0.000794562               0.000000000               0.000000000               0.000000000               0.000000000              -0.000146484               0.002625489               0.000375138              -0.000383117               0.001002860               0.000619743               0.000000000               0.000000000               0.000000000               0.000000000              -0.000135776               0.001902399               0.000282377              -0.000288715               0.000730365               0.000441650               0.000000000               0.000000000               0.000000000               0.000000000              -0.000080870               0.001111750               0.000159261              -0.000169295               0.000427011               0.000257716               0.000000000               0.000000000               0.000000000               0.000000000              -0.000103982               0.000524893               0.000099335              -0.000104605               0.000209831               0.000105226               0.000000000               0.000000000               0.000000000               0.000000000               0.002358969               0.021055182              -0.002755995              -0.001747281               0.007600750               0.005853469               0.000000000               0.000000000               0.000000000               0.000000000               0.001774997               0.016346965              -0.001169954              -0.001377744               0.005908182               0.004530438               0.000000000               0.000000000               0.000000000               0.000000000               0.001854044               0.012695207               0.000367179              -0.000891632               0.004528904               0.003637272               0.000000000               0.000000000               0.000000000               0.000000000               0.001474125               0.010592311               0.000955055              -0.000771240               0.003787815               0.003016575               0.000000000               0.000000000               0.000000000               0.000000000               0.001040778               0.009201714               0.001154711              -0.000759921               0.003320514               0.002560593               0.000000000               0.000000000               0.000000000               0.000000000               0.000664363               0.008175935               0.001193345              -0.000772854               0.002982902               0.002210048               0.000000000               0.000000000               0.000000000               0.000000000               0.000361241               0.007344697               0.001165383              -0.000782620               0.002709081               0.001926461               0.000000000               0.000000000               0.000000000               0.000000000               0.000130232               0.006623543               0.001105918              -0.000779105               0.002467527               0.001688422               0.000000000               0.000000000               0.000000000               0.000000000              -0.000036331               0.005968287               0.001036476              -0.000759658               0.002242628               0.001482970               0.000000000               0.000000000               0.000000000               0.000000000              -0.000151270               0.005352442               0.000974691              -0.000725780               0.002026056               0.001300276               0.000000000               0.000000000               0.000000000               0.000000000              -0.000226302               0.004755885               0.000913826              -0.000679348               0.001811728               0.001132381               0.000000000               0.000000000               0.000000000               0.000000000              -0.000262616               0.004164750               0.000844157              -0.000619073               0.001594594               0.000975520               0.000000000               0.000000000               0.000000000               0.000000000              -0.000263407               0.003571653               0.000754402              -0.000545233               0.001372283               0.000827050               0.000000000               0.000000000               0.000000000               0.000000000              -0.000233953               0.002973681               0.000628493              -0.000459442               0.001144364               0.000684923               0.000000000               0.000000000               0.000000000               0.000000000              -0.000177732               0.002368674               0.000465078              -0.000362733               0.000910461               0.000547728               0.000000000               0.000000000               0.000000000               0.000000000              -0.000097339               0.001762283               0.000257521              -0.000256787               0.000673018               0.000416231               0.000000000               0.000000000               0.000000000               0.000000000              -0.000094142               0.001345475               0.000156558              -0.000203487               0.000516316               0.000312829               0.000000000               0.000000000               0.000000000               0.000000000               0.002426060               0.018856909              -0.003599546              -0.001447339               0.006768019               0.005320680               0.000000000               0.000000000               0.000000000               0.000000000               0.001349561               0.015004834              -0.001518814              -0.001369516               0.005458067               0.004088551               0.000000000               0.000000000               0.000000000               0.000000000               0.000907075               0.012197941               0.000462537              -0.001184587               0.004460802               0.003276215               0.000000000               0.000000000               0.000000000               0.000000000               0.000390355               0.010492499               0.001172486              -0.001165177               0.003885857               0.002720680               0.000000000               0.000000000               0.000000000               0.000000000              -0.000017658               0.009294678               0.001392860              -0.001168454               0.003487680               0.002319226               0.000000000               0.000000000               0.000000000               0.000000000              -0.000301166               0.008357474               0.001421356              -0.001157619               0.003171670               0.002014050               0.000000000               0.000000000               0.000000000               0.000000000              -0.000481934               0.007565488               0.001375248              -0.001126409               0.002897273               0.001770864               0.000000000               0.000000000               0.000000000               0.000000000              -0.000584436               0.006861814               0.001295749              -0.001076888               0.002646211               0.001569323               0.000000000               0.000000000               0.000000000               0.000000000              -0.000625641               0.006215405               0.001208994              -0.001011539               0.002408960               0.001397422               0.000000000               0.000000000               0.000000000               0.000000000              -0.000621604               0.005608762               0.001130007              -0.000934195               0.002180967               0.001246772               0.000000000               0.000000000               0.000000000               0.000000000              -0.000582258               0.005027781               0.001050467              -0.000846818               0.001958183               0.001111365               0.000000000               0.000000000               0.000000000               0.000000000              -0.000511243               0.004469796               0.000957391              -0.000750439               0.001740063               0.000989624               0.000000000               0.000000000               0.000000000               0.000000000              -0.000417828               0.003933654               0.000841878              -0.000648391               0.001527335               0.000878944               0.000000000               0.000000000               0.000000000               0.000000000              -0.000313360               0.003432931               0.000689061              -0.000546625               0.001326507               0.000779882               0.000000000               0.000000000               0.000000000               0.000000000              -0.000205287               0.002983570               0.000496989              -0.000449928               0.001144489               0.000694561               0.000000000               0.000000000               0.000000000               0.000000000              -0.000100276               0.002606239               0.000267240              -0.000363383               0.000989865               0.000626483               0.000000000               0.000000000               0.000000000               0.000000000              -0.000067114               0.002393483               0.000150808              -0.000324352               0.000905937               0.000581585               0.000000000               0.000000000               0.000000000               0.000000000               0.002295175               0.016181058              -0.003952914              -0.001161942               0.005780945               0.004619004               0.000000000               0.000000000               0.000000000               0.000000000               0.000723035               0.013404755              -0.001680459              -0.001404454               0.004936358               0.003531904               0.000000000               0.000000000               0.000000000               0.000000000              -0.000245197               0.011594273               0.000444347              -0.001541229               0.004378462               0.002837233               0.000000000               0.000000000               0.000000000               0.000000000              -0.000835468               0.010318976               0.001147517              -0.001603169               0.003974014               0.002370845               0.000000000               0.000000000               0.000000000               0.000000000              -0.001149292               0.009317555               0.001341905              -0.001595675               0.003637712               0.002042037               0.000000000               0.000000000               0.000000000               0.000000000              -0.001285636               0.008470483               0.001350388              -0.001540921               0.003337106               0.001796186               0.000000000               0.000000000               0.000000000               0.000000000              -0.001309337               0.007720558               0.001291936              -0.001456068               0.003058849               0.001602782               0.000000000               0.000000000               0.000000000               0.000000000              -0.001256986               0.007036167               0.001207288              -0.001350888               0.002795661               0.001444774               0.000000000               0.000000000               0.000000000               0.000000000              -0.001152082               0.006404685               0.001116051              -0.001232614               0.002545745               0.001313131               0.000000000               0.000000000               0.000000000               0.000000000              -0.001014214               0.005815109               0.001030093              -0.001107216               0.002307422               0.001200206               0.000000000               0.000000000               0.000000000               0.000000000              -0.000851939               0.005262606               0.000942216              -0.000977301               0.002079951               0.001102651               0.000000000               0.000000000               0.000000000               0.000000000              -0.000673274               0.004752202               0.000838043              -0.000846501               0.001866219               0.001019717               0.000000000               0.000000000               0.000000000               0.000000000              -0.000492840               0.004292392               0.000713659              -0.000721362               0.001671237               0.000949875               0.000000000               0.000000000               0.000000000               0.000000000              -0.000328768               0.003901313               0.000563058              -0.000610951               0.001504075               0.000893124               0.000000000               0.000000000               0.000000000               0.000000000              -0.000187915               0.003605541               0.000384399              -0.000521160               0.001375555               0.000854395               0.000000000               0.000000000               0.000000000               0.000000000              -0.000082962               0.003422734               0.000193086              -0.000458951               0.001293884               0.000834932               0.000000000               0.000000000               0.000000000               0.000000000              -0.000039230               0.003363736               0.000096457              -0.000435177               0.001266293               0.000831116               0.000000000               0.000000000               0.000000000               0.000000000               0.001849704               0.013321383              -0.003832372              -0.000971535               0.004764260               0.003792726               0.000000000               0.000000000               0.000000000               0.000000000              -0.000093791               0.011726070              -0.001684646              -0.001500928               0.004408960               0.002908032               0.000000000               0.000000000               0.000000000               0.000000000              -0.001466972               0.010930456               0.000292283              -0.001916417               0.004282255               0.002365838               0.000000000               0.000000000               0.000000000               0.000000000              -0.002011128               0.010051909               0.000892370              -0.002010657               0.004020822               0.002010165               0.000000000               0.000000000               0.000000000               0.000000000              -0.002153867               0.009219692               0.001042481              -0.001960157               0.003726585               0.001766429               0.000000000               0.000000000               0.000000000               0.000000000              -0.002099622               0.008453853               0.001038580              -0.001844085               0.003432618               0.001588532               0.000000000               0.000000000               0.000000000               0.000000000              -0.001944573               0.007745771               0.000981926              -0.001697432               0.003147708               0.001450276               0.000000000               0.000000000               0.000000000               0.000000000              -0.001732196               0.007087933               0.000906524              -0.001535561               0.002874474               0.001338913               0.000000000               0.000000000               0.000000000               0.000000000              -0.001484990               0.006483684               0.000825391              -0.001367328               0.002616982               0.001249654               0.000000000               0.000000000               0.000000000               0.000000000              -0.001222383               0.005928590               0.000745542              -0.001199464               0.002375998               0.001176534               0.000000000               0.000000000               0.000000000               0.000000000              -0.000954845               0.005422080               0.000662384              -0.001035824               0.002152617               0.001116792               0.000000000               0.000000000               0.000000000               0.000000000              -0.000699358               0.004971991               0.000565517              -0.000883756               0.001951899               0.001068143               0.000000000               0.000000000               0.000000000               0.000000000              -0.000467232               0.004593415               0.000454580              -0.000749387               0.001780919               0.001031532               0.000000000               0.000000000               0.000000000               0.000000000              -0.000274598               0.004307643               0.000335321              -0.000641428               0.001649676               0.001008248               0.000000000               0.000000000               0.000000000               0.000000000              -0.000133714               0.004127286               0.000210377              -0.000566052               0.001564432               0.000998380               0.000000000               0.000000000               0.000000000               0.000000000              -0.000047997               0.004052222               0.000095121              -0.000524525               0.001525569               0.001001044               0.000000000               0.000000000               0.000000000               0.000000000              -0.000015082               0.004048588               0.000041044              -0.000511728               0.001520092               0.001008364               0.000000000               0.000000000               0.000000000               0.000000000               0.001035345               0.010518232              -0.003329964              -0.000926525               0.003814883               0.002888358               0.000000000               0.000000000               0.000000000               0.000000000              -0.001047124               0.010097897              -0.001590254              -0.001654906               0.003917567               0.002262661               0.000000000               0.000000000               0.000000000               0.000000000              -0.002621624               0.010227320               0.000003015              -0.002261518               0.004162912               0.001901394               0.000000000               0.000000000               0.000000000               0.000000000              -0.002992416               0.009678359               0.000457086              -0.002331945               0.004003403               0.001671457               0.000000000               0.000000000               0.000000000               0.000000000              -0.002902666               0.008985937               0.000577252              -0.002211736               0.003732528               0.001520791               0.000000000               0.000000000               0.000000000               0.000000000              -0.002639062               0.008290776               0.000584096              -0.002025990               0.003438894               0.001412904               0.000000000               0.000000000               0.000000000               0.000000000              -0.002307588               0.007626534               0.000550410              -0.001818658               0.003148372               0.001329714               0.000000000               0.000000000               0.000000000               0.000000000              -0.001946078               0.007011011               0.000501839              -0.001606152               0.002872364               0.001266212               0.000000000               0.000000000               0.000000000               0.000000000              -0.001576251               0.006451696               0.000444551              -0.001397553               0.002616395               0.001218842               0.000000000               0.000000000               0.000000000               0.000000000              -0.001215569               0.005941707               0.000384697              -0.001198549               0.002380065               0.001181517               0.000000000               0.000000000               0.000000000               0.000000000              -0.000876703               0.005489993               0.000323196              -0.001015010               0.002168316               0.001153306               0.000000000               0.000000000               0.000000000               0.000000000              -0.000586216               0.005104893               0.000253879              -0.000857940               0.001987594               0.001129654               0.000000000               0.000000000               0.000000000               0.000000000              -0.000354103               0.004806881               0.000184938              -0.000733647               0.001846827               0.001113180               0.000000000               0.000000000               0.000000000               0.000000000              -0.000182134               0.004607304               0.000123167              -0.000644212               0.001750490               0.001106278               0.000000000               0.000000000               0.000000000               0.000000000              -0.000074182               0.004497656               0.000067137              -0.000590024               0.001695878               0.001105855               0.000000000               0.000000000               0.000000000               0.000000000              -0.000020742               0.004457056               0.000024929              -0.000564909               0.001673974               0.001109065               0.000000000               0.000000000               0.000000000               0.000000000              -0.000009515               0.004451502               0.000009197              -0.000560004               0.001670487               0.001110483               0.000000000               0.000000000               0.000000000               0.000000000              -0.000109104               0.007948839              -0.002564565              -0.001034518               0.002994425               0.001959907               0.000000000               0.000000000               0.000000000               0.000000000              -0.002079038               0.008619820              -0.001453808              -0.001857113               0.003492282               0.001635169               0.000000000               0.000000000               0.000000000               0.000000000              -0.003590104               0.009492071              -0.000404732              -0.002532792               0.004008256               0.001475464               0.000000000               0.000000000               0.000000000               0.000000000              -0.003684391               0.009194402              -0.000078061              -0.002530940               0.003908417               0.001377476               0.000000000               0.000000000               0.000000000               0.000000000              -0.003344593               0.008624545               0.000045309              -0.002332285               0.003652248               0.001319963               0.000000000               0.000000000               0.000000000               0.000000000              -0.002881657               0.007999624               0.000089692              -0.002080569               0.003360038               0.001279468               0.000000000               0.000000000               0.000000000               0.000000000              -0.002393262               0.007394742               0.000098171              -0.001821811               0.003072160               0.001250348               0.000000000               0.000000000               0.000000000               0.000000000              -0.001907118               0.006837762               0.000088283              -0.001569886               0.002802526               0.001232641               0.000000000               0.000000000               0.000000000               0.000000000              -0.001446641               0.006326086               0.000065981              -0.001333248               0.002553090               0.001219842               0.000000000               0.000000000               0.000000000               0.000000000              -0.001025974               0.005864018               0.000040660              -0.001117740               0.002327233               0.001209493               0.000000000               0.000000000               0.000000000               0.000000000              -0.000661289               0.005468337               0.000020261              -0.000931523               0.002133268               0.001201745               0.000000000               0.000000000               0.000000000               0.000000000              -0.000376319               0.005153717               0.000002690              -0.000785332               0.001979666               0.001194334               0.000000000               0.000000000               0.000000000               0.000000000              -0.000180489               0.004931228              -0.000005915              -0.000684085               0.001871754               0.001187669               0.000000000               0.000000000               0.000000000               0.000000000              -0.000066400               0.004795090              -0.000003639              -0.000624285               0.001806442               0.001182158               0.000000000               0.000000000               0.000000000               0.000000000              -0.000011101               0.004733560               0.000001516              -0.000595856               0.001776456               0.001180600               0.000000000               0.000000000               0.000000000               0.000000000               0.000004301               0.004721492               0.000003558              -0.000588572               0.001770006               0.001181433               0.000000000               0.000000000               0.000000000               0.000000000              -0.000000784               0.004726801               0.000003819              -0.000591143               0.001772632               0.001181489               0.000000000               0.000000000               0.000000000               0.000000000              -0.001438803               0.005805498              -0.001657316              -0.001265236               0.002356892               0.001091656               0.000000000               0.000000000               0.000000000               0.000000000              -0.003082885               0.007304283              -0.001312194              -0.002069112               0.003124441               0.001055328               0.000000000               0.000000000               0.000000000               0.000000000              -0.004346425               0.008742777              -0.000890219              -0.002722750               0.003821813               0.001099063               0.000000000               0.000000000               0.000000000               0.000000000              -0.004152627               0.008703818              -0.000639273              -0.002645206               0.003782979               0.001137773               0.000000000               0.000000000               0.000000000               0.000000000              -0.003604914               0.008278515              -0.000484826              -0.002386651               0.003555028               0.001168377               0.000000000               0.000000000               0.000000000               0.000000000              -0.002986721               0.007750404              -0.000386850              -0.002088816               0.003279714               0.001190898               0.000000000               0.000000000               0.000000000               0.000000000              -0.002376517               0.007223862              -0.000323950              -0.001794172               0.003005987               0.001211815               0.000000000               0.000000000               0.000000000               0.000000000              -0.001797546               0.006727904              -0.000287910              -0.001515064               0.002747634               0.001232570               0.000000000               0.000000000               0.000000000               0.000000000              -0.001269172               0.006260193              -0.000265718              -0.001258461               0.002506197               0.001247737               0.000000000               0.000000000               0.000000000               0.000000000              -0.000808856               0.005838967              -0.000244599              -0.001033189               0.002290699               0.001257510               0.000000000               0.000000000               0.000000000               0.000000000              -0.000429310               0.005488190              -0.000213608              -0.000847013               0.002111716               0.001264703               0.000000000               0.000000000               0.000000000               0.000000000              -0.000157216               0.005215790              -0.000173198              -0.000710928               0.001975555               0.001264627               0.000000000               0.000000000               0.000000000               0.000000000               0.000002013               0.005029482              -0.000124835              -0.000627929               0.001885787               0.001257858               0.000000000               0.000000000               0.000000000               0.000000000               0.000068917               0.004927665              -0.000068135              -0.000590113               0.001839243               0.001249130               0.000000000               0.000000000               0.000000000               0.000000000               0.000074846               0.004889655              -0.000017562              -0.000583138               0.001824248               0.001241110               0.000000000               0.000000000               0.000000000               0.000000000               0.000050022               0.004890665               0.000009440              -0.000592574               0.001827730               0.001235156               0.000000000               0.000000000               0.000000000               0.000000000               0.000031121               0.004902685               0.000015142              -0.000601164               0.001834600               0.001233436               0.000000000               0.000000000               0.000000000               0.000000000              -0.002960649               0.003845400              -0.000722209              -0.001590915               0.001812092               0.000221177               0.000000000               0.000000000               0.000000000               0.000000000              -0.003934557               0.005779454              -0.001159194              -0.002197886               0.002659094               0.000461208               0.000000000               0.000000000               0.000000000               0.000000000              -0.004816382               0.007622515              -0.001392514              -0.002758951               0.003460463               0.000701512               0.000000000               0.000000000               0.000000000               0.000000000              -0.004472525               0.007970322              -0.001228100              -0.002673481               0.003547908               0.000874427               0.000000000               0.000000000               0.000000000               0.000000000              -0.003834314               0.007816833              -0.001040632              -0.002414966               0.003410573               0.000995607               0.000000000               0.000000000               0.000000000               0.000000000              -0.003155399               0.007494616              -0.000883413              -0.002120096               0.003204879               0.001084783               0.000000000               0.000000000               0.000000000               0.000000000              -0.002499733               0.007126576              -0.000763136              -0.001828217               0.002984907               0.001156690               0.000000000               0.000000000               0.000000000               0.000000000              -0.001887925               0.006754641              -0.000672416              -0.001552298               0.002768957               0.001216659               0.000000000               0.000000000               0.000000000               0.000000000              -0.001331645               0.006379344              -0.000596947              -0.001296782               0.002558687               0.001261906               0.000000000               0.000000000               0.000000000               0.000000000              -0.000845345               0.006013477              -0.000526611              -0.001068686               0.002360701               0.001292015               0.000000000               0.000000000               0.000000000               0.000000000              -0.000440933               0.005679551              -0.000450222              -0.000875292               0.002184928               0.001309637               0.000000000               0.000000000               0.000000000               0.000000000              -0.000130200               0.005393620              -0.000364131              -0.000723026               0.002038864               0.001315838               0.000000000               0.000000000               0.000000000               0.000000000               0.000073445               0.005174364              -0.000266812              -0.000619252               0.001931188               0.001311936               0.000000000               0.000000000               0.000000000               0.000000000               0.000175678               0.005037113              -0.000164318              -0.000563759               0.001866940               0.001303182               0.000000000               0.000000000               0.000000000               0.000000000               0.000195786               0.004971643              -0.000074717              -0.000548034               0.001839876               0.001291842               0.000000000               0.000000000               0.000000000               0.000000000               0.000166268               0.004964296              -0.000017544              -0.000558185               0.001840810               0.001282625               0.000000000               0.000000000               0.000000000               0.000000000               0.000131959               0.004966927               0.000005544              -0.000571380               0.001846086               0.001274706               0.000000000               0.000000000               0.000000000               0.000000000              -0.004874893               0.002091767               0.000166997              -0.002089552               0.001393764              -0.000695789               0.000000000               0.000000000               0.000000000               0.000000000              -0.004903438               0.004247998              -0.000947570              -0.002369784               0.002205912              -0.000163872               0.000000000               0.000000000               0.000000000               0.000000000              -0.005218540               0.006294160              -0.001795067              -0.002743716               0.003012604               0.000268888               0.000000000               0.000000000               0.000000000               0.000000000              -0.004741148               0.007002219              -0.001788422              -0.002653202               0.003218450               0.000565248               0.000000000               0.000000000               0.000000000               0.000000000              -0.004055024               0.007162000              -0.001603105              -0.002415878               0.003192602               0.000776724               0.000000000               0.000000000               0.000000000               0.000000000              -0.003344707               0.007084093              -0.001404176              -0.002139772               0.003074598               0.000934826               0.000000000               0.000000000               0.000000000               0.000000000              -0.002668375               0.006905935              -0.001230936              -0.001863878               0.002923248               0.001059370               0.000000000               0.000000000               0.000000000               0.000000000              -0.002038594               0.006687106              -0.001086524              -0.001600357               0.002762465               0.001162108               0.000000000               0.000000000               0.000000000               0.000000000              -0.001460292               0.006436160              -0.000961875              -0.001352126               0.002596074               0.001243947               0.000000000               0.000000000               0.000000000               0.000000000              -0.000938971               0.006158688              -0.000847669              -0.001121947               0.002426858               0.001304910               0.000000000               0.000000000               0.000000000               0.000000000              -0.000483532               0.005873122              -0.000735946              -0.000915463               0.002262842               0.001347379               0.000000000               0.000000000               0.000000000               0.000000000              -0.000105749               0.005591094              -0.000618023              -0.000738541               0.002109860               0.001371319               0.000000000               0.000000000               0.000000000               0.000000000               0.000179650               0.005340270              -0.000485193              -0.000600164               0.001980127               0.001379963               0.000000000               0.000000000               0.000000000               0.000000000               0.000367029               0.005152503              -0.000342035              -0.000506426               0.001886292               0.001379867               0.000000000               0.000000000               0.000000000               0.000000000               0.000453030               0.005036927              -0.000200938              -0.000459729               0.001832202               0.001372473               0.000000000               0.000000000               0.000000000               0.000000000               0.000443129               0.004995560              -0.000084050              -0.000458270               0.001817927               0.001359656               0.000000000               0.000000000               0.000000000               0.000000000               0.000387233               0.004972539              -0.000024617              -0.000476354               0.001816281               0.001339927               0.000000000               0.000000000               0.000000000               0.000000000              -0.007047636               0.000688771               0.000925001              -0.002728957               0.001139235              -0.001589722               0.000000000               0.000000000               0.000000000               0.000000000              -0.006020223               0.002816176              -0.000672567              -0.002609601               0.001808580              -0.000801021               0.000000000               0.000000000               0.000000000               0.000000000              -0.005562979               0.004783939              -0.001998546              -0.002684104               0.002489330              -0.000194774               0.000000000               0.000000000               0.000000000               0.000000000              -0.004866820               0.005740785              -0.002188582              -0.002542650               0.002761125               0.000218475               0.000000000               0.000000000               0.000000000               0.000000000              -0.004120352               0.006186560              -0.002058381              -0.002318447               0.002834981               0.000516534               0.000000000               0.000000000               0.000000000               0.000000000              -0.003391152               0.006363142              -0.001853044              -0.002067070               0.002810049               0.000742979               0.000000000               0.000000000               0.000000000               0.000000000              -0.002710000               0.006396018              -0.001651278              -0.001815748               0.002737234               0.000921486               0.000000000               0.000000000               0.000000000               0.000000000              -0.002076189               0.006353282              -0.001471999              -0.001572728               0.002641982               0.001069254               0.000000000               0.000000000               0.000000000               0.000000000              -0.001484802               0.006256807              -0.001312242              -0.001338899               0.002531881               0.001192982               0.000000000               0.000000000               0.000000000               0.000000000              -0.000938671               0.006104206              -0.001167324              -0.001115025               0.002406390               0.001291365               0.000000000               0.000000000               0.000000000               0.000000000              -0.000440753               0.005908441              -0.001030591              -0.000903836               0.002270739               0.001366903               0.000000000               0.000000000               0.000000000               0.000000000              -0.000000592               0.005685076              -0.000887548              -0.000710855               0.002131958               0.001421103               0.000000000               0.000000000               0.000000000               0.000000000               0.000368205               0.005461037              -0.000728471              -0.000544551               0.002001844               0.001457293               0.000000000               0.000000000               0.000000000               0.000000000               0.000650784               0.005262578              -0.000554024              -0.000413777               0.001892101               0.001478324               0.000000000               0.000000000               0.000000000               0.000000000               0.000835535               0.005115723              -0.000367390              -0.000326139               0.001813937               0.001487798               0.000000000               0.000000000               0.000000000               0.000000000               0.000908580               0.005036116              -0.000179343              -0.000288796               0.001774954               0.001486158               0.000000000               0.000000000               0.000000000               0.000000000               0.000888310               0.004997474              -0.000079485              -0.000291567               0.001762997               0.001471430               0.000000000               0.000000000               0.000000000               0.000000000              -0.009327200              -0.000293033               0.001431140              -0.003461068               0.001056004              -0.002405064               0.000000000               0.000000000               0.000000000               0.000000000              -0.007215998               0.001557995              -0.000384555              -0.002900745               0.001486236              -0.001414509               0.000000000               0.000000000               0.000000000               0.000000000              -0.005872904               0.003221274              -0.001970601              -0.002604994               0.001942075              -0.000662918               0.000000000               0.000000000               0.000000000               0.000000000              -0.004874656               0.004287969              -0.002331709              -0.002363988               0.002217303              -0.000146684               0.000000000               0.000000000               0.000000000               0.000000000              -0.004034055               0.004953372              -0.002288151              -0.002131938               0.002361753               0.000229815               0.000000000               0.000000000               0.000000000               0.000000000              -0.003287081               0.005367206              -0.002113833              -0.001903552               0.002423567               0.000520015               0.000000000               0.000000000               0.000000000               0.000000000              -0.002602570               0.005615669              -0.001915893              -0.001677919               0.002431177               0.000753258               0.000000000               0.000000000               0.000000000               0.000000000              -0.001973609               0.005754594              -0.001730279              -0.001459425               0.002404653               0.000945229               0.000000000               0.000000000               0.000000000               0.000000000              -0.001376123               0.005822258              -0.001560951              -0.001243826               0.002355341               0.001111516               0.000000000               0.000000000               0.000000000               0.000000000              -0.000811042               0.005820369              -0.001404301              -0.001031685               0.002283998               0.001252314               0.000000000               0.000000000               0.000000000               0.000000000              -0.000281917               0.005752728              -0.001257424              -0.000824808               0.002192493               0.001367684               0.000000000               0.000000000               0.000000000               0.000000000               0.000209910               0.005634580              -0.001105392              -0.000625605               0.002086710               0.001461104               0.000000000               0.000000000               0.000000000               0.000000000               0.000661189               0.005484234              -0.000934809              -0.000437583               0.001973920               0.001536338               0.000000000               0.000000000               0.000000000               0.000000000               0.001055861               0.005322979              -0.000742275              -0.000269424               0.001864117               0.001594693               0.000000000               0.000000000               0.000000000               0.000000000               0.001375265               0.005178246              -0.000524776              -0.000131556               0.001769917               0.001638361               0.000000000               0.000000000               0.000000000               0.000000000               0.001597512               0.005074330              -0.000278287              -0.000035225               0.001703168               0.001667943               0.000000000               0.000000000               0.000000000               0.000000000               0.001684765               0.005036680              -0.000149184               0.000002201               0.001678143               0.001680344               0.000000000               0.000000000               0.000000000               0.000000000              -0.011491707              -0.000884559               0.001582146              -0.004198817               0.001104745              -0.003094072               0.000000000               0.000000000               0.000000000               0.000000000              -0.008385518               0.000543355              -0.000144455              -0.003212485               0.001251938              -0.001960547               0.000000000               0.000000000               0.000000000               0.000000000              -0.006156961               0.001760584              -0.001709530              -0.002528930               0.001429828              -0.001099102               0.000000000               0.000000000               0.000000000               0.000000000              -0.004810191               0.002814126              -0.002155418              -0.002155584               0.001656558              -0.000499026               0.000000000               0.000000000               0.000000000               0.000000000              -0.003843331               0.003621658              -0.002188218              -0.001893953               0.001838524              -0.000055429               0.000000000               0.000000000               0.000000000               0.000000000              -0.003059324               0.004219954              -0.002071241              -0.001674738               0.001964882               0.000290145               0.000000000               0.000000000               0.000000000               0.000000000              -0.002370178               0.004652204              -0.001909056              -0.001470339               0.002040832               0.000570492               0.000000000               0.000000000               0.000000000               0.000000000              -0.001740961               0.004957902              -0.001747790              -0.001272596               0.002076815               0.000804220               0.000000000               0.000000000               0.000000000               0.000000000              -0.001143720               0.005179209              -0.001597339              -0.001076294               0.002085150               0.001008856               0.000000000               0.000000000               0.000000000               0.000000000              -0.000563813               0.005331603              -0.001451831              -0.000877879               0.002069809               0.001191930               0.000000000               0.000000000               0.000000000               0.000000000              -0.000006081               0.005405985              -0.001310959              -0.000678028               0.002027986               0.001349958               0.000000000               0.000000000               0.000000000               0.000000000               0.000529649               0.005409773              -0.001168218              -0.000477603               0.001962440               0.001484837               0.000000000               0.000000000               0.000000000               0.000000000               0.001054030               0.005361742              -0.001010700              -0.000274956               0.001878881               0.001603925               0.000000000               0.000000000               0.000000000               0.000000000               0.001563444               0.005278472              -0.000826726              -0.000073518               0.001783979               0.001710461               0.000000000               0.000000000               0.000000000               0.000000000               0.002041079               0.005178239              -0.000606649               0.000118123               0.001686688               0.001804811               0.000000000               0.000000000               0.000000000               0.000000000               0.002463142               0.005085110              -0.000331774               0.000288037               0.001599008               0.001887044               0.000000000               0.000000000               0.000000000               0.000000000               0.002714678               0.005067090              -0.000190341               0.000384614               0.001560809               0.001945423               0.000000000               0.000000000               0.000000000               0.000000000              -0.013286883              -0.001177154               0.001345687              -0.004835434               0.001219418              -0.003616016               0.000000000               0.000000000               0.000000000               0.000000000              -0.009384047              -0.000185923               0.000001024              -0.003495775               0.001103276              -0.002392498               0.000000000               0.000000000               0.000000000               0.000000000              -0.006397249               0.000574487              -0.001250429              -0.002470777               0.001015081              -0.001455696               0.000000000               0.000000000               0.000000000               0.000000000              -0.004718137               0.001538254              -0.001656713              -0.001961581               0.001166603              -0.000794978               0.000000000               0.000000000               0.000000000               0.000000000              -0.003613118               0.002407121              -0.001725831              -0.001655806               0.001354299              -0.000301507               0.000000000               0.000000000               0.000000000               0.000000000              -0.002775462               0.003124724              -0.001662910              -0.001431386               0.001518692               0.000087306               0.000000000               0.000000000               0.000000000               0.000000000              -0.002072967               0.003692294              -0.001553560              -0.001238897               0.001643717               0.000404821               0.000000000               0.000000000               0.000000000               0.000000000              -0.001442489               0.004131968              -0.001437486              -0.001057427               0.001729784               0.000672357               0.000000000               0.000000000               0.000000000               0.000000000              -0.000849198               0.004477451              -0.001329003              -0.000878129               0.001785178               0.000907049               0.000000000               0.000000000               0.000000000               0.000000000              -0.000267523               0.004749351              -0.001221306              -0.000693989               0.001814431               0.001120442               0.000000000               0.000000000               0.000000000               0.000000000               0.000309131               0.004945982              -0.001111130              -0.000502323               0.001816085               0.001313762               0.000000000               0.000000000               0.000000000               0.000000000               0.000884652               0.005071350              -0.001000247              -0.000302174               0.001791158               0.001488984               0.000000000               0.000000000               0.000000000               0.000000000               0.001469631               0.005136677              -0.000882027              -0.000090973               0.001742533               0.001651560               0.000000000               0.000000000               0.000000000               0.000000000               0.002075512               0.005151938              -0.000739012               0.000134323               0.001672521               0.001806844               0.000000000               0.000000000               0.000000000               0.000000000               0.002697793               0.005128875              -0.000553733               0.000370559               0.001586088               0.001956647               0.000000000               0.000000000               0.000000000               0.000000000               0.003331602               0.005075330              -0.000307561               0.000614928               0.001486784               0.002101712               0.000000000               0.000000000               0.000000000               0.000000000               0.003774796               0.005087348              -0.000184188               0.000779622               0.001435892               0.002215514               0.000000000               0.000000000               0.000000000               0.000000000              -0.014479913              -0.001283161               0.000772839              -0.005269569               0.001328794              -0.003940775               0.000000000               0.000000000               0.000000000               0.000000000              -0.010065079              -0.000616014               0.000037070              -0.003697400               0.001027122              -0.002670279               0.000000000               0.000000000               0.000000000               0.000000000              -0.006566402              -0.000194187              -0.000658140              -0.002438126               0.000747974              -0.001690151               0.000000000               0.000000000               0.000000000               0.000000000              -0.004643217               0.000671872              -0.000899448              -0.001825188               0.000832347              -0.000992841               0.000000000               0.000000000               0.000000000               0.000000000              -0.003425429               0.001549060              -0.000951976              -0.001478166               0.001009068              -0.000469098               0.000000000               0.000000000               0.000000000               0.000000000              -0.002540143               0.002327042              -0.000926804              -0.001243431               0.001190149              -0.000053282               0.000000000               0.000000000               0.000000000               0.000000000              -0.001820605               0.002976690              -0.000871972              -0.001054811               0.001343824               0.000289013               0.000000000               0.000000000               0.000000000               0.000000000              -0.001185745               0.003503944              -0.000812057              -0.000882645               0.001462184               0.000579539               0.000000000               0.000000000               0.000000000               0.000000000              -0.000594079               0.003933414              -0.000756529              -0.000714455               0.001549276               0.000834821               0.000000000               0.000000000               0.000000000               0.000000000              -0.000018528               0.004284692              -0.000700110              -0.000542533               0.001609061               0.001066527               0.000000000               0.000000000               0.000000000               0.000000000               0.000562760               0.004568733              -0.000641553              -0.000360056               0.001642914               0.001282858               0.000000000               0.000000000               0.000000000               0.000000000               0.001161652               0.004785306              -0.000582839              -0.000162544               0.001649267               0.001486723               0.000000000               0.000000000               0.000000000               0.000000000               0.001787275               0.004938227              -0.000523843               0.000052949               0.001628409               0.001681358               0.000000000               0.000000000               0.000000000               0.000000000               0.002453433               0.005030431              -0.000447689               0.000291231               0.001579717               0.001870947               0.000000000               0.000000000               0.000000000               0.000000000               0.003179105               0.005066243              -0.000339803               0.000558878               0.001502438               0.002061316               0.000000000               0.000000000               0.000000000               0.000000000               0.003985672               0.005049226              -0.000192460               0.000863465               0.001395237               0.002258702               0.000000000               0.000000000               0.000000000               0.000000000               0.004593397               0.005091502              -0.000119920               0.001086075               0.001335125               0.002421201               0.000000000               0.000000000               0.000000000               0.000000000               0.000000000               0.000000000               0.000000000               0.000000000               0.000000000               0.000000000               0.000000000               0.000000000               0.000000000               0.000000000               0.000000000               0.000000000               0.000000000               0.000000000               0.000000000               0.000000000               0.000000000               0.000000000               0.000000000               0.000000000               0.000000000               0.000000000               0.000000000               0.000000000               0.000000000               0.000000000               0.000000000               0.000000000               0.000000000               0.000000000               0.000000000               0.000000000               0.000000000               0.000000000               0.000000000               0.000000000               0.000000000               0.000000000               0.000000000               0.000000000               0.000000000               0.000000000               0.000000000               0.000000000               0.000000000               0.000000000               0.000000000               0.000000000               0.000000000               0.000000000               0.000000000               0.000000000               0.000000000               0.000000000               0.000000000               0.000000000               0.000000000               0.000000000               0.000000000               0.000000000               0.000000000               0.000000000               0.000000000               0.000000000               0.000000000               0.000000000               0.000000000               0.000000000               0.000000000               0.000000000               0.000000000               0.000000000               0.000000000               0.000000000               0.000000000               0.000000000               0.000000000               0.000000000               0.000000000               0.000000000               0.000000000               0.000000000               0.000000000               0.000000000               0.000000000               0.000000000               0.000000000               0.000000000               0.000000000               0.000000000               0.000000000               0.000000000               0.000000000               0.000000000               0.000000000               0.000000000               0.000000000               0.000000000               0.000000000               0.000000000               0.000000000               0.000000000               0.000000000               0.000000000               0.000000000               0.000000000               0.000000000               0.000000000               0.000000000               0.000000000               0.000000000               0.000000000               0.000000000               0.000000000               0.000000000               0.000000000               0.000000000               0.000000000               0.000000000               0.000000000               0.000000000               0.000000000               0.000000000               0.000000000               0.000000000               0.000000000               0.000000000               0.000000000               0.000000000               0.000000000               0.000000000               0.000000000               0.000000000               0.000000000               0.000000000               0.000000000               0.000000000               0.000000000               0.000000000               0.000000000               0.000000000               0.000000000               0.000000000               0.000000000               0.000000000               0.000000000               0.000000000               0.000000000               0.000000000               0.000000000               0.000000000               0.000000000               0.000000000               0.000000000               0.000000000               0.000000000               0.000000000               0.000000000               0.000000000               0.000000000               0.000000000               0.000000000               0.000000000               0.000000000               0.000000000               0.000000000               0.000000000               0.000000000               0.000000000               0.000000000               0.000000000               0.000000000               0.000000000               0.000000000               0.000000000               0.000000000               0.000000000               0.000000000               0.000000000               0.000000000               0.000000000               0.000000000               0.000000000               0.000000000               0.000000000               0.000000000               0.000000000               0.000000000               0.000000000               0.000000000               0.000000000               0.000000000               0.000000000               0.000000000               0.000000000               0.000000000               0.000000000               0.000000000               0.000000000               0.000000000               0.000000000               0.000000000               0.000000000               0.000000000               0.000000000               0.000000000               0.000000000               0.000000000               0.000000000               0.000000000               0.000000000               0.000000000               0.000000000               0.000000000               0.000000000               0.000000000               0.000000000               0.000000000               0.000000000               0.000000000               0.000000000               0.000000000               0.000000000               0.000000000               0.000000000               0.000000000               0.000000000               0.000000000               0.000000000               0.000000000               0.000000000               0.000000000               0.000000000               0.000000000               0.000000000               0.000000000               0.000000000               0.000000000               0.000000000               0.000000000               0.000000000               0.000000000               0.000000000               0.000000000               0.000000000               0.000000000               0.000000000               0.000000000               0.000000000               0.000000000               0.000000000               0.000000000               0.000000000               0.000000000               0.000000000               0.000000000               0.000000000               0.000000000               0.000000000               0.000000000               0.000000000               0.000000000               0.000000000               0.000000000               0.000000000               0.000000000               0.000000000               0.000000000               0.000000000               0.000000000               0.000000000               0.000000000               0.000000000               0.000000000               0.000000000               0.000000000               0.000000000               0.000000000               0.000000000               0.000000000               0.000000000               0.000000000               0.000000000               0.000000000               0.000000000               0.000000000               0.000000000               0.000000000               0.000000000               0.000000000               0.000000000               0.000000000               0.000000000               0.000000000               0.000000000               0.000000000               0.000000000               0.000000000               0.000000000               0.000000000               0.000000000               0.000000000               0.000000000               0.000000000               0.000000000               0.000000000               0.000000000               0.000000000               0.000000000               0.000000000               0.000000000               0.000000000               0.000000000               0.000000000               0.000000000               0.000000000               0.000000000               0.000000000               0.000000000               0.000000000               0.000000000               0.000000000               0.000000000               0.000000000               0.000000000               0.000000000               0.000000000               0.000000000               0.000000000               0.000000000               0.000000000               0.000000000               0.000000000               0.000000000               0.000000000               0.000000000               0.000000000               0.000000000               0.000000000               0.000000000               0.002239487               0.022493117               0.001498004              -0.001971828               0.008154907               0.006183079               0.000000000               0.000000000               0.000000000               0.000000000               0.002010073               0.017239363               0.000642602              -0.001401139               0.006213443               0.004812304               0.000000000               0.000000000               0.000000000               0.000000000               0.002468796               0.013024463              -0.000197181              -0.000702258               0.004575530               0.003873273               0.000000000               0.000000000               0.000000000               0.000000000               0.002220920               0.010638323              -0.000532918              -0.000496944               0.003711720               0.003214776               0.000000000               0.000000000               0.000000000               0.000000000               0.001799734               0.009106709              -0.000653548              -0.000463437               0.003190018               0.002726581               0.000000000               0.000000000               0.000000000               0.000000000               0.001373966               0.008012026              -0.000682802              -0.000486265               0.002832737               0.002346472               0.000000000               0.000000000               0.000000000               0.000000000               0.000994245               0.007153700              -0.000673178              -0.000521370               0.002558333               0.002036963               0.000000000               0.000000000               0.000000000               0.000000000               0.000681289               0.006425552              -0.000641885              -0.000547710               0.002324399               0.001776690               0.000000000               0.000000000               0.000000000               0.000000000               0.000432533               0.005765715              -0.000602829              -0.000558513               0.002108057               0.001549543               0.000000000               0.000000000               0.000000000               0.000000000               0.000235045               0.005140150              -0.000568417              -0.000554376               0.001898158               0.001343782               0.000000000               0.000000000               0.000000000               0.000000000               0.000078789               0.004531996              -0.000536100              -0.000536952               0.001689634               0.001152682               0.000000000               0.000000000               0.000000000               0.000000000              -0.000038558               0.003920874              -0.000498983              -0.000504567               0.001475134               0.000970567               0.000000000               0.000000000               0.000000000               0.000000000              -0.000114084               0.003292374              -0.000447684              -0.000454327               0.001248889               0.000794562               0.000000000               0.000000000               0.000000000               0.000000000              -0.000146484               0.002625489              -0.000375138              -0.000383117               0.001002860               0.000619743               0.000000000               0.000000000               0.000000000               0.000000000              -0.000135776               0.001902399              -0.000282377              -0.000288715               0.000730365               0.000441650               0.000000000               0.000000000               0.000000000               0.000000000              -0.000080870               0.001111750              -0.000159261              -0.000169295               0.000427011               0.000257716               0.000000000               0.000000000               0.000000000               0.000000000              -0.000103982               0.000524893              -0.000099335              -0.000104605               0.000209831               0.000105226               0.000000000               0.000000000               0.000000000               0.000000000               0.002358969               0.021055182               0.002755995              -0.001747281               0.007600750               0.005853469               0.000000000               0.000000000               0.000000000               0.000000000               0.001774997               0.016346965               0.001169954              -0.001377744               0.005908182               0.004530438               0.000000000               0.000000000               0.000000000               0.000000000               0.001854044               0.012695207              -0.000367179              -0.000891632               0.004528904               0.003637272               0.000000000               0.000000000               0.000000000               0.000000000               0.001474125               0.010592311              -0.000955055              -0.000771240               0.003787815               0.003016575               0.000000000               0.000000000               0.000000000               0.000000000               0.001040778               0.009201714              -0.001154711              -0.000759921               0.003320514               0.002560593               0.000000000               0.000000000               0.000000000               0.000000000               0.000664363               0.008175935              -0.001193345              -0.000772854               0.002982902               0.002210048               0.000000000               0.000000000               0.000000000               0.000000000               0.000361241               0.007344697              -0.001165383              -0.000782620               0.002709081               0.001926461               0.000000000               0.000000000               0.000000000               0.000000000               0.000130232               0.006623543              -0.001105918              -0.000779105               0.002467527               0.001688422               0.000000000               0.000000000               0.000000000               0.000000000              -0.000036331               0.005968287              -0.001036476              -0.000759658               0.002242628               0.001482970               0.000000000               0.000000000               0.000000000               0.000000000              -0.000151270               0.005352442              -0.000974691              -0.000725780               0.002026056               0.001300276               0.000000000               0.000000000               0.000000000               0.000000000              -0.000226302               0.004755885              -0.000913826              -0.000679348               0.001811728               0.001132381               0.000000000               0.000000000               0.000000000               0.000000000              -0.000262616               0.004164750              -0.000844157              -0.000619073               0.001594594               0.000975520               0.000000000               0.000000000               0.000000000               0.000000000              -0.000263407               0.003571653              -0.000754402              -0.000545233               0.001372283               0.000827050               0.000000000               0.000000000               0.000000000               0.000000000              -0.000233953               0.002973681              -0.000628493              -0.000459442               0.001144364               0.000684923               0.000000000               0.000000000               0.000000000               0.000000000              -0.000177732               0.002368674              -0.000465078              -0.000362733               0.000910461               0.000547728               0.000000000               0.000000000               0.000000000               0.000000000              -0.000097339               0.001762283              -0.000257521              -0.000256787               0.000673018               0.000416231               0.000000000               0.000000000               0.000000000               0.000000000              -0.000094142               0.001345475              -0.000156558              -0.000203487               0.000516316               0.000312829               0.000000000               0.000000000               0.000000000               0.000000000               0.002426060               0.018856909               0.003599546              -0.001447339               0.006768019               0.005320680               0.000000000               0.000000000               0.000000000               0.000000000               0.001349561               0.015004834               0.001518814              -0.001369516               0.005458067               0.004088551               0.000000000               0.000000000               0.000000000               0.000000000               0.000907075               0.012197941              -0.000462537              -0.001184587               0.004460802               0.003276215               0.000000000               0.000000000               0.000000000               0.000000000               0.000390355               0.010492499              -0.001172486              -0.001165177               0.003885857               0.002720680               0.000000000               0.000000000               0.000000000               0.000000000              -0.000017658               0.009294678              -0.001392860              -0.001168454               0.003487680               0.002319226               0.000000000               0.000000000               0.000000000               0.000000000              -0.000301166               0.008357474              -0.001421356              -0.001157619               0.003171670               0.002014050               0.000000000               0.000000000               0.000000000               0.000000000              -0.000481934               0.007565488              -0.001375248              -0.001126409               0.002897273               0.001770864               0.000000000               0.000000000               0.000000000               0.000000000              -0.000584436               0.006861814              -0.001295749              -0.001076888               0.002646211               0.001569323               0.000000000               0.000000000               0.000000000               0.000000000              -0.000625641               0.006215405              -0.001208994              -0.001011539               0.002408960               0.001397422               0.000000000               0.000000000               0.000000000               0.000000000              -0.000621604               0.005608762              -0.001130007              -0.000934195               0.002180967               0.001246772               0.000000000               0.000000000               0.000000000               0.000000000              -0.000582258               0.005027781              -0.001050467              -0.000846818               0.001958183               0.001111365               0.000000000               0.000000000               0.000000000               0.000000000              -0.000511243               0.004469796              -0.000957391              -0.000750439               0.001740063               0.000989624               0.000000000               0.000000000               0.000000000               0.000000000              -0.000417828               0.003933654              -0.000841878              -0.000648391               0.001527335               0.000878944               0.000000000               0.000000000               0.000000000               0.000000000              -0.000313360               0.003432931              -0.000689061              -0.000546625               0.001326507               0.000779882               0.000000000               0.000000000               0.000000000               0.000000000              -0.000205287               0.002983570              -0.000496989              -0.000449928               0.001144489               0.000694561               0.000000000               0.000000000               0.000000000               0.000000000              -0.000100276               0.002606239              -0.000267240              -0.000363383               0.000989865               0.000626483               0.000000000               0.000000000               0.000000000               0.000000000              -0.000067114               0.002393483              -0.000150808              -0.000324352               0.000905937               0.000581585               0.000000000               0.000000000               0.000000000               0.000000000               0.002295175               0.016181058               0.003952914              -0.001161942               0.005780945               0.004619004               0.000000000               0.000000000               0.000000000               0.000000000               0.000723035               0.013404755               0.001680459              -0.001404454               0.004936358               0.003531904               0.000000000               0.000000000               0.000000000               0.000000000              -0.000245197               0.011594273              -0.000444347              -0.001541229               0.004378462               0.002837233               0.000000000               0.000000000               0.000000000               0.000000000              -0.000835468               0.010318976              -0.001147517              -0.001603169               0.003974014               0.002370845               0.000000000               0.000000000               0.000000000               0.000000000              -0.001149292               0.009317555              -0.001341905              -0.001595675               0.003637712               0.002042037               0.000000000               0.000000000               0.000000000               0.000000000              -0.001285636               0.008470483              -0.001350388              -0.001540921               0.003337106               0.001796186               0.000000000               0.000000000               0.000000000               0.000000000              -0.001309337               0.007720558              -0.001291936              -0.001456068               0.003058849               0.001602782               0.000000000               0.000000000               0.000000000               0.000000000              -0.001256986               0.007036167              -0.001207288              -0.001350888               0.002795661               0.001444774               0.000000000               0.000000000               0.000000000               0.000000000              -0.001152082               0.006404685              -0.001116051              -0.001232614               0.002545745               0.001313131               0.000000000               0.000000000               0.000000000               0.000000000              -0.001014214               0.005815109              -0.001030093              -0.001107216               0.002307422               0.001200206               0.000000000               0.000000000               0.000000000               0.000000000              -0.000851939               0.005262606              -0.000942216              -0.000977301               0.002079951               0.001102651               0.000000000               0.000000000               0.000000000               0.000000000              -0.000673274               0.004752202              -0.000838043              -0.000846501               0.001866219               0.001019717               0.000000000               0.000000000               0.000000000               0.000000000              -0.000492840               0.004292392              -0.000713659              -0.000721362               0.001671237               0.000949875               0.000000000               0.000000000               0.000000000               0.000000000              -0.000328768               0.003901313              -0.000563058              -0.000610951               0.001504075               0.000893124               0.000000000               0.000000000               0.000000000               0.000000000              -0.000187915               0.003605541              -0.000384399              -0.000521160               0.001375555               0.000854395               0.000000000               0.000000000               0.000000000               0.000000000              -0.000082962               0.003422734              -0.000193086              -0.000458951               0.001293884               0.000834932               0.000000000               0.000000000               0.000000000               0.000000000              -0.000039230               0.003363736              -0.000096457              -0.000435177               0.001266293               0.000831116               0.000000000               0.000000000               0.000000000               0.000000000               0.001849704               0.013321383               0.003832372              -0.000971535               0.004764260               0.003792726               0.000000000               0.000000000               0.000000000               0.000000000              -0.000093791               0.011726070               0.001684646              -0.001500928               0.004408960               0.002908032               0.000000000               0.000000000               0.000000000               0.000000000              -0.001466972               0.010930456              -0.000292283              -0.001916417               0.004282255               0.002365838               0.000000000               0.000000000               0.000000000               0.000000000              -0.002011128               0.010051909              -0.000892370              -0.002010657               0.004020822               0.002010165               0.000000000               0.000000000               0.000000000               0.000000000              -0.002153867               0.009219692              -0.001042481              -0.001960157               0.003726585               0.001766429               0.000000000               0.000000000               0.000000000               0.000000000              -0.002099622               0.008453853              -0.001038580              -0.001844085               0.003432618               0.001588532               0.000000000               0.000000000               0.000000000               0.000000000              -0.001944573               0.007745771              -0.000981926              -0.001697432               0.003147708               0.001450276               0.000000000               0.000000000               0.000000000               0.000000000              -0.001732196               0.007087933              -0.000906524              -0.001535561               0.002874474               0.001338913               0.000000000               0.000000000               0.000000000               0.000000000              -0.001484990               0.006483684              -0.000825391              -0.001367328               0.002616982               0.001249654               0.000000000               0.000000000               0.000000000               0.000000000              -0.001222383               0.005928590              -0.000745542              -0.001199464               0.002375998               0.001176534               0.000000000               0.000000000               0.000000000               0.000000000              -0.000954845               0.005422080              -0.000662384              -0.001035824               0.002152617               0.001116792               0.000000000               0.000000000               0.000000000               0.000000000              -0.000699358               0.004971991              -0.000565517              -0.000883756               0.001951899               0.001068143               0.000000000               0.000000000               0.000000000               0.000000000              -0.000467232               0.004593415              -0.000454580              -0.000749387               0.001780919               0.001031532               0.000000000               0.000000000               0.000000000               0.000000000              -0.000274598               0.004307643              -0.000335321              -0.000641428               0.001649676               0.001008248               0.000000000               0.000000000               0.000000000               0.000000000              -0.000133714               0.004127286              -0.000210377              -0.000566052               0.001564432               0.000998380               0.000000000               0.000000000               0.000000000               0.000000000              -0.000047997               0.004052222              -0.000095121              -0.000524525               0.001525569               0.001001044               0.000000000               0.000000000               0.000000000               0.000000000              -0.000015082               0.004048588              -0.000041044              -0.000511728               0.001520092               0.001008364               0.000000000               0.000000000               0.000000000               0.000000000               0.001035345               0.010518232               0.003329964              -0.000926525               0.003814883               0.002888358               0.000000000               0.000000000               0.000000000               0.000000000              -0.001047124               0.010097897               0.001590254              -0.001654906               0.003917567               0.002262661               0.000000000               0.000000000               0.000000000               0.000000000              -0.002621624               0.010227320              -0.000003015              -0.002261518               0.004162912               0.001901394               0.000000000               0.000000000               0.000000000               0.000000000              -0.002992416               0.009678359              -0.000457086              -0.002331945               0.004003403               0.001671457               0.000000000               0.000000000               0.000000000               0.000000000              -0.002902666               0.008985937              -0.000577252              -0.002211736               0.003732528               0.001520791               0.000000000               0.000000000               0.000000000               0.000000000              -0.002639062               0.008290776              -0.000584096              -0.002025990               0.003438894               0.001412904               0.000000000               0.000000000               0.000000000               0.000000000              -0.002307588               0.007626534              -0.000550410              -0.001818658               0.003148372               0.001329714               0.000000000               0.000000000               0.000000000               0.000000000              -0.001946078               0.007011011              -0.000501839              -0.001606152               0.002872364               0.001266212               0.000000000               0.000000000               0.000000000               0.000000000              -0.001576251               0.006451696              -0.000444551              -0.001397553               0.002616395               0.001218842               0.000000000               0.000000000               0.000000000               0.000000000              -0.001215569               0.005941707              -0.000384697              -0.001198549               0.002380065               0.001181517               0.000000000               0.000000000               0.000000000               0.000000000              -0.000876703               0.005489993              -0.000323196              -0.001015010               0.002168316               0.001153306               0.000000000               0.000000000               0.000000000               0.000000000              -0.000586216               0.005104893              -0.000253879              -0.000857940               0.001987594               0.001129654               0.000000000               0.000000000               0.000000000               0.000000000              -0.000354103               0.004806881              -0.000184938              -0.000733647               0.001846827               0.001113180               0.000000000               0.000000000               0.000000000               0.000000000              -0.000182134               0.004607304              -0.000123167              -0.000644212               0.001750490               0.001106278               0.000000000               0.000000000               0.000000000               0.000000000              -0.000074182               0.004497656              -0.000067137              -0.000590024               0.001695878               0.001105855               0.000000000               0.000000000               0.000000000               0.000000000              -0.000020742               0.004457056              -0.000024929              -0.000564909               0.001673974               0.001109065               0.000000000               0.000000000               0.000000000               0.000000000              -0.000009515               0.004451502              -0.000009197              -0.000560004               0.001670487               0.001110483               0.000000000               0.000000000               0.000000000               0.000000000              -0.000109104               0.007948839               0.002564565              -0.001034518               0.002994425               0.001959907               0.000000000               0.000000000               0.000000000               0.000000000              -0.002079038               0.008619820               0.001453808              -0.001857113               0.003492282               0.001635169               0.000000000               0.000000000               0.000000000               0.000000000              -0.003590104               0.009492071               0.000404732              -0.002532792               0.004008256               0.001475464               0.000000000               0.000000000               0.000000000               0.000000000              -0.003684391               0.009194402               0.000078061              -0.002530940               0.003908417               0.001377476               0.000000000               0.000000000               0.000000000               0.000000000              -0.003344593               0.008624545              -0.000045309              -0.002332285               0.003652248               0.001319963               0.000000000               0.000000000               0.000000000               0.000000000              -0.002881657               0.007999624              -0.000089692              -0.002080569               0.003360038               0.001279468               0.000000000               0.000000000               0.000000000               0.000000000              -0.002393262               0.007394742              -0.000098171              -0.001821811               0.003072160               0.001250348               0.000000000               0.000000000               0.000000000               0.000000000              -0.001907118               0.006837762              -0.000088283              -0.001569886               0.002802526               0.001232641               0.000000000               0.000000000               0.000000000               0.000000000              -0.001446641               0.006326086              -0.000065981              -0.001333248               0.002553090               0.001219842               0.000000000               0.000000000               0.000000000               0.000000000              -0.001025974               0.005864018              -0.000040660              -0.001117740               0.002327233               0.001209493               0.000000000               0.000000000               0.000000000               0.000000000              -0.000661289               0.005468337              -0.000020261              -0.000931523               0.002133268               0.001201745               0.000000000               0.000000000               0.000000000               0.000000000              -0.000376319               0.005153717              -0.000002690              -0.000785332               0.001979666               0.001194334               0.000000000               0.000000000               0.000000000               0.000000000              -0.000180489               0.004931228               0.000005915              -0.000684085               0.001871754               0.001187669               0.000000000               0.000000000               0.000000000               0.000000000              -0.000066400               0.004795090               0.000003639              -0.000624285               0.001806442               0.001182158               0.000000000               0.000000000               0.000000000               0.000000000              -0.000011101               0.004733560              -0.000001516              -0.000595856               0.001776456               0.001180600               0.000000000               0.000000000               0.000000000               0.000000000               0.000004301               0.004721492              -0.000003558              -0.000588572               0.001770006               0.001181433               0.000000000               0.000000000               0.000000000               0.000000000              -0.000000784               0.004726801              -0.000003819              -0.000591143               0.001772632               0.001181489               0.000000000               0.000000000               0.000000000               0.000000000              -0.001438803               0.005805498               0.001657316              -0.001265236               0.002356892               0.001091656               0.000000000               0.000000000               0.000000000               0.000000000              -0.003082885               0.007304283               0.001312194              -0.002069112               0.003124441               0.001055328               0.000000000               0.000000000               0.000000000               0.000000000              -0.004346425               0.008742777               0.000890219              -0.002722750               0.003821813               0.001099063               0.000000000               0.000000000               0.000000000               0.000000000              -0.004152627               0.008703818               0.000639273              -0.002645206               0.003782979               0.001137773               0.000000000               0.000000000               0.000000000               0.000000000              -0.003604914               0.008278515               0.000484826              -0.002386651               0.003555028               0.001168377               0.000000000               0.000000000               0.000000000               0.000000000              -0.002986721               0.007750404               0.000386850              -0.002088816               0.003279714               0.001190898               0.000000000               0.000000000               0.000000000               0.000000000              -0.002376517               0.007223862               0.000323950              -0.001794172               0.003005987               0.001211815               0.000000000               0.000000000               0.000000000               0.000000000              -0.001797546               0.006727904               0.000287910              -0.001515064               0.002747634               0.001232570               0.000000000               0.000000000               0.000000000               0.000000000              -0.001269172               0.006260193               0.000265718              -0.001258461               0.002506197               0.001247737               0.000000000               0.000000000               0.000000000               0.000000000              -0.000808856               0.005838967               0.000244599              -0.001033189               0.002290699               0.001257510               0.000000000               0.000000000               0.000000000               0.000000000              -0.000429310               0.005488190               0.000213608              -0.000847013               0.002111716               0.001264703               0.000000000               0.000000000               0.000000000               0.000000000              -0.000157216               0.005215790               0.000173198              -0.000710928               0.001975555               0.001264627               0.000000000               0.000000000               0.000000000               0.000000000               0.000002013               0.005029482               0.000124835              -0.000627929               0.001885787               0.001257858               0.000000000               0.000000000               0.000000000               0.000000000               0.000068917               0.004927665               0.000068135              -0.000590113               0.001839243               0.001249130               0.000000000               0.000000000               0.000000000               0.000000000               0.000074846               0.004889655               0.000017562              -0.000583138               0.001824248               0.001241110               0.000000000               0.000000000               0.000000000               0.000000000               0.000050022               0.004890665              -0.000009440              -0.000592574               0.001827730               0.001235156               0.000000000               0.000000000               0.000000000               0.000000000               0.000031121               0.004902685              -0.000015142              -0.000601164               0.001834600               0.001233436               0.000000000               0.000000000               0.000000000               0.000000000              -0.002960649               0.003845400               0.000722209              -0.001590915               0.001812092               0.000221177               0.000000000               0.000000000               0.000000000               0.000000000              -0.003934557               0.005779454               0.001159194              -0.002197886               0.002659094               0.000461208               0.000000000               0.000000000               0.000000000               0.000000000              -0.004816382               0.007622515               0.001392514              -0.002758951               0.003460463               0.000701512               0.000000000               0.000000000               0.000000000               0.000000000              -0.004472525               0.007970322               0.001228100              -0.002673481               0.003547908               0.000874427               0.000000000               0.000000000               0.000000000               0.000000000              -0.003834314               0.007816833               0.001040632              -0.002414966               0.003410573               0.000995607               0.000000000               0.000000000               0.000000000               0.000000000              -0.003155399               0.007494616               0.000883413              -0.002120096               0.003204879               0.001084783               0.000000000               0.000000000               0.000000000               0.000000000              -0.002499733               0.007126576               0.000763136              -0.001828217               0.002984907               0.001156690               0.000000000               0.000000000               0.000000000               0.000000000              -0.001887925               0.006754641               0.000672416              -0.001552298               0.002768957               0.001216659               0.000000000               0.000000000               0.000000000               0.000000000              -0.001331645               0.006379344               0.000596947              -0.001296782               0.002558687               0.001261906               0.000000000               0.000000000               0.000000000               0.000000000              -0.000845345               0.006013477               0.000526611              -0.001068686               0.002360701               0.001292015               0.000000000               0.000000000               0.000000000               0.000000000              -0.000440933               0.005679551               0.000450222              -0.000875292               0.002184928               0.001309637               0.000000000               0.000000000               0.000000000               0.000000000              -0.000130200               0.005393620               0.000364131              -0.000723026               0.002038864               0.001315838               0.000000000               0.000000000               0.000000000               0.000000000               0.000073445               0.005174364               0.000266812              -0.000619252               0.001931188               0.001311936               0.000000000               0.000000000               0.000000000               0.000000000               0.000175678               0.005037113               0.000164318              -0.000563759               0.001866940               0.001303182               0.000000000               0.000000000               0.000000000               0.000000000               0.000195786               0.004971643               0.000074717              -0.000548034               0.001839876               0.001291842               0.000000000               0.000000000               0.000000000               0.000000000               0.000166268               0.004964296               0.000017544              -0.000558185               0.001840810               0.001282625               0.000000000               0.000000000               0.000000000               0.000000000               0.000131959               0.004966927              -0.000005544              -0.000571380               0.001846086               0.001274706               0.000000000               0.000000000               0.000000000               0.000000000              -0.004874893               0.002091767              -0.000166997              -0.002089552               0.001393764              -0.000695789               0.000000000               0.000000000               0.000000000               0.000000000              -0.004903438               0.004247998               0.000947570              -0.002369784               0.002205912              -0.000163872               0.000000000               0.000000000               0.000000000               0.000000000              -0.005218540               0.006294160               0.001795067              -0.002743716               0.003012604               0.000268888               0.000000000               0.000000000               0.000000000               0.000000000              -0.004741148               0.007002219               0.001788422              -0.002653202               0.003218450               0.000565248               0.000000000               0.000000000               0.000000000               0.000000000              -0.004055024               0.007162000               0.001603105              -0.002415878               0.003192602               0.000776724               0.000000000               0.000000000               0.000000000               0.000000000              -0.003344707               0.007084093               0.001404176              -0.002139772               0.003074598               0.000934826               0.000000000               0.000000000               0.000000000               0.000000000              -0.002668375               0.006905935               0.001230936              -0.001863878               0.002923248               0.001059370               0.000000000               0.000000000               0.000000000               0.000000000              -0.002038594               0.006687106               0.001086524              -0.001600357               0.002762465               0.001162108               0.000000000               0.000000000               0.000000000               0.000000000              -0.001460292               0.006436160               0.000961875              -0.001352126               0.002596074               0.001243947               0.000000000               0.000000000               0.000000000               0.000000000              -0.000938971               0.006158688               0.000847669              -0.001121947               0.002426858               0.001304910               0.000000000               0.000000000               0.000000000               0.000000000              -0.000483532               0.005873122               0.000735946              -0.000915463               0.002262842               0.001347379               0.000000000               0.000000000               0.000000000               0.000000000              -0.000105749               0.005591094               0.000618023              -0.000738541               0.002109860               0.001371319               0.000000000               0.000000000               0.000000000               0.000000000               0.000179650               0.005340270               0.000485193              -0.000600164               0.001980127               0.001379963               0.000000000               0.000000000               0.000000000               0.000000000               0.000367029               0.005152503               0.000342035              -0.000506426               0.001886292               0.001379867               0.000000000               0.000000000               0.000000000               0.000000000               0.000453030               0.005036927               0.000200938              -0.000459729               0.001832202               0.001372473               0.000000000               0.000000000               0.000000000               0.000000000               0.000443129               0.004995560               0.000084050              -0.000458270               0.001817927               0.001359656               0.000000000               0.000000000               0.000000000               0.000000000               0.000387233               0.004972539               0.000024617              -0.000476354               0.001816281               0.001339927               0.000000000               0.000000000               0.000000000               0.000000000              -0.007047636               0.000688771              -0.000925001              -0.002728957               0.001139235              -0.001589722               0.000000000               0.000000000               0.000000000               0.000000000              -0.006020223               0.002816176               0.000672567              -0.002609601               0.001808580              -0.000801021               0.000000000               0.000000000               0.000000000               0.000000000              -0.005562979               0.004783939               0.001998546              -0.002684104               0.002489330              -0.000194774               0.000000000               0.000000000               0.000000000               0.000000000              -0.004866820               0.005740785               0.002188582              -0.002542650               0.002761125               0.000218475               0.000000000               0.000000000               0.000000000               0.000000000              -0.004120352               0.006186560               0.002058381              -0.002318447               0.002834981               0.000516534               0.000000000               0.000000000               0.000000000               0.000000000              -0.003391152               0.006363142               0.001853044              -0.002067070               0.002810049               0.000742979               0.000000000               0.000000000               0.000000000               0.000000000              -0.002710000               0.006396018               0.001651278              -0.001815748               0.002737234               0.000921486               0.000000000               0.000000000               0.000000000               0.000000000              -0.002076189               0.006353282               0.001471999              -0.001572728               0.002641982               0.001069254               0.000000000               0.000000000               0.000000000               0.000000000              -0.001484802               0.006256807               0.001312242              -0.001338899               0.002531881               0.001192982               0.000000000               0.000000000               0.000000000               0.000000000              -0.000938671               0.006104206               0.001167324              -0.001115025               0.002406390               0.001291365               0.000000000               0.000000000               0.000000000               0.000000000              -0.000440753               0.005908441               0.001030591              -0.000903836               0.002270739               0.001366903               0.000000000               0.000000000               0.000000000               0.000000000              -0.000000592               0.005685076               0.000887548              -0.000710855               0.002131958               0.001421103               0.000000000               0.000000000               0.000000000               0.000000000               0.000368205               0.005461037               0.000728471              -0.000544551               0.002001844               0.001457293               0.000000000               0.000000000               0.000000000               0.000000000               0.000650784               0.005262578               0.000554024              -0.000413777               0.001892101               0.001478324               0.000000000               0.000000000               0.000000000               0.000000000               0.000835535               0.005115723               0.000367390              -0.000326139               0.001813937               0.001487798               0.000000000               0.000000000               0.000000000               0.000000000               0.000908580               0.005036116               0.000179343              -0.000288796               0.001774954               0.001486158               0.000000000               0.000000000               0.000000000               0.000000000               0.000888310               0.004997474               0.000079485              -0.000291567               0.001762997               0.001471430               0.000000000               0.000000000               0.000000000               0.000000000              -0.009327200              -0.000293033              -0.001431140              -0.003461068               0.001056004              -0.002405064               0.000000000               0.000000000               0.000000000               0.000000000              -0.007215998               0.001557995               0.000384555              -0.002900745               0.001486236              -0.001414509               0.000000000               0.000000000               0.000000000               0.000000000              -0.005872904               0.003221274               0.001970601              -0.002604994               0.001942075              -0.000662918               0.000000000               0.000000000               0.000000000               0.000000000              -0.004874656               0.004287969               0.002331709              -0.002363988               0.002217303              -0.000146684               0.000000000               0.000000000               0.000000000               0.000000000              -0.004034055               0.004953372               0.002288151              -0.002131938               0.002361753               0.000229815               0.000000000               0.000000000               0.000000000               0.000000000              -0.003287081               0.005367206               0.002113833              -0.001903552               0.002423567               0.000520015               0.000000000               0.000000000               0.000000000               0.000000000              -0.002602570               0.005615669               0.001915893              -0.001677919               0.002431177               0.000753258               0.000000000               0.000000000               0.000000000               0.000000000              -0.001973609               0.005754594               0.001730279              -0.001459425               0.002404653               0.000945229               0.000000000               0.000000000               0.000000000               0.000000000              -0.001376123               0.005822258               0.001560951              -0.001243826               0.002355341               0.001111516               0.000000000               0.000000000               0.000000000               0.000000000              -0.000811042               0.005820369               0.001404301              -0.001031685               0.002283998               0.001252314               0.000000000               0.000000000               0.000000000               0.000000000              -0.000281917               0.005752728               0.001257424              -0.000824808               0.002192493               0.001367684               0.000000000               0.000000000               0.000000000               0.000000000               0.000209910               0.005634580               0.001105392              -0.000625605               0.002086710               0.001461104               0.000000000               0.000000000               0.000000000               0.000000000               0.000661189               0.005484234               0.000934809              -0.000437583               0.001973920               0.001536338               0.000000000               0.000000000               0.000000000               0.000000000               0.001055861               0.005322979               0.000742275              -0.000269424               0.001864117               0.001594693               0.000000000               0.000000000               0.000000000               0.000000000               0.001375265               0.005178246               0.000524776              -0.000131556               0.001769917               0.001638361               0.000000000               0.000000000               0.000000000               0.000000000               0.001597512               0.005074330               0.000278287              -0.000035225               0.001703168               0.001667943               0.000000000               0.000000000               0.000000000               0.000000000               0.001684765               0.005036680               0.000149184               0.000002201               0.001678143               0.001680344               0.000000000               0.000000000               0.000000000               0.000000000              -0.011491707              -0.000884559              -0.001582146              -0.004198817               0.001104745              -0.003094072               0.000000000               0.000000000               0.000000000               0.000000000              -0.008385518               0.000543355               0.000144455              -0.003212485               0.001251938              -0.001960547               0.000000000               0.000000000               0.000000000               0.000000000              -0.006156961               0.001760584               0.001709530              -0.002528930               0.001429828              -0.001099102               0.000000000               0.000000000               0.000000000               0.000000000              -0.004810191               0.002814126               0.002155418              -0.002155584               0.001656558              -0.000499026               0.000000000               0.000000000               0.000000000               0.000000000              -0.003843331               0.003621658               0.002188218              -0.001893953               0.001838524              -0.000055429               0.000000000               0.000000000               0.000000000               0.000000000              -0.003059324               0.004219954               0.002071241              -0.001674738               0.001964882               0.000290145               0.000000000               0.000000000               0.000000000               0.000000000              -0.002370178               0.004652204               0.001909056              -0.001470339               0.002040832               0.000570492               0.000000000               0.000000000               0.000000000               0.000000000              -0.001740961               0.004957902               0.001747790              -0.001272596               0.002076815               0.000804220               0.000000000               0.000000000               0.000000000               0.000000000              -0.001143720               0.005179209               0.001597339              -0.001076294               0.002085150               0.001008856               0.000000000               0.000000000               0.000000000               0.000000000              -0.000563813               0.005331603               0.001451831              -0.000877879               0.002069809               0.001191930               0.000000000               0.000000000               0.000000000               0.000000000              -0.000006081               0.005405985               0.001310959              -0.000678028               0.002027986               0.001349958               0.000000000               0.000000000               0.000000000               0.000000000               0.000529649               0.005409773               0.001168218              -0.000477603               0.001962440               0.001484837               0.000000000               0.000000000               0.000000000               0.000000000               0.001054030               0.005361742               0.001010700              -0.000274956               0.001878881               0.001603925               0.000000000               0.000000000               0.000000000               0.000000000               0.001563444               0.005278472               0.000826726              -0.000073518               0.001783979               0.001710461               0.000000000               0.000000000               0.000000000               0.000000000               0.002041079               0.005178239               0.000606649               0.000118123               0.001686688               0.001804811               0.000000000               0.000000000               0.000000000               0.000000000               0.002463142               0.005085110               0.000331774               0.000288037               0.001599008               0.001887044               0.000000000               0.000000000               0.000000000               0.000000000               0.002714678               0.005067090               0.000190341               0.000384614               0.001560809               0.001945423               0.000000000               0.000000000               0.000000000               0.000000000              -0.013286883              -0.001177154              -0.001345687              -0.004835434               0.001219418              -0.003616016               0.000000000               0.000000000               0.000000000               0.000000000              -0.009384047              -0.000185923              -0.000001024              -0.003495775               0.001103276              -0.002392498               0.000000000               0.000000000               0.000000000               0.000000000              -0.006397249               0.000574487               0.001250429              -0.002470777               0.001015081              -0.001455696               0.000000000               0.000000000               0.000000000               0.000000000              -0.004718137               0.001538254               0.001656713              -0.001961581               0.001166603              -0.000794978               0.000000000               0.000000000               0.000000000               0.000000000              -0.003613118               0.002407121               0.001725831              -0.001655806               0.001354299              -0.000301507               0.000000000               0.000000000               0.000000000               0.000000000              -0.002775462               0.003124724               0.001662910              -0.001431386               0.001518692               0.000087306               0.000000000               0.000000000               0.000000000               0.000000000              -0.002072967               0.003692294               0.001553560              -0.001238897               0.001643717               0.000404821               0.000000000               0.000000000               0.000000000               0.000000000              -0.001442489               0.004131968               0.001437486              -0.001057427               0.001729784               0.000672357               0.000000000               0.000000000               0.000000000               0.000000000              -0.000849198               0.004477451               0.001329003              -0.000878129               0.001785178               0.000907049               0.000000000               0.000000000               0.000000000               0.000000000              -0.000267523               0.004749351               0.001221306              -0.000693989               0.001814431               0.001120442               0.000000000               0.000000000               0.000000000               0.000000000               0.000309131               0.004945982               0.001111130              -0.000502323               0.001816085               0.001313762               0.000000000               0.000000000               0.000000000               0.000000000               0.000884652               0.005071350               0.001000247              -0.000302174               0.001791158               0.001488984               0.000000000               0.000000000               0.000000000               0.000000000               0.001469631               0.005136677               0.000882027              -0.000090973               0.001742533               0.001651560               0.000000000               0.000000000               0.000000000               0.000000000               0.002075512               0.005151938               0.000739012               0.000134323               0.001672521               0.001806844               0.000000000               0.000000000               0.000000000               0.000000000               0.002697793               0.005128875               0.000553733               0.000370559               0.001586088               0.001956647               0.000000000               0.000000000               0.000000000               0.000000000               0.003331602               0.005075330               0.000307561               0.000614928               0.001486784               0.002101712               0.000000000               0.000000000               0.000000000               0.000000000               0.003774796               0.005087348               0.000184188               0.000779622               0.001435892               0.002215514               0.000000000               0.000000000               0.000000000               0.000000000              -0.014479913              -0.001283161              -0.000772839              -0.005269569               0.001328794              -0.003940775               0.000000000               0.000000000               0.000000000               0.000000000              -0.010065079              -0.000616014              -0.000037070              -0.003697400               0.001027122              -0.002670279               0.000000000               0.000000000               0.000000000               0.000000000              -0.006566402              -0.000194187               0.000658140              -0.002438126               0.000747974              -0.001690151               0.000000000               0.000000000               0.000000000               0.000000000              -0.004643217               0.000671872               0.000899448              -0.001825188               0.000832347              -0.000992841               0.000000000               0.000000000               0.000000000               0.000000000              -0.003425429               0.001549060               0.000951976              -0.001478166               0.001009068              -0.000469098               0.000000000               0.000000000               0.000000000               0.000000000              -0.002540143               0.002327042               0.000926804              -0.001243431               0.001190149              -0.000053282               0.000000000               0.000000000               0.000000000               0.000000000              -0.001820605               0.002976690               0.000871972              -0.001054811               0.001343824               0.000289013               0.000000000               0.000000000               0.000000000               0.000000000              -0.001185745               0.003503944               0.000812057              -0.000882645               0.001462184               0.000579539               0.000000000               0.000000000               0.000000000               0.000000000              -0.000594079               0.003933414               0.000756529              -0.000714455               0.001549276               0.000834821               0.000000000               0.000000000               0.000000000               0.000000000              -0.000018528               0.004284692               0.000700110              -0.000542533               0.001609061               0.001066527               0.000000000               0.000000000               0.000000000               0.000000000               0.000562760               0.004568733               0.000641553              -0.000360056               0.001642914               0.001282858               0.000000000               0.000000000               0.000000000               0.000000000               0.001161652               0.004785306               0.000582839              -0.000162544               0.001649267               0.001486723               0.000000000               0.000000000               0.000000000               0.000000000               0.001787275               0.004938227               0.000523843               0.000052949               0.001628409               0.001681358               0.000000000               0.000000000               0.000000000               0.000000000               0.002453433               0.005030431               0.000447689               0.000291231               0.001579717               0.001870947               0.000000000               0.000000000               0.000000000               0.000000000               0.003179105               0.005066243               0.000339803               0.000558878               0.001502438               0.002061316               0.000000000               0.000000000               0.000000000               0.000000000               0.003985672               0.005049226               0.000192460               0.000863465               0.001395237               0.002258702               0.000000000               0.000000000               0.000000000               0.000000000               0.004593397               0.005091502               0.000119920               0.001086075               0.001335125               0.002421201               0.000000000               0.000000000               0.000000000               0.000000000               0.000000000               0.000000000               0.000000000               0.000000000               0.000000000               0.000000000               0.000000000               0.000000000               0.000000000               0.000000000               0.000000000               0.000000000               0.000000000               0.000000000               0.000000000               0.000000000               0.000000000               0.000000000               0.000000000               0.000000000               0.000000000               0.000000000               0.000000000               0.000000000               0.000000000               0.000000000               0.000000000               0.000000000               0.000000000               0.000000000               0.000000000               0.000000000               0.000000000               0.000000000               0.000000000               0.000000000               0.000000000               0.000000000               0.000000000               0.000000000               0.000000000               0.000000000               0.000000000               0.000000000               0.000000000               0.000000000               0.000000000               0.000000000               0.000000000               0.000000000               0.000000000               0.000000000               0.000000000               0.000000000               0.000000000               0.000000000               0.000000000               0.000000000               0.000000000               0.000000000               0.000000000               0.000000000               0.000000000               0.000000000               0.000000000               0.000000000               0.000000000               0.000000000               0.000000000               0.000000000               0.000000000               0.000000000               0.000000000               0.000000000               0.000000000               0.000000000               0.000000000               0.000000000               0.000000000               0.000000000               0.000000000               0.000000000               0.000000000               0.000000000               0.000000000               0.000000000               0.000000000               0.000000000               0.000000000               0.000000000               0.000000000               0.000000000               0.000000000               0.000000000               0.000000000               0.000000000               0.000000000               0.000000000               0.000000000               0.000000000               0.000000000               0.000000000               0.000000000               0.000000000               0.000000000               0.000000000               0.000000000               0.000000000               0.000000000               0.000000000               0.000000000               0.000000000               0.000000000               0.000000000               0.000000000               0.000000000               0.000000000               0.000000000               0.000000000               0.000000000               0.000000000               0.000000000               0.000000000               0.000000000               0.000000000               0.000000000               0.000000000               0.000000000               0.000000000               0.000000000               0.000000000               0.000000000               0.000000000               0.000000000               0.000000000               0.000000000               0.000000000               0.000000000               0.000000000               0.000000000               0.000000000               0.000000000               0.000000000               0.000000000               0.000000000               0.000000000               0.000000000               0.000000000               0.000000000               0.000000000               0.000000000               0.000000000               0.000000000               0.000000000               0.000000000               0.000000000               0.000000000               0.000000000               0.000000000               0.000000000               0.000000000               0.000000000               0.000000000               0.000000000               0.000000000               0.000000000               0.000000000               0.000000000               0.000000000               0.000000000 </DataArray>
</PointData>
</Piece>
</UnstructuredGrid> </VTKFile>
