<?xml version="1.0"?>
<VTKFile type="UnstructuredGrid" version="0.1">
<UnstructuredGrid>
<Piece NumberOfPoints="      1156" NumberOfCells="      1024">
<Points>
<DataArray type="Float64"                                    Name="coordinates"                                                      NumberOfComponents=" 3" format="ascii">
              0.133000000               0.000000000               0.000000000               0.155937500               0.000000000               0.000000000               0.178875000               0.000000000               0.000000000               0.201812500               0.000000000               0.000000000               0.224750000               0.000000000               0.000000000               0.247687500               0.000000000               0.000000000               0.270625000               0.000000000               0.000000000               0.293562500               0.000000000               0.000000000               0.316500000               0.000000000               0.000000000               0.339437500               0.000000000               0.000000000               0.362375000               0.000000000               0.000000000               0.385312500               0.000000000               0.000000000               0.408250000               0.000000000               0.000000000               0.431187500               0.000000000               0.000000000               0.454125000               0.000000000               0.000000000               0.477062500               0.000000000               0.000000000               0.500000000               0.000000000               0.000000000               0.132359569               0.013036280               0.000000000               0.155337096               0.016127762               0.000000000               0.178314623               0.019219245               0.000000000               0.201292150               0.022310727               0.000000000               0.224269676               0.025402210               0.000000000               0.247247203               0.028493692               0.000000000               0.270224730               0.031585175               0.000000000               0.293202257               0.034676657               0.000000000               0.316179784               0.037768140               0.000000000               0.339157311               0.040859622               0.000000000               0.362134838               0.043951105               0.000000000               0.385112365               0.047042587               0.000000000               0.408089892               0.050134070               0.000000000               0.431067419               0.053225552               0.000000000               0.454044946               0.056317035               0.000000000               0.477022473               0.059408517               0.000000000               0.500000000               0.062500000               0.000000000               0.130444442               0.025947013               0.000000000               0.153541665               0.032137825               0.000000000               0.176638887               0.038328636               0.000000000               0.199736109               0.044519448               0.000000000               0.222833332               0.050710260               0.000000000               0.245930554               0.056901071               0.000000000               0.269027776               0.063091883               0.000000000               0.292124999               0.069282695               0.000000000               0.315222221               0.075473506               0.000000000               0.338319444               0.081664318               0.000000000               0.361416666               0.087855130               0.000000000               0.384513888               0.094045942               0.000000000               0.407611111               0.100236753               0.000000000               0.430708333               0.106427565               0.000000000               0.453805555               0.112618377               0.000000000               0.476902778               0.118809188               0.000000000               0.500000000               0.125000000               0.000000000               0.127273065               0.038607862               0.000000000               0.150568498               0.047913621               0.000000000               0.173863932               0.057219379               0.000000000               0.197159365               0.066525138               0.000000000               0.220454798               0.075830897               0.000000000               0.243750232               0.085136655               0.000000000               0.267045665               0.094442414               0.000000000               0.290341099               0.103748172               0.000000000               0.313636532               0.113053931               0.000000000               0.336931966               0.122359690               0.000000000               0.360227399               0.131665448               0.000000000               0.383522833               0.140971207               0.000000000               0.406818266               0.150276966               0.000000000               0.430113700               0.159582724               0.000000000               0.453409133               0.168888483               0.000000000               0.476704567               0.178194241               0.000000000               0.500000000               0.187500000               0.000000000               0.122875978               0.050896897               0.000000000               0.146446229               0.063340840               0.000000000               0.170016481               0.075784784               0.000000000               0.193586732               0.088228728               0.000000000               0.217156983               0.100672672               0.000000000               0.240727235               0.113116616               0.000000000               0.264297486               0.125560560               0.000000000               0.287867738               0.138004504               0.000000000               0.311437989               0.150448448               0.000000000               0.335008240               0.162892392               0.000000000               0.358578492               0.175336336               0.000000000               0.382148743               0.187780280               0.000000000               0.405718994               0.200224224               0.000000000               0.429289246               0.212668168               0.000000000               0.452859497               0.225112112               0.000000000               0.476429749               0.237556056               0.000000000               0.500000000               0.250000000               0.000000000               0.117295528               0.062695766               0.000000000               0.141214558               0.078308531               0.000000000               0.165133587               0.093921295               0.000000000               0.189052617               0.109534060               0.000000000               0.212971646               0.125146824               0.000000000               0.236890676               0.140759589               0.000000000               0.260809705               0.156372354               0.000000000               0.284728735               0.171985118               0.000000000               0.308647764               0.187597883               0.000000000               0.332566794               0.203210648               0.000000000               0.356485823               0.218823412               0.000000000               0.380404853               0.234436177               0.000000000               0.404323882               0.250048941               0.000000000               0.428242912               0.265661706               0.000000000               0.452161941               0.281274471               0.000000000               0.476080971               0.296887235               0.000000000               0.500000000               0.312500000               0.000000000               0.110585458               0.073890841               0.000000000               0.134923867               0.092710163               0.000000000               0.159262276               0.111529486               0.000000000               0.183600685               0.130348808               0.000000000               0.207939094               0.149168131               0.000000000               0.232277503               0.167987453               0.000000000               0.256615912               0.186806776               0.000000000               0.280954320               0.205626098               0.000000000               0.305292729               0.224445420               0.000000000               0.329631138               0.243264743               0.000000000               0.353969547               0.262084065               0.000000000               0.378307956               0.280903388               0.000000000               0.402646365               0.299722710               0.000000000               0.426984773               0.318542033               0.000000000               0.451323182               0.337361355               0.000000000               0.475661591               0.356180678               0.000000000               0.500000000               0.375000000               0.000000000               0.102810390               0.084374307               0.000000000               0.127634741               0.106444663               0.000000000               0.152459092               0.128515018               0.000000000               0.177283442               0.150585374               0.000000000               0.202107793               0.172655730               0.000000000               0.226932143               0.194726086               0.000000000               0.251756494               0.216796442               0.000000000               0.276580845               0.238866798               0.000000000               0.301405195               0.260937153               0.000000000               0.326229546               0.283007509               0.000000000               0.351053896               0.305077865               0.000000000               0.375878247               0.327148221               0.000000000               0.400702598               0.349218577               0.000000000               0.425526948               0.371288933               0.000000000               0.450351299               0.393359288               0.000000000               0.475175649               0.415429644               0.000000000               0.500000000               0.437500000               0.000000000               0.094045202               0.094045202               0.000000000               0.119417377               0.119417377               0.000000000               0.144789552               0.144789552               0.000000000               0.170161727               0.170161727               0.000000000               0.195533901               0.195533901               0.000000000               0.220906076               0.220906076               0.000000000               0.246278251               0.246278251               0.000000000               0.271650426               0.271650426               0.000000000               0.297022601               0.297022601               0.000000000               0.322394776               0.322394776               0.000000000               0.347766951               0.347766951               0.000000000               0.373139126               0.373139126               0.000000000               0.398511300               0.398511300               0.000000000               0.423883475               0.423883475               0.000000000               0.449255650               0.449255650               0.000000000               0.474627825               0.474627825               0.000000000               0.500000000               0.500000000               0.000000000               0.084374307               0.102810390               0.000000000               0.106444663               0.127634741               0.000000000               0.128515018               0.152459092               0.000000000               0.150585374               0.177283442               0.000000000               0.172655730               0.202107793               0.000000000               0.194726086               0.226932143               0.000000000               0.216796442               0.251756494               0.000000000               0.238866798               0.276580845               0.000000000               0.260937153               0.301405195               0.000000000               0.283007509               0.326229546               0.000000000               0.305077865               0.351053896               0.000000000               0.327148221               0.375878247               0.000000000               0.349218577               0.400702598               0.000000000               0.371288933               0.425526948               0.000000000               0.393359288               0.450351299               0.000000000               0.415429644               0.475175649               0.000000000               0.437500000               0.500000000               0.000000000               0.073890841               0.110585458               0.000000000               0.092710163               0.134923867               0.000000000               0.111529486               0.159262276               0.000000000               0.130348808               0.183600685               0.000000000               0.149168131               0.207939094               0.000000000               0.167987453               0.232277503               0.000000000               0.186806776               0.256615912               0.000000000               0.205626098               0.280954320               0.000000000               0.224445420               0.305292729               0.000000000               0.243264743               0.329631138               0.000000000               0.262084065               0.353969547               0.000000000               0.280903388               0.378307956               0.000000000               0.299722710               0.402646365               0.000000000               0.318542033               0.426984773               0.000000000               0.337361355               0.451323182               0.000000000               0.356180678               0.475661591               0.000000000               0.375000000               0.500000000               0.000000000               0.062695766               0.117295528               0.000000000               0.078308531               0.141214558               0.000000000               0.093921295               0.165133587               0.000000000               0.109534060               0.189052617               0.000000000               0.125146824               0.212971646               0.000000000               0.140759589               0.236890676               0.000000000               0.156372354               0.260809705               0.000000000               0.171985118               0.284728735               0.000000000               0.187597883               0.308647764               0.000000000               0.203210648               0.332566794               0.000000000               0.218823412               0.356485823               0.000000000               0.234436177               0.380404853               0.000000000               0.250048941               0.404323882               0.000000000               0.265661706               0.428242912               0.000000000               0.281274471               0.452161941               0.000000000               0.296887235               0.476080971               0.000000000               0.312500000               0.500000000               0.000000000               0.050896897               0.122875978               0.000000000               0.063340840               0.146446229               0.000000000               0.075784784               0.170016481               0.000000000               0.088228728               0.193586732               0.000000000               0.100672672               0.217156983               0.000000000               0.113116616               0.240727235               0.000000000               0.125560560               0.264297486               0.000000000               0.138004504               0.287867738               0.000000000               0.150448448               0.311437989               0.000000000               0.162892392               0.335008240               0.000000000               0.175336336               0.358578492               0.000000000               0.187780280               0.382148743               0.000000000               0.200224224               0.405718994               0.000000000               0.212668168               0.429289246               0.000000000               0.225112112               0.452859497               0.000000000               0.237556056               0.476429749               0.000000000               0.250000000               0.500000000               0.000000000               0.038607862               0.127273065               0.000000000               0.047913621               0.150568498               0.000000000               0.057219379               0.173863932               0.000000000               0.066525138               0.197159365               0.000000000               0.075830897               0.220454798               0.000000000               0.085136655               0.243750232               0.000000000               0.094442414               0.267045665               0.000000000               0.103748172               0.290341099               0.000000000               0.113053931               0.313636532               0.000000000               0.122359690               0.336931966               0.000000000               0.131665448               0.360227399               0.000000000               0.140971207               0.383522833               0.000000000               0.150276966               0.406818266               0.000000000               0.159582724               0.430113700               0.000000000               0.168888483               0.453409133               0.000000000               0.178194241               0.476704567               0.000000000               0.187500000               0.500000000               0.000000000               0.025947013               0.130444442               0.000000000               0.032137825               0.153541665               0.000000000               0.038328636               0.176638887               0.000000000               0.044519448               0.199736109               0.000000000               0.050710260               0.222833332               0.000000000               0.056901071               0.245930554               0.000000000               0.063091883               0.269027776               0.000000000               0.069282695               0.292124999               0.000000000               0.075473506               0.315222221               0.000000000               0.081664318               0.338319444               0.000000000               0.087855130               0.361416666               0.000000000               0.094045942               0.384513888               0.000000000               0.100236753               0.407611111               0.000000000               0.106427565               0.430708333               0.000000000               0.112618377               0.453805555               0.000000000               0.118809188               0.476902778               0.000000000               0.125000000               0.500000000               0.000000000               0.013036280               0.132359569               0.000000000               0.016127762               0.155337096               0.000000000               0.019219245               0.178314623               0.000000000               0.022310727               0.201292150               0.000000000               0.025402210               0.224269676               0.000000000               0.028493692               0.247247203               0.000000000               0.031585175               0.270224730               0.000000000               0.034676657               0.293202257               0.000000000               0.037768140               0.316179784               0.000000000               0.040859622               0.339157311               0.000000000               0.043951105               0.362134838               0.000000000               0.047042587               0.385112365               0.000000000               0.050134070               0.408089892               0.000000000               0.053225552               0.431067419               0.000000000               0.056317035               0.454044946               0.000000000               0.059408517               0.477022473               0.000000000               0.062500000               0.500000000               0.000000000               0.000000000               0.133000000               0.000000000               0.000000000               0.155937500               0.000000000               0.000000000               0.178875000               0.000000000               0.000000000               0.201812500               0.000000000               0.000000000               0.224750000               0.000000000               0.000000000               0.247687500               0.000000000               0.000000000               0.270625000               0.000000000               0.000000000               0.293562500               0.000000000               0.000000000               0.316500000               0.000000000               0.000000000               0.339437500               0.000000000               0.000000000               0.362375000               0.000000000               0.000000000               0.385312500               0.000000000               0.000000000               0.408250000               0.000000000               0.000000000               0.431187500               0.000000000               0.000000000               0.454125000               0.000000000               0.000000000               0.477062500               0.000000000               0.000000000               0.500000000               0.000000000               0.133000000               0.000000000               0.000000000               0.155937500               0.000000000               0.000000000               0.178875000               0.000000000               0.000000000               0.201812500               0.000000000               0.000000000               0.224750000               0.000000000               0.000000000               0.247687500               0.000000000               0.000000000               0.270625000               0.000000000               0.000000000               0.293562500               0.000000000               0.000000000               0.316500000               0.000000000               0.000000000               0.339437500               0.000000000               0.000000000               0.362375000               0.000000000               0.000000000               0.385312500               0.000000000               0.000000000               0.408250000               0.000000000               0.000000000               0.431187500               0.000000000               0.000000000               0.454125000               0.000000000               0.000000000               0.477062500               0.000000000               0.000000000               0.500000000               0.000000000               0.000000000               0.132359569              -0.013036280               0.000000000               0.155337096              -0.016127762               0.000000000               0.178314623              -0.019219245               0.000000000               0.201292150              -0.022310727               0.000000000               0.224269676              -0.025402210               0.000000000               0.247247203              -0.028493692               0.000000000               0.270224730              -0.031585175               0.000000000               0.293202257              -0.034676657               0.000000000               0.316179784              -0.037768140               0.000000000               0.339157311              -0.040859622               0.000000000               0.362134838              -0.043951105               0.000000000               0.385112365              -0.047042587               0.000000000               0.408089892              -0.050134070               0.000000000               0.431067419              -0.053225552               0.000000000               0.454044946              -0.056317035               0.000000000               0.477022473              -0.059408517               0.000000000               0.500000000              -0.062500000               0.000000000               0.130444442              -0.025947013               0.000000000               0.153541665              -0.032137825               0.000000000               0.176638887              -0.038328636               0.000000000               0.199736109              -0.044519448               0.000000000               0.222833332              -0.050710260               0.000000000               0.245930554              -0.056901071               0.000000000               0.269027776              -0.063091883               0.000000000               0.292124999              -0.069282695               0.000000000               0.315222221              -0.075473506               0.000000000               0.338319444              -0.081664318               0.000000000               0.361416666              -0.087855130               0.000000000               0.384513888              -0.094045942               0.000000000               0.407611111              -0.100236753               0.000000000               0.430708333              -0.106427565               0.000000000               0.453805555              -0.112618377               0.000000000               0.476902778              -0.118809188               0.000000000               0.500000000              -0.125000000               0.000000000               0.127273065              -0.038607862               0.000000000               0.150568498              -0.047913621               0.000000000               0.173863932              -0.057219379               0.000000000               0.197159365              -0.066525138               0.000000000               0.220454798              -0.075830897               0.000000000               0.243750232              -0.085136655               0.000000000               0.267045665              -0.094442414               0.000000000               0.290341099              -0.103748172               0.000000000               0.313636532              -0.113053931               0.000000000               0.336931966              -0.122359690               0.000000000               0.360227399              -0.131665448               0.000000000               0.383522833              -0.140971207               0.000000000               0.406818266              -0.150276966               0.000000000               0.430113700              -0.159582724               0.000000000               0.453409133              -0.168888483               0.000000000               0.476704567              -0.178194241               0.000000000               0.500000000              -0.187500000               0.000000000               0.122875978              -0.050896897               0.000000000               0.146446229              -0.063340840               0.000000000               0.170016481              -0.075784784               0.000000000               0.193586732              -0.088228728               0.000000000               0.217156983              -0.100672672               0.000000000               0.240727235              -0.113116616               0.000000000               0.264297486              -0.125560560               0.000000000               0.287867738              -0.138004504               0.000000000               0.311437989              -0.150448448               0.000000000               0.335008240              -0.162892392               0.000000000               0.358578492              -0.175336336               0.000000000               0.382148743              -0.187780280               0.000000000               0.405718994              -0.200224224               0.000000000               0.429289246              -0.212668168               0.000000000               0.452859497              -0.225112112               0.000000000               0.476429749              -0.237556056               0.000000000               0.500000000              -0.250000000               0.000000000               0.117295528              -0.062695766               0.000000000               0.141214558              -0.078308531               0.000000000               0.165133587              -0.093921295               0.000000000               0.189052617              -0.109534060               0.000000000               0.212971646              -0.125146824               0.000000000               0.236890676              -0.140759589               0.000000000               0.260809705              -0.156372354               0.000000000               0.284728735              -0.171985118               0.000000000               0.308647764              -0.187597883               0.000000000               0.332566794              -0.203210648               0.000000000               0.356485823              -0.218823412               0.000000000               0.380404853              -0.234436177               0.000000000               0.404323882              -0.250048941               0.000000000               0.428242912              -0.265661706               0.000000000               0.452161941              -0.281274471               0.000000000               0.476080971              -0.296887235               0.000000000               0.500000000              -0.312500000               0.000000000               0.110585458              -0.073890841               0.000000000               0.134923867              -0.092710163               0.000000000               0.159262276              -0.111529486               0.000000000               0.183600685              -0.130348808               0.000000000               0.207939094              -0.149168131               0.000000000               0.232277503              -0.167987453               0.000000000               0.256615912              -0.186806776               0.000000000               0.280954320              -0.205626098               0.000000000               0.305292729              -0.224445420               0.000000000               0.329631138              -0.243264743               0.000000000               0.353969547              -0.262084065               0.000000000               0.378307956              -0.280903388               0.000000000               0.402646365              -0.299722710               0.000000000               0.426984773              -0.318542033               0.000000000               0.451323182              -0.337361355               0.000000000               0.475661591              -0.356180678               0.000000000               0.500000000              -0.375000000               0.000000000               0.102810390              -0.084374307               0.000000000               0.127634741              -0.106444663               0.000000000               0.152459092              -0.128515018               0.000000000               0.177283442              -0.150585374               0.000000000               0.202107793              -0.172655730               0.000000000               0.226932143              -0.194726086               0.000000000               0.251756494              -0.216796442               0.000000000               0.276580845              -0.238866798               0.000000000               0.301405195              -0.260937153               0.000000000               0.326229546              -0.283007509               0.000000000               0.351053896              -0.305077865               0.000000000               0.375878247              -0.327148221               0.000000000               0.400702598              -0.349218577               0.000000000               0.425526948              -0.371288933               0.000000000               0.450351299              -0.393359288               0.000000000               0.475175649              -0.415429644               0.000000000               0.500000000              -0.437500000               0.000000000               0.094045202              -0.094045202               0.000000000               0.119417377              -0.119417377               0.000000000               0.144789552              -0.144789552               0.000000000               0.170161727              -0.170161727               0.000000000               0.195533901              -0.195533901               0.000000000               0.220906076              -0.220906076               0.000000000               0.246278251              -0.246278251               0.000000000               0.271650426              -0.271650426               0.000000000               0.297022601              -0.297022601               0.000000000               0.322394776              -0.322394776               0.000000000               0.347766951              -0.347766951               0.000000000               0.373139126              -0.373139126               0.000000000               0.398511300              -0.398511300               0.000000000               0.423883475              -0.423883475               0.000000000               0.449255650              -0.449255650               0.000000000               0.474627825              -0.474627825               0.000000000               0.500000000              -0.500000000               0.000000000               0.084374307              -0.102810390               0.000000000               0.106444663              -0.127634741               0.000000000               0.128515018              -0.152459092               0.000000000               0.150585374              -0.177283442               0.000000000               0.172655730              -0.202107793               0.000000000               0.194726086              -0.226932143               0.000000000               0.216796442              -0.251756494               0.000000000               0.238866798              -0.276580845               0.000000000               0.260937153              -0.301405195               0.000000000               0.283007509              -0.326229546               0.000000000               0.305077865              -0.351053896               0.000000000               0.327148221              -0.375878247               0.000000000               0.349218577              -0.400702598               0.000000000               0.371288933              -0.425526948               0.000000000               0.393359288              -0.450351299               0.000000000               0.415429644              -0.475175649               0.000000000               0.437500000              -0.500000000               0.000000000               0.073890841              -0.110585458               0.000000000               0.092710163              -0.134923867               0.000000000               0.111529486              -0.159262276               0.000000000               0.130348808              -0.183600685               0.000000000               0.149168131              -0.207939094               0.000000000               0.167987453              -0.232277503               0.000000000               0.186806776              -0.256615912               0.000000000               0.205626098              -0.280954320               0.000000000               0.224445420              -0.305292729               0.000000000               0.243264743              -0.329631138               0.000000000               0.262084065              -0.353969547               0.000000000               0.280903388              -0.378307956               0.000000000               0.299722710              -0.402646365               0.000000000               0.318542033              -0.426984773               0.000000000               0.337361355              -0.451323182               0.000000000               0.356180678              -0.475661591               0.000000000               0.375000000              -0.500000000               0.000000000               0.062695766              -0.117295528               0.000000000               0.078308531              -0.141214558               0.000000000               0.093921295              -0.165133587               0.000000000               0.109534060              -0.189052617               0.000000000               0.125146824              -0.212971646               0.000000000               0.140759589              -0.236890676               0.000000000               0.156372354              -0.260809705               0.000000000               0.171985118              -0.284728735               0.000000000               0.187597883              -0.308647764               0.000000000               0.203210648              -0.332566794               0.000000000               0.218823412              -0.356485823               0.000000000               0.234436177              -0.380404853               0.000000000               0.250048941              -0.404323882               0.000000000               0.265661706              -0.428242912               0.000000000               0.281274471              -0.452161941               0.000000000               0.296887235              -0.476080971               0.000000000               0.312500000              -0.500000000               0.000000000               0.050896897              -0.122875978               0.000000000               0.063340840              -0.146446229               0.000000000               0.075784784              -0.170016481               0.000000000               0.088228728              -0.193586732               0.000000000               0.100672672              -0.217156983               0.000000000               0.113116616              -0.240727235               0.000000000               0.125560560              -0.264297486               0.000000000               0.138004504              -0.287867738               0.000000000               0.150448448              -0.311437989               0.000000000               0.162892392              -0.335008240               0.000000000               0.175336336              -0.358578492               0.000000000               0.187780280              -0.382148743               0.000000000               0.200224224              -0.405718994               0.000000000               0.212668168              -0.429289246               0.000000000               0.225112112              -0.452859497               0.000000000               0.237556056              -0.476429749               0.000000000               0.250000000              -0.500000000               0.000000000               0.038607862              -0.127273065               0.000000000               0.047913621              -0.150568498               0.000000000               0.057219379              -0.173863932               0.000000000               0.066525138              -0.197159365               0.000000000               0.075830897              -0.220454798               0.000000000               0.085136655              -0.243750232               0.000000000               0.094442414              -0.267045665               0.000000000               0.103748172              -0.290341099               0.000000000               0.113053931              -0.313636532               0.000000000               0.122359690              -0.336931966               0.000000000               0.131665448              -0.360227399               0.000000000               0.140971207              -0.383522833               0.000000000               0.150276966              -0.406818266               0.000000000               0.159582724              -0.430113700               0.000000000               0.168888483              -0.453409133               0.000000000               0.178194241              -0.476704567               0.000000000               0.187500000              -0.500000000               0.000000000               0.025947013              -0.130444442               0.000000000               0.032137825              -0.153541665               0.000000000               0.038328636              -0.176638887               0.000000000               0.044519448              -0.199736109               0.000000000               0.050710260              -0.222833332               0.000000000               0.056901071              -0.245930554               0.000000000               0.063091883              -0.269027776               0.000000000               0.069282695              -0.292124999               0.000000000               0.075473506              -0.315222221               0.000000000               0.081664318              -0.338319444               0.000000000               0.087855130              -0.361416666               0.000000000               0.094045942              -0.384513888               0.000000000               0.100236753              -0.407611111               0.000000000               0.106427565              -0.430708333               0.000000000               0.112618377              -0.453805555               0.000000000               0.118809188              -0.476902778               0.000000000               0.125000000              -0.500000000               0.000000000               0.013036280              -0.132359569               0.000000000               0.016127762              -0.155337096               0.000000000               0.019219245              -0.178314623               0.000000000               0.022310727              -0.201292150               0.000000000               0.025402210              -0.224269676               0.000000000               0.028493692              -0.247247203               0.000000000               0.031585175              -0.270224730               0.000000000               0.034676657              -0.293202257               0.000000000               0.037768140              -0.316179784               0.000000000               0.040859622              -0.339157311               0.000000000               0.043951105              -0.362134838               0.000000000               0.047042587              -0.385112365               0.000000000               0.050134070              -0.408089892               0.000000000               0.053225552              -0.431067419               0.000000000               0.056317035              -0.454044946               0.000000000               0.059408517              -0.477022473               0.000000000               0.062500000              -0.500000000               0.000000000               0.000000000              -0.133000000               0.000000000               0.000000000              -0.155937500               0.000000000               0.000000000              -0.178875000               0.000000000               0.000000000              -0.201812500               0.000000000               0.000000000              -0.224750000               0.000000000               0.000000000              -0.247687500               0.000000000               0.000000000              -0.270625000               0.000000000               0.000000000              -0.293562500               0.000000000               0.000000000              -0.316500000               0.000000000               0.000000000              -0.339437500               0.000000000               0.000000000              -0.362375000               0.000000000               0.000000000              -0.385312500               0.000000000               0.000000000              -0.408250000               0.000000000               0.000000000              -0.431187500               0.000000000               0.000000000              -0.454125000               0.000000000               0.000000000              -0.477062500               0.000000000               0.000000000              -0.500000000               0.000000000              -0.133000000               0.000000000               0.000000000              -0.155937500               0.000000000               0.000000000              -0.178875000               0.000000000               0.000000000              -0.201812500               0.000000000               0.000000000              -0.224750000               0.000000000               0.000000000              -0.247687500               0.000000000               0.000000000              -0.270625000               0.000000000               0.000000000              -0.293562500               0.000000000               0.000000000              -0.316500000               0.000000000               0.000000000              -0.339437500               0.000000000               0.000000000              -0.362375000               0.000000000               0.000000000              -0.385312500               0.000000000               0.000000000              -0.408250000               0.000000000               0.000000000              -0.431187500               0.000000000               0.000000000              -0.454125000               0.000000000               0.000000000              -0.477062500               0.000000000               0.000000000              -0.500000000               0.000000000               0.000000000              -0.132359569              -0.013036280               0.000000000              -0.155337096              -0.016127762               0.000000000              -0.178314623              -0.019219245               0.000000000              -0.201292150              -0.022310727               0.000000000              -0.224269676              -0.025402210               0.000000000              -0.247247203              -0.028493692               0.000000000              -0.270224730              -0.031585175               0.000000000              -0.293202257              -0.034676657               0.000000000              -0.316179784              -0.037768140               0.000000000              -0.339157311              -0.040859622               0.000000000              -0.362134838              -0.043951105               0.000000000              -0.385112365              -0.047042587               0.000000000              -0.408089892              -0.050134070               0.000000000              -0.431067419              -0.053225552               0.000000000              -0.454044946              -0.056317035               0.000000000              -0.477022473              -0.059408517               0.000000000              -0.500000000              -0.062500000               0.000000000              -0.130444442              -0.025947013               0.000000000              -0.153541665              -0.032137825               0.000000000              -0.176638887              -0.038328636               0.000000000              -0.199736109              -0.044519448               0.000000000              -0.222833332              -0.050710260               0.000000000              -0.245930554              -0.056901071               0.000000000              -0.269027776              -0.063091883               0.000000000              -0.292124999              -0.069282695               0.000000000              -0.315222221              -0.075473506               0.000000000              -0.338319444              -0.081664318               0.000000000              -0.361416666              -0.087855130               0.000000000              -0.384513888              -0.094045942               0.000000000              -0.407611111              -0.100236753               0.000000000              -0.430708333              -0.106427565               0.000000000              -0.453805555              -0.112618377               0.000000000              -0.476902778              -0.118809188               0.000000000              -0.500000000              -0.125000000               0.000000000              -0.127273065              -0.038607862               0.000000000              -0.150568498              -0.047913621               0.000000000              -0.173863932              -0.057219379               0.000000000              -0.197159365              -0.066525138               0.000000000              -0.220454798              -0.075830897               0.000000000              -0.243750232              -0.085136655               0.000000000              -0.267045665              -0.094442414               0.000000000              -0.290341099              -0.103748172               0.000000000              -0.313636532              -0.113053931               0.000000000              -0.336931966              -0.122359690               0.000000000              -0.360227399              -0.131665448               0.000000000              -0.383522833              -0.140971207               0.000000000              -0.406818266              -0.150276966               0.000000000              -0.430113700              -0.159582724               0.000000000              -0.453409133              -0.168888483               0.000000000              -0.476704567              -0.178194241               0.000000000              -0.500000000              -0.187500000               0.000000000              -0.122875978              -0.050896897               0.000000000              -0.146446229              -0.063340840               0.000000000              -0.170016481              -0.075784784               0.000000000              -0.193586732              -0.088228728               0.000000000              -0.217156983              -0.100672672               0.000000000              -0.240727235              -0.113116616               0.000000000              -0.264297486              -0.125560560               0.000000000              -0.287867738              -0.138004504               0.000000000              -0.311437989              -0.150448448               0.000000000              -0.335008240              -0.162892392               0.000000000              -0.358578492              -0.175336336               0.000000000              -0.382148743              -0.187780280               0.000000000              -0.405718994              -0.200224224               0.000000000              -0.429289246              -0.212668168               0.000000000              -0.452859497              -0.225112112               0.000000000              -0.476429749              -0.237556056               0.000000000              -0.500000000              -0.250000000               0.000000000              -0.117295528              -0.062695766               0.000000000              -0.141214558              -0.078308531               0.000000000              -0.165133587              -0.093921295               0.000000000              -0.189052617              -0.109534060               0.000000000              -0.212971646              -0.125146824               0.000000000              -0.236890676              -0.140759589               0.000000000              -0.260809705              -0.156372354               0.000000000              -0.284728735              -0.171985118               0.000000000              -0.308647764              -0.187597883               0.000000000              -0.332566794              -0.203210648               0.000000000              -0.356485823              -0.218823412               0.000000000              -0.380404853              -0.234436177               0.000000000              -0.404323882              -0.250048941               0.000000000              -0.428242912              -0.265661706               0.000000000              -0.452161941              -0.281274471               0.000000000              -0.476080971              -0.296887235               0.000000000              -0.500000000              -0.312500000               0.000000000              -0.110585458              -0.073890841               0.000000000              -0.134923867              -0.092710163               0.000000000              -0.159262276              -0.111529486               0.000000000              -0.183600685              -0.130348808               0.000000000              -0.207939094              -0.149168131               0.000000000              -0.232277503              -0.167987453               0.000000000              -0.256615912              -0.186806776               0.000000000              -0.280954320              -0.205626098               0.000000000              -0.305292729              -0.224445420               0.000000000              -0.329631138              -0.243264743               0.000000000              -0.353969547              -0.262084065               0.000000000              -0.378307956              -0.280903388               0.000000000              -0.402646365              -0.299722710               0.000000000              -0.426984773              -0.318542033               0.000000000              -0.451323182              -0.337361355               0.000000000              -0.475661591              -0.356180678               0.000000000              -0.500000000              -0.375000000               0.000000000              -0.102810390              -0.084374307               0.000000000              -0.127634741              -0.106444663               0.000000000              -0.152459092              -0.128515018               0.000000000              -0.177283442              -0.150585374               0.000000000              -0.202107793              -0.172655730               0.000000000              -0.226932143              -0.194726086               0.000000000              -0.251756494              -0.216796442               0.000000000              -0.276580845              -0.238866798               0.000000000              -0.301405195              -0.260937153               0.000000000              -0.326229546              -0.283007509               0.000000000              -0.351053896              -0.305077865               0.000000000              -0.375878247              -0.327148221               0.000000000              -0.400702598              -0.349218577               0.000000000              -0.425526948              -0.371288933               0.000000000              -0.450351299              -0.393359288               0.000000000              -0.475175649              -0.415429644               0.000000000              -0.500000000              -0.437500000               0.000000000              -0.094045202              -0.094045202               0.000000000              -0.119417377              -0.119417377               0.000000000              -0.144789552              -0.144789552               0.000000000              -0.170161727              -0.170161727               0.000000000              -0.195533901              -0.195533901               0.000000000              -0.220906076              -0.220906076               0.000000000              -0.246278251              -0.246278251               0.000000000              -0.271650426              -0.271650426               0.000000000              -0.297022601              -0.297022601               0.000000000              -0.322394776              -0.322394776               0.000000000              -0.347766951              -0.347766951               0.000000000              -0.373139126              -0.373139126               0.000000000              -0.398511300              -0.398511300               0.000000000              -0.423883475              -0.423883475               0.000000000              -0.449255650              -0.449255650               0.000000000              -0.474627825              -0.474627825               0.000000000              -0.500000000              -0.500000000               0.000000000              -0.084374307              -0.102810390               0.000000000              -0.106444663              -0.127634741               0.000000000              -0.128515018              -0.152459092               0.000000000              -0.150585374              -0.177283442               0.000000000              -0.172655730              -0.202107793               0.000000000              -0.194726086              -0.226932143               0.000000000              -0.216796442              -0.251756494               0.000000000              -0.238866798              -0.276580845               0.000000000              -0.260937153              -0.301405195               0.000000000              -0.283007509              -0.326229546               0.000000000              -0.305077865              -0.351053896               0.000000000              -0.327148221              -0.375878247               0.000000000              -0.349218577              -0.400702598               0.000000000              -0.371288933              -0.425526948               0.000000000              -0.393359288              -0.450351299               0.000000000              -0.415429644              -0.475175649               0.000000000              -0.437500000              -0.500000000               0.000000000              -0.073890841              -0.110585458               0.000000000              -0.092710163              -0.134923867               0.000000000              -0.111529486              -0.159262276               0.000000000              -0.130348808              -0.183600685               0.000000000              -0.149168131              -0.207939094               0.000000000              -0.167987453              -0.232277503               0.000000000              -0.186806776              -0.256615912               0.000000000              -0.205626098              -0.280954320               0.000000000              -0.224445420              -0.305292729               0.000000000              -0.243264743              -0.329631138               0.000000000              -0.262084065              -0.353969547               0.000000000              -0.280903388              -0.378307956               0.000000000              -0.299722710              -0.402646365               0.000000000              -0.318542033              -0.426984773               0.000000000              -0.337361355              -0.451323182               0.000000000              -0.356180678              -0.475661591               0.000000000              -0.375000000              -0.500000000               0.000000000              -0.062695766              -0.117295528               0.000000000              -0.078308531              -0.141214558               0.000000000              -0.093921295              -0.165133587               0.000000000              -0.109534060              -0.189052617               0.000000000              -0.125146824              -0.212971646               0.000000000              -0.140759589              -0.236890676               0.000000000              -0.156372354              -0.260809705               0.000000000              -0.171985118              -0.284728735               0.000000000              -0.187597883              -0.308647764               0.000000000              -0.203210648              -0.332566794               0.000000000              -0.218823412              -0.356485823               0.000000000              -0.234436177              -0.380404853               0.000000000              -0.250048941              -0.404323882               0.000000000              -0.265661706              -0.428242912               0.000000000              -0.281274471              -0.452161941               0.000000000              -0.296887235              -0.476080971               0.000000000              -0.312500000              -0.500000000               0.000000000              -0.050896897              -0.122875978               0.000000000              -0.063340840              -0.146446229               0.000000000              -0.075784784              -0.170016481               0.000000000              -0.088228728              -0.193586732               0.000000000              -0.100672672              -0.217156983               0.000000000              -0.113116616              -0.240727235               0.000000000              -0.125560560              -0.264297486               0.000000000              -0.138004504              -0.287867738               0.000000000              -0.150448448              -0.311437989               0.000000000              -0.162892392              -0.335008240               0.000000000              -0.175336336              -0.358578492               0.000000000              -0.187780280              -0.382148743               0.000000000              -0.200224224              -0.405718994               0.000000000              -0.212668168              -0.429289246               0.000000000              -0.225112112              -0.452859497               0.000000000              -0.237556056              -0.476429749               0.000000000              -0.250000000              -0.500000000               0.000000000              -0.038607862              -0.127273065               0.000000000              -0.047913621              -0.150568498               0.000000000              -0.057219379              -0.173863932               0.000000000              -0.066525138              -0.197159365               0.000000000              -0.075830897              -0.220454798               0.000000000              -0.085136655              -0.243750232               0.000000000              -0.094442414              -0.267045665               0.000000000              -0.103748172              -0.290341099               0.000000000              -0.113053931              -0.313636532               0.000000000              -0.122359690              -0.336931966               0.000000000              -0.131665448              -0.360227399               0.000000000              -0.140971207              -0.383522833               0.000000000              -0.150276966              -0.406818266               0.000000000              -0.159582724              -0.430113700               0.000000000              -0.168888483              -0.453409133               0.000000000              -0.178194241              -0.476704567               0.000000000              -0.187500000              -0.500000000               0.000000000              -0.025947013              -0.130444442               0.000000000              -0.032137825              -0.153541665               0.000000000              -0.038328636              -0.176638887               0.000000000              -0.044519448              -0.199736109               0.000000000              -0.050710260              -0.222833332               0.000000000              -0.056901071              -0.245930554               0.000000000              -0.063091883              -0.269027776               0.000000000              -0.069282695              -0.292124999               0.000000000              -0.075473506              -0.315222221               0.000000000              -0.081664318              -0.338319444               0.000000000              -0.087855130              -0.361416666               0.000000000              -0.094045942              -0.384513888               0.000000000              -0.100236753              -0.407611111               0.000000000              -0.106427565              -0.430708333               0.000000000              -0.112618377              -0.453805555               0.000000000              -0.118809188              -0.476902778               0.000000000              -0.125000000              -0.500000000               0.000000000              -0.013036280              -0.132359569               0.000000000              -0.016127762              -0.155337096               0.000000000              -0.019219245              -0.178314623               0.000000000              -0.022310727              -0.201292150               0.000000000              -0.025402210              -0.224269676               0.000000000              -0.028493692              -0.247247203               0.000000000              -0.031585175              -0.270224730               0.000000000              -0.034676657              -0.293202257               0.000000000              -0.037768140              -0.316179784               0.000000000              -0.040859622              -0.339157311               0.000000000              -0.043951105              -0.362134838               0.000000000              -0.047042587              -0.385112365               0.000000000              -0.050134070              -0.408089892               0.000000000              -0.053225552              -0.431067419               0.000000000              -0.056317035              -0.454044946               0.000000000              -0.059408517              -0.477022473               0.000000000              -0.062500000              -0.500000000               0.000000000               0.000000000              -0.133000000               0.000000000               0.000000000              -0.155937500               0.000000000               0.000000000              -0.178875000               0.000000000               0.000000000              -0.201812500               0.000000000               0.000000000              -0.224750000               0.000000000               0.000000000              -0.247687500               0.000000000               0.000000000              -0.270625000               0.000000000               0.000000000              -0.293562500               0.000000000               0.000000000              -0.316500000               0.000000000               0.000000000              -0.339437500               0.000000000               0.000000000              -0.362375000               0.000000000               0.000000000              -0.385312500               0.000000000               0.000000000              -0.408250000               0.000000000               0.000000000              -0.431187500               0.000000000               0.000000000              -0.454125000               0.000000000               0.000000000              -0.477062500               0.000000000               0.000000000              -0.500000000               0.000000000              -0.133000000               0.000000000               0.000000000              -0.155937500               0.000000000               0.000000000              -0.178875000               0.000000000               0.000000000              -0.201812500               0.000000000               0.000000000              -0.224750000               0.000000000               0.000000000              -0.247687500               0.000000000               0.000000000              -0.270625000               0.000000000               0.000000000              -0.293562500               0.000000000               0.000000000              -0.316500000               0.000000000               0.000000000              -0.339437500               0.000000000               0.000000000              -0.362375000               0.000000000               0.000000000              -0.385312500               0.000000000               0.000000000              -0.408250000               0.000000000               0.000000000              -0.431187500               0.000000000               0.000000000              -0.454125000               0.000000000               0.000000000              -0.477062500               0.000000000               0.000000000              -0.500000000               0.000000000               0.000000000              -0.132359569               0.013036280               0.000000000              -0.155337096               0.016127762               0.000000000              -0.178314623               0.019219245               0.000000000              -0.201292150               0.022310727               0.000000000              -0.224269676               0.025402210               0.000000000              -0.247247203               0.028493692               0.000000000              -0.270224730               0.031585175               0.000000000              -0.293202257               0.034676657               0.000000000              -0.316179784               0.037768140               0.000000000              -0.339157311               0.040859622               0.000000000              -0.362134838               0.043951105               0.000000000              -0.385112365               0.047042587               0.000000000              -0.408089892               0.050134070               0.000000000              -0.431067419               0.053225552               0.000000000              -0.454044946               0.056317035               0.000000000              -0.477022473               0.059408517               0.000000000              -0.500000000               0.062500000               0.000000000              -0.130444442               0.025947013               0.000000000              -0.153541665               0.032137825               0.000000000              -0.176638887               0.038328636               0.000000000              -0.199736109               0.044519448               0.000000000              -0.222833332               0.050710260               0.000000000              -0.245930554               0.056901071               0.000000000              -0.269027776               0.063091883               0.000000000              -0.292124999               0.069282695               0.000000000              -0.315222221               0.075473506               0.000000000              -0.338319444               0.081664318               0.000000000              -0.361416666               0.087855130               0.000000000              -0.384513888               0.094045942               0.000000000              -0.407611111               0.100236753               0.000000000              -0.430708333               0.106427565               0.000000000              -0.453805555               0.112618377               0.000000000              -0.476902778               0.118809188               0.000000000              -0.500000000               0.125000000               0.000000000              -0.127273065               0.038607862               0.000000000              -0.150568498               0.047913621               0.000000000              -0.173863932               0.057219379               0.000000000              -0.197159365               0.066525138               0.000000000              -0.220454798               0.075830897               0.000000000              -0.243750232               0.085136655               0.000000000              -0.267045665               0.094442414               0.000000000              -0.290341099               0.103748172               0.000000000              -0.313636532               0.113053931               0.000000000              -0.336931966               0.122359690               0.000000000              -0.360227399               0.131665448               0.000000000              -0.383522833               0.140971207               0.000000000              -0.406818266               0.150276966               0.000000000              -0.430113700               0.159582724               0.000000000              -0.453409133               0.168888483               0.000000000              -0.476704567               0.178194241               0.000000000              -0.500000000               0.187500000               0.000000000              -0.122875978               0.050896897               0.000000000              -0.146446229               0.063340840               0.000000000              -0.170016481               0.075784784               0.000000000              -0.193586732               0.088228728               0.000000000              -0.217156983               0.100672672               0.000000000              -0.240727235               0.113116616               0.000000000              -0.264297486               0.125560560               0.000000000              -0.287867738               0.138004504               0.000000000              -0.311437989               0.150448448               0.000000000              -0.335008240               0.162892392               0.000000000              -0.358578492               0.175336336               0.000000000              -0.382148743               0.187780280               0.000000000              -0.405718994               0.200224224               0.000000000              -0.429289246               0.212668168               0.000000000              -0.452859497               0.225112112               0.000000000              -0.476429749               0.237556056               0.000000000              -0.500000000               0.250000000               0.000000000              -0.117295528               0.062695766               0.000000000              -0.141214558               0.078308531               0.000000000              -0.165133587               0.093921295               0.000000000              -0.189052617               0.109534060               0.000000000              -0.212971646               0.125146824               0.000000000              -0.236890676               0.140759589               0.000000000              -0.260809705               0.156372354               0.000000000              -0.284728735               0.171985118               0.000000000              -0.308647764               0.187597883               0.000000000              -0.332566794               0.203210648               0.000000000              -0.356485823               0.218823412               0.000000000              -0.380404853               0.234436177               0.000000000              -0.404323882               0.250048941               0.000000000              -0.428242912               0.265661706               0.000000000              -0.452161941               0.281274471               0.000000000              -0.476080971               0.296887235               0.000000000              -0.500000000               0.312500000               0.000000000              -0.110585458               0.073890841               0.000000000              -0.134923867               0.092710163               0.000000000              -0.159262276               0.111529486               0.000000000              -0.183600685               0.130348808               0.000000000              -0.207939094               0.149168131               0.000000000              -0.232277503               0.167987453               0.000000000              -0.256615912               0.186806776               0.000000000              -0.280954320               0.205626098               0.000000000              -0.305292729               0.224445420               0.000000000              -0.329631138               0.243264743               0.000000000              -0.353969547               0.262084065               0.000000000              -0.378307956               0.280903388               0.000000000              -0.402646365               0.299722710               0.000000000              -0.426984773               0.318542033               0.000000000              -0.451323182               0.337361355               0.000000000              -0.475661591               0.356180678               0.000000000              -0.500000000               0.375000000               0.000000000              -0.102810390               0.084374307               0.000000000              -0.127634741               0.106444663               0.000000000              -0.152459092               0.128515018               0.000000000              -0.177283442               0.150585374               0.000000000              -0.202107793               0.172655730               0.000000000              -0.226932143               0.194726086               0.000000000              -0.251756494               0.216796442               0.000000000              -0.276580845               0.238866798               0.000000000              -0.301405195               0.260937153               0.000000000              -0.326229546               0.283007509               0.000000000              -0.351053896               0.305077865               0.000000000              -0.375878247               0.327148221               0.000000000              -0.400702598               0.349218577               0.000000000              -0.425526948               0.371288933               0.000000000              -0.450351299               0.393359288               0.000000000              -0.475175649               0.415429644               0.000000000              -0.500000000               0.437500000               0.000000000              -0.094045202               0.094045202               0.000000000              -0.119417377               0.119417377               0.000000000              -0.144789552               0.144789552               0.000000000              -0.170161727               0.170161727               0.000000000              -0.195533901               0.195533901               0.000000000              -0.220906076               0.220906076               0.000000000              -0.246278251               0.246278251               0.000000000              -0.271650426               0.271650426               0.000000000              -0.297022601               0.297022601               0.000000000              -0.322394776               0.322394776               0.000000000              -0.347766951               0.347766951               0.000000000              -0.373139126               0.373139126               0.000000000              -0.398511300               0.398511300               0.000000000              -0.423883475               0.423883475               0.000000000              -0.449255650               0.449255650               0.000000000              -0.474627825               0.474627825               0.000000000              -0.500000000               0.500000000               0.000000000              -0.084374307               0.102810390               0.000000000              -0.106444663               0.127634741               0.000000000              -0.128515018               0.152459092               0.000000000              -0.150585374               0.177283442               0.000000000              -0.172655730               0.202107793               0.000000000              -0.194726086               0.226932143               0.000000000              -0.216796442               0.251756494               0.000000000              -0.238866798               0.276580845               0.000000000              -0.260937153               0.301405195               0.000000000              -0.283007509               0.326229546               0.000000000              -0.305077865               0.351053896               0.000000000              -0.327148221               0.375878247               0.000000000              -0.349218577               0.400702598               0.000000000              -0.371288933               0.425526948               0.000000000              -0.393359288               0.450351299               0.000000000              -0.415429644               0.475175649               0.000000000              -0.437500000               0.500000000               0.000000000              -0.073890841               0.110585458               0.000000000              -0.092710163               0.134923867               0.000000000              -0.111529486               0.159262276               0.000000000              -0.130348808               0.183600685               0.000000000              -0.149168131               0.207939094               0.000000000              -0.167987453               0.232277503               0.000000000              -0.186806776               0.256615912               0.000000000              -0.205626098               0.280954320               0.000000000              -0.224445420               0.305292729               0.000000000              -0.243264743               0.329631138               0.000000000              -0.262084065               0.353969547               0.000000000              -0.280903388               0.378307956               0.000000000              -0.299722710               0.402646365               0.000000000              -0.318542033               0.426984773               0.000000000              -0.337361355               0.451323182               0.000000000              -0.356180678               0.475661591               0.000000000              -0.375000000               0.500000000               0.000000000              -0.062695766               0.117295528               0.000000000              -0.078308531               0.141214558               0.000000000              -0.093921295               0.165133587               0.000000000              -0.109534060               0.189052617               0.000000000              -0.125146824               0.212971646               0.000000000              -0.140759589               0.236890676               0.000000000              -0.156372354               0.260809705               0.000000000              -0.171985118               0.284728735               0.000000000              -0.187597883               0.308647764               0.000000000              -0.203210648               0.332566794               0.000000000              -0.218823412               0.356485823               0.000000000              -0.234436177               0.380404853               0.000000000              -0.250048941               0.404323882               0.000000000              -0.265661706               0.428242912               0.000000000              -0.281274471               0.452161941               0.000000000              -0.296887235               0.476080971               0.000000000              -0.312500000               0.500000000               0.000000000              -0.050896897               0.122875978               0.000000000              -0.063340840               0.146446229               0.000000000              -0.075784784               0.170016481               0.000000000              -0.088228728               0.193586732               0.000000000              -0.100672672               0.217156983               0.000000000              -0.113116616               0.240727235               0.000000000              -0.125560560               0.264297486               0.000000000              -0.138004504               0.287867738               0.000000000              -0.150448448               0.311437989               0.000000000              -0.162892392               0.335008240               0.000000000              -0.175336336               0.358578492               0.000000000              -0.187780280               0.382148743               0.000000000              -0.200224224               0.405718994               0.000000000              -0.212668168               0.429289246               0.000000000              -0.225112112               0.452859497               0.000000000              -0.237556056               0.476429749               0.000000000              -0.250000000               0.500000000               0.000000000              -0.038607862               0.127273065               0.000000000              -0.047913621               0.150568498               0.000000000              -0.057219379               0.173863932               0.000000000              -0.066525138               0.197159365               0.000000000              -0.075830897               0.220454798               0.000000000              -0.085136655               0.243750232               0.000000000              -0.094442414               0.267045665               0.000000000              -0.103748172               0.290341099               0.000000000              -0.113053931               0.313636532               0.000000000              -0.122359690               0.336931966               0.000000000              -0.131665448               0.360227399               0.000000000              -0.140971207               0.383522833               0.000000000              -0.150276966               0.406818266               0.000000000              -0.159582724               0.430113700               0.000000000              -0.168888483               0.453409133               0.000000000              -0.178194241               0.476704567               0.000000000              -0.187500000               0.500000000               0.000000000              -0.025947013               0.130444442               0.000000000              -0.032137825               0.153541665               0.000000000              -0.038328636               0.176638887               0.000000000              -0.044519448               0.199736109               0.000000000              -0.050710260               0.222833332               0.000000000              -0.056901071               0.245930554               0.000000000              -0.063091883               0.269027776               0.000000000              -0.069282695               0.292124999               0.000000000              -0.075473506               0.315222221               0.000000000              -0.081664318               0.338319444               0.000000000              -0.087855130               0.361416666               0.000000000              -0.094045942               0.384513888               0.000000000              -0.100236753               0.407611111               0.000000000              -0.106427565               0.430708333               0.000000000              -0.112618377               0.453805555               0.000000000              -0.118809188               0.476902778               0.000000000              -0.125000000               0.500000000               0.000000000              -0.013036280               0.132359569               0.000000000              -0.016127762               0.155337096               0.000000000              -0.019219245               0.178314623               0.000000000              -0.022310727               0.201292150               0.000000000              -0.025402210               0.224269676               0.000000000              -0.028493692               0.247247203               0.000000000              -0.031585175               0.270224730               0.000000000              -0.034676657               0.293202257               0.000000000              -0.037768140               0.316179784               0.000000000              -0.040859622               0.339157311               0.000000000              -0.043951105               0.362134838               0.000000000              -0.047042587               0.385112365               0.000000000              -0.050134070               0.408089892               0.000000000              -0.053225552               0.431067419               0.000000000              -0.056317035               0.454044946               0.000000000              -0.059408517               0.477022473               0.000000000              -0.062500000               0.500000000               0.000000000               0.000000000               0.133000000               0.000000000               0.000000000               0.155937500               0.000000000               0.000000000               0.178875000               0.000000000               0.000000000               0.201812500               0.000000000               0.000000000               0.224750000               0.000000000               0.000000000               0.247687500               0.000000000               0.000000000               0.270625000               0.000000000               0.000000000               0.293562500               0.000000000               0.000000000               0.316500000               0.000000000               0.000000000               0.339437500               0.000000000               0.000000000               0.362375000               0.000000000               0.000000000               0.385312500               0.000000000               0.000000000               0.408250000               0.000000000               0.000000000               0.431187500               0.000000000               0.000000000               0.454125000               0.000000000               0.000000000               0.477062500               0.000000000               0.000000000               0.500000000               0.000000000 </DataArray>
</Points>
<Cells>
<DataArray type="Int32"                                    Name="connectivity"                                                      NumberOfComponents=" 1" format="ascii">
         0          1         18         17          1          2         19         18          2          3         20         19          3          4         21         20          4          5         22         21          5          6         23         22          6          7         24         23          7          8         25         24          8          9         26         25          9         10         27         26         10         11         28         27         11         12         29         28         12         13         30         29         13         14         31         30         14         15         32         31         15         16         33         32         17         18         35         34         18         19         36         35         19         20         37         36         20         21         38         37         21         22         39         38         22         23         40         39         23         24         41         40         24         25         42         41         25         26         43         42         26         27         44         43         27         28         45         44         28         29         46         45         29         30         47         46         30         31         48         47         31         32         49         48         32         33         50         49         34         35         52         51         35         36         53         52         36         37         54         53         37         38         55         54         38         39         56         55         39         40         57         56         40         41         58         57         41         42         59         58         42         43         60         59         43         44         61         60         44         45         62         61         45         46         63         62         46         47         64         63         47         48         65         64         48         49         66         65         49         50         67         66         51         52         69         68         52         53         70         69         53         54         71         70         54         55         72         71         55         56         73         72         56         57         74         73         57         58         75         74         58         59         76         75         59         60         77         76         60         61         78         77         61         62         79         78         62         63         80         79         63         64         81         80         64         65         82         81         65         66         83         82         66         67         84         83         68         69         86         85         69         70         87         86         70         71         88         87         71         72         89         88         72         73         90         89         73         74         91         90         74         75         92         91         75         76         93         92         76         77         94         93         77         78         95         94         78         79         96         95         79         80         97         96         80         81         98         97         81         82         99         98         82         83        100         99         83         84        101        100         85         86        103        102         86         87        104        103         87         88        105        104         88         89        106        105         89         90        107        106         90         91        108        107         91         92        109        108         92         93        110        109         93         94        111        110         94         95        112        111         95         96        113        112         96         97        114        113         97         98        115        114         98         99        116        115         99        100        117        116        100        101        118        117        102        103        120        119        103        104        121        120        104        105        122        121        105        106        123        122        106        107        124        123        107        108        125        124        108        109        126        125        109        110        127        126        110        111        128        127        111        112        129        128        112        113        130        129        113        114        131        130        114        115        132        131        115        116        133        132        116        117        134        133        117        118        135        134        119        120        137        136        120        121        138        137        121        122        139        138        122        123        140        139        123        124        141        140        124        125        142        141        125        126        143        142        126        127        144        143        127        128        145        144        128        129        146        145        129        130        147        146        130        131        148        147        131        132        149        148        132        133        150        149        133        134        151        150        134        135        152        151        136        137        154        153        137        138        155        154        138        139        156        155        139        140        157        156        140        141        158        157        141        142        159        158        142        143        160        159        143        144        161        160        144        145        162        161        145        146        163        162        146        147        164        163        147        148        165        164        148        149        166        165        149        150        167        166        150        151        168        167        151        152        169        168        153        154        171        170        154        155        172        171        155        156        173        172        156        157        174        173        157        158        175        174        158        159        176        175        159        160        177        176        160        161        178        177        161        162        179        178        162        163        180        179        163        164        181        180        164        165        182        181        165        166        183        182        166        167        184        183        167        168        185        184        168        169        186        185        170        171        188        187        171        172        189        188        172        173        190        189        173        174        191        190        174        175        192        191        175        176        193        192        176        177        194        193        177        178        195        194        178        179        196        195        179        180        197        196        180        181        198        197        181        182        199        198        182        183        200        199        183        184        201        200        184        185        202        201        185        186        203        202        187        188        205        204        188        189        206        205        189        190        207        206        190        191        208        207        191        192        209        208        192        193        210        209        193        194        211        210        194        195        212        211        195        196        213        212        196        197        214        213        197        198        215        214        198        199        216        215        199        200        217        216        200        201        218        217        201        202        219        218        202        203        220        219        204        205        222        221        205        206        223        222        206        207        224        223        207        208        225        224        208        209        226        225        209        210        227        226        210        211        228        227        211        212        229        228        212        213        230        229        213        214        231        230        214        215        232        231        215        216        233        232        216        217        234        233        217        218        235        234        218        219        236        235        219        220        237        236        221        222        239        238        222        223        240        239        223        224        241        240        224        225        242        241        225        226        243        242        226        227        244        243        227        228        245        244        228        229        246        245        229        230        247        246        230        231        248        247        231        232        249        248        232        233        250        249        233        234        251        250        234        235        252        251        235        236        253        252        236        237        254        253        238        239        256        255        239        240        257        256        240        241        258        257        241        242        259        258        242        243        260        259        243        244        261        260        244        245        262        261        245        246        263        262        246        247        264        263        247        248        265        264        248        249        266        265        249        250        267        266        250        251        268        267        251        252        269        268        252        253        270        269        253        254        271        270        255        256        273        272        256        257        274        273        257        258        275        274        258        259        276        275        259        260        277        276        260        261        278        277        261        262        279        278        262        263        280        279        263        264        281        280        264        265        282        281        265        266        283        282        266        267        284        283        267        268        285        284        268        269        286        285        269        270        287        286        270        271        288        287        306        307          1          0        307        308          2          1        308        309          3          2        309        310          4          3        310        311          5          4        311        312          6          5        312        313          7          6        313        314          8          7        314        315          9          8        315        316         10          9        316        317         11         10        317        318         12         11        318        319         13         12        319        320         14         13        320        321         15         14        321        322         16         15        323        324        307        306        324        325        308        307        325        326        309        308        326        327        310        309        327        328        311        310        328        329        312        311        329        330        313        312        330        331        314        313        331        332        315        314        332        333        316        315        333        334        317        316        334        335        318        317        335        336        319        318        336        337        320        319        337        338        321        320        338        339        322        321        340        341        324        323        341        342        325        324        342        343        326        325        343        344        327        326        344        345        328        327        345        346        329        328        346        347        330        329        347        348        331        330        348        349        332        331        349        350        333        332        350        351        334        333        351        352        335        334        352        353        336        335        353        354        337        336        354        355        338        337        355        356        339        338        357        358        341        340        358        359        342        341        359        360        343        342        360        361        344        343        361        362        345        344        362        363        346        345        363        364        347        346        364        365        348        347        365        366        349        348        366        367        350        349        367        368        351        350        368        369        352        351        369        370        353        352        370        371        354        353        371        372        355        354        372        373        356        355        374        375        358        357        375        376        359        358        376        377        360        359        377        378        361        360        378        379        362        361        379        380        363        362        380        381        364        363        381        382        365        364        382        383        366        365        383        384        367        366        384        385        368        367        385        386        369        368        386        387        370        369        387        388        371        370        388        389        372        371        389        390        373        372        391        392        375        374        392        393        376        375        393        394        377        376        394        395        378        377        395        396        379        378        396        397        380        379        397        398        381        380        398        399        382        381        399        400        383        382        400        401        384        383        401        402        385        384        402        403        386        385        403        404        387        386        404        405        388        387        405        406        389        388        406        407        390        389        408        409        392        391        409        410        393        392        410        411        394        393        411        412        395        394        412        413        396        395        413        414        397        396        414        415        398        397        415        416        399        398        416        417        400        399        417        418        401        400        418        419        402        401        419        420        403        402        420        421        404        403        421        422        405        404        422        423        406        405        423        424        407        406        425        426        409        408        426        427        410        409        427        428        411        410        428        429        412        411        429        430        413        412        430        431        414        413        431        432        415        414        432        433        416        415        433        434        417        416        434        435        418        417        435        436        419        418        436        437        420        419        437        438        421        420        438        439        422        421        439        440        423        422        440        441        424        423        442        443        426        425        443        444        427        426        444        445        428        427        445        446        429        428        446        447        430        429        447        448        431        430        448        449        432        431        449        450        433        432        450        451        434        433        451        452        435        434        452        453        436        435        453        454        437        436        454        455        438        437        455        456        439        438        456        457        440        439        457        458        441        440        459        460        443        442        460        461        444        443        461        462        445        444        462        463        446        445        463        464        447        446        464        465        448        447        465        466        449        448        466        467        450        449        467        468        451        450        468        469        452        451        469        470        453        452        470        471        454        453        471        472        455        454        472        473        456        455        473        474        457        456        474        475        458        457        476        477        460        459        477        478        461        460        478        479        462        461        479        480        463        462        480        481        464        463        481        482        465        464        482        483        466        465        483        484        467        466        484        485        468        467        485        486        469        468        486        487        470        469        487        488        471        470        488        489        472        471        489        490        473        472        490        491        474        473        491        492        475        474        493        494        477        476        494        495        478        477        495        496        479        478        496        497        480        479        497        498        481        480        498        499        482        481        499        500        483        482        500        501        484        483        501        502        485        484        502        503        486        485        503        504        487        486        504        505        488        487        505        506        489        488        506        507        490        489        507        508        491        490        508        509        492        491        510        511        494        493        511        512        495        494        512        513        496        495        513        514        497        496        514        515        498        497        515        516        499        498        516        517        500        499        517        518        501        500        518        519        502        501        519        520        503        502        520        521        504        503        521        522        505        504        522        523        506        505        523        524        507        506        524        525        508        507        525        526        509        508        527        528        511        510        528        529        512        511        529        530        513        512        530        531        514        513        531        532        515        514        532        533        516        515        533        534        517        516        534        535        518        517        535        536        519        518        536        537        520        519        537        538        521        520        538        539        522        521        539        540        523        522        540        541        524        523        541        542        525        524        542        543        526        525        544        545        528        527        545        546        529        528        546        547        530        529        547        548        531        530        548        549        532        531        549        550        533        532        550        551        534        533        551        552        535        534        552        553        536        535        553        554        537        536        554        555        538        537        555        556        539        538        556        557        540        539        557        558        541        540        558        559        542        541        559        560        543        542        561        562        545        544        562        563        546        545        563        564        547        546        564        565        548        547        565        566        549        548        566        567        550        549        567        568        551        550        568        569        552        551        569        570        553        552        570        571        554        553        571        572        555        554        572        573        556        555        573        574        557        556        574        575        558        557        575        576        559        558        576        577        560        559        578        579        596        595        579        580        597        596        580        581        598        597        581        582        599        598        582        583        600        599        583        584        601        600        584        585        602        601        585        586        603        602        586        587        604        603        587        588        605        604        588        589        606        605        589        590        607        606        590        591        608        607        591        592        609        608        592        593        610        609        593        594        611        610        595        596        613        612        596        597        614        613        597        598        615        614        598        599        616        615        599        600        617        616        600        601        618        617        601        602        619        618        602        603        620        619        603        604        621        620        604        605        622        621        605        606        623        622        606        607        624        623        607        608        625        624        608        609        626        625        609        610        627        626        610        611        628        627        612        613        630        629        613        614        631        630        614        615        632        631        615        616        633        632        616        617        634        633        617        618        635        634        618        619        636        635        619        620        637        636        620        621        638        637        621        622        639        638        622        623        640        639        623        624        641        640        624        625        642        641        625        626        643        642        626        627        644        643        627        628        645        644        629        630        647        646        630        631        648        647        631        632        649        648        632        633        650        649        633        634        651        650        634        635        652        651        635        636        653        652        636        637        654        653        637        638        655        654        638        639        656        655        639        640        657        656        640        641        658        657        641        642        659        658        642        643        660        659        643        644        661        660        644        645        662        661        646        647        664        663        647        648        665        664        648        649        666        665        649        650        667        666        650        651        668        667        651        652        669        668        652        653        670        669        653        654        671        670        654        655        672        671        655        656        673        672        656        657        674        673        657        658        675        674        658        659        676        675        659        660        677        676        660        661        678        677        661        662        679        678        663        664        681        680        664        665        682        681        665        666        683        682        666        667        684        683        667        668        685        684        668        669        686        685        669        670        687        686        670        671        688        687        671        672        689        688        672        673        690        689        673        674        691        690        674        675        692        691        675        676        693        692        676        677        694        693        677        678        695        694        678        679        696        695        680        681        698        697        681        682        699        698        682        683        700        699        683        684        701        700        684        685        702        701        685        686        703        702        686        687        704        703        687        688        705        704        688        689        706        705        689        690        707        706        690        691        708        707        691        692        709        708        692        693        710        709        693        694        711        710        694        695        712        711        695        696        713        712        697        698        715        714        698        699        716        715        699        700        717        716        700        701        718        717        701        702        719        718        702        703        720        719        703        704        721        720        704        705        722        721        705        706        723        722        706        707        724        723        707        708        725        724        708        709        726        725        709        710        727        726        710        711        728        727        711        712        729        728        712        713        730        729        714        715        732        731        715        716        733        732        716        717        734        733        717        718        735        734        718        719        736        735        719        720        737        736        720        721        738        737        721        722        739        738        722        723        740        739        723        724        741        740        724        725        742        741        725        726        743        742        726        727        744        743        727        728        745        744        728        729        746        745        729        730        747        746        731        732        749        748        732        733        750        749        733        734        751        750        734        735        752        751        735        736        753        752        736        737        754        753        737        738        755        754        738        739        756        755        739        740        757        756        740        741        758        757        741        742        759        758        742        743        760        759        743        744        761        760        744        745        762        761        745        746        763        762        746        747        764        763        748        749        766        765        749        750        767        766        750        751        768        767        751        752        769        768        752        753        770        769        753        754        771        770        754        755        772        771        755        756        773        772        756        757        774        773        757        758        775        774        758        759        776        775        759        760        777        776        760        761        778        777        761        762        779        778        762        763        780        779        763        764        781        780        765        766        783        782        766        767        784        783        767        768        785        784        768        769        786        785        769        770        787        786        770        771        788        787        771        772        789        788        772        773        790        789        773        774        791        790        774        775        792        791        775        776        793        792        776        777        794        793        777        778        795        794        778        779        796        795        779        780        797        796        780        781        798        797        782        783        800        799        783        784        801        800        784        785        802        801        785        786        803        802        786        787        804        803        787        788        805        804        788        789        806        805        789        790        807        806        790        791        808        807        791        792        809        808        792        793        810        809        793        794        811        810        794        795        812        811        795        796        813        812        796        797        814        813        797        798        815        814        799        800        817        816        800        801        818        817        801        802        819        818        802        803        820        819        803        804        821        820        804        805        822        821        805        806        823        822        806        807        824        823        807        808        825        824        808        809        826        825        809        810        827        826        810        811        828        827        811        812        829        828        812        813        830        829        813        814        831        830        814        815        832        831        816        817        834        833        817        818        835        834        818        819        836        835        819        820        837        836        820        821        838        837        821        822        839        838        822        823        840        839        823        824        841        840        824        825        842        841        825        826        843        842        826        827        844        843        827        828        845        844        828        829        846        845        829        830        847        846        830        831        848        847        831        832        849        848        833        834        562        561        834        835        563        562        835        836        564        563        836        837        565        564        837        838        566        565        838        839        567        566        839        840        568        567        840        841        569        568        841        842        570        569        842        843        571        570        843        844        572        571        844        845        573        572        845        846        574        573        846        847        575        574        847        848        576        575        848        849        577        576        884        885        579        578        885        886        580        579        886        887        581        580        887        888        582        581        888        889        583        582        889        890        584        583        890        891        585        584        891        892        586        585        892        893        587        586        893        894        588        587        894        895        589        588        895        896        590        589        896        897        591        590        897        898        592        591        898        899        593        592        899        900        594        593        901        902        885        884        902        903        886        885        903        904        887        886        904        905        888        887        905        906        889        888        906        907        890        889        907        908        891        890        908        909        892        891        909        910        893        892        910        911        894        893        911        912        895        894        912        913        896        895        913        914        897        896        914        915        898        897        915        916        899        898        916        917        900        899        918        919        902        901        919        920        903        902        920        921        904        903        921        922        905        904        922        923        906        905        923        924        907        906        924        925        908        907        925        926        909        908        926        927        910        909        927        928        911        910        928        929        912        911        929        930        913        912        930        931        914        913        931        932        915        914        932        933        916        915        933        934        917        916        935        936        919        918        936        937        920        919        937        938        921        920        938        939        922        921        939        940        923        922        940        941        924        923        941        942        925        924        942        943        926        925        943        944        927        926        944        945        928        927        945        946        929        928        946        947        930        929        947        948        931        930        948        949        932        931        949        950        933        932        950        951        934        933        952        953        936        935        953        954        937        936        954        955        938        937        955        956        939        938        956        957        940        939        957        958        941        940        958        959        942        941        959        960        943        942        960        961        944        943        961        962        945        944        962        963        946        945        963        964        947        946        964        965        948        947        965        966        949        948        966        967        950        949        967        968        951        950        969        970        953        952        970        971        954        953        971        972        955        954        972        973        956        955        973        974        957        956        974        975        958        957        975        976        959        958        976        977        960        959        977        978        961        960        978        979        962        961        979        980        963        962        980        981        964        963        981        982        965        964        982        983        966        965        983        984        967        966        984        985        968        967        986        987        970        969        987        988        971        970        988        989        972        971        989        990        973        972        990        991        974        973        991        992        975        974        992        993        976        975        993        994        977        976        994        995        978        977        995        996        979        978        996        997        980        979        997        998        981        980        998        999        982        981        999       1000        983        982       1000       1001        984        983       1001       1002        985        984       1003       1004        987        986       1004       1005        988        987       1005       1006        989        988       1006       1007        990        989       1007       1008        991        990       1008       1009        992        991       1009       1010        993        992       1010       1011        994        993       1011       1012        995        994       1012       1013        996        995       1013       1014        997        996       1014       1015        998        997       1015       1016        999        998       1016       1017       1000        999       1017       1018       1001       1000       1018       1019       1002       1001       1020       1021       1004       1003       1021       1022       1005       1004       1022       1023       1006       1005       1023       1024       1007       1006       1024       1025       1008       1007       1025       1026       1009       1008       1026       1027       1010       1009       1027       1028       1011       1010       1028       1029       1012       1011       1029       1030       1013       1012       1030       1031       1014       1013       1031       1032       1015       1014       1032       1033       1016       1015       1033       1034       1017       1016       1034       1035       1018       1017       1035       1036       1019       1018       1037       1038       1021       1020       1038       1039       1022       1021       1039       1040       1023       1022       1040       1041       1024       1023       1041       1042       1025       1024       1042       1043       1026       1025       1043       1044       1027       1026       1044       1045       1028       1027       1045       1046       1029       1028       1046       1047       1030       1029       1047       1048       1031       1030       1048       1049       1032       1031       1049       1050       1033       1032       1050       1051       1034       1033       1051       1052       1035       1034       1052       1053       1036       1035       1054       1055       1038       1037       1055       1056       1039       1038       1056       1057       1040       1039       1057       1058       1041       1040       1058       1059       1042       1041       1059       1060       1043       1042       1060       1061       1044       1043       1061       1062       1045       1044       1062       1063       1046       1045       1063       1064       1047       1046       1064       1065       1048       1047       1065       1066       1049       1048       1066       1067       1050       1049       1067       1068       1051       1050       1068       1069       1052       1051       1069       1070       1053       1052       1071       1072       1055       1054       1072       1073       1056       1055       1073       1074       1057       1056       1074       1075       1058       1057       1075       1076       1059       1058       1076       1077       1060       1059       1077       1078       1061       1060       1078       1079       1062       1061       1079       1080       1063       1062       1080       1081       1064       1063       1081       1082       1065       1064       1082       1083       1066       1065       1083       1084       1067       1066       1084       1085       1068       1067       1085       1086       1069       1068       1086       1087       1070       1069       1088       1089       1072       1071       1089       1090       1073       1072       1090       1091       1074       1073       1091       1092       1075       1074       1092       1093       1076       1075       1093       1094       1077       1076       1094       1095       1078       1077       1095       1096       1079       1078       1096       1097       1080       1079       1097       1098       1081       1080       1098       1099       1082       1081       1099       1100       1083       1082       1100       1101       1084       1083       1101       1102       1085       1084       1102       1103       1086       1085       1103       1104       1087       1086       1105       1106       1089       1088       1106       1107       1090       1089       1107       1108       1091       1090       1108       1109       1092       1091       1109       1110       1093       1092       1110       1111       1094       1093       1111       1112       1095       1094       1112       1113       1096       1095       1113       1114       1097       1096       1114       1115       1098       1097       1115       1116       1099       1098       1116       1117       1100       1099       1117       1118       1101       1100       1118       1119       1102       1101       1119       1120       1103       1102       1120       1121       1104       1103       1122       1123       1106       1105       1123       1124       1107       1106       1124       1125       1108       1107       1125       1126       1109       1108       1126       1127       1110       1109       1127       1128       1111       1110       1128       1129       1112       1111       1129       1130       1113       1112       1130       1131       1114       1113       1131       1132       1115       1114       1132       1133       1116       1115       1133       1134       1117       1116       1134       1135       1118       1117       1135       1136       1119       1118       1136       1137       1120       1119       1137       1138       1121       1120        272        273       1123       1122        273        274       1124       1123        274        275       1125       1124        275        276       1126       1125        276        277       1127       1126        277        278       1128       1127        278        279       1129       1128        279        280       1130       1129        280        281       1131       1130        281        282       1132       1131        282        283       1133       1132        283        284       1134       1133        284        285       1135       1134        285        286       1136       1135        286        287       1137       1136        287        288       1138       1137 </DataArray>
<DataArray type="Int32"                                    Name="offsets"                                                      NumberOfComponents=" 1" format="ascii">
         4          8         12         16         20         24         28         32         36         40         44         48         52         56         60         64         68         72         76         80         84         88         92         96        100        104        108        112        116        120        124        128        132        136        140        144        148        152        156        160        164        168        172        176        180        184        188        192        196        200        204        208        212        216        220        224        228        232        236        240        244        248        252        256        260        264        268        272        276        280        284        288        292        296        300        304        308        312        316        320        324        328        332        336        340        344        348        352        356        360        364        368        372        376        380        384        388        392        396        400        404        408        412        416        420        424        428        432        436        440        444        448        452        456        460        464        468        472        476        480        484        488        492        496        500        504        508        512        516        520        524        528        532        536        540        544        548        552        556        560        564        568        572        576        580        584        588        592        596        600        604        608        612        616        620        624        628        632        636        640        644        648        652        656        660        664        668        672        676        680        684        688        692        696        700        704        708        712        716        720        724        728        732        736        740        744        748        752        756        760        764        768        772        776        780        784        788        792        796        800        804        808        812        816        820        824        828        832        836        840        844        848        852        856        860        864        868        872        876        880        884        888        892        896        900        904        908        912        916        920        924        928        932        936        940        944        948        952        956        960        964        968        972        976        980        984        988        992        996       1000       1004       1008       1012       1016       1020       1024       1028       1032       1036       1040       1044       1048       1052       1056       1060       1064       1068       1072       1076       1080       1084       1088       1092       1096       1100       1104       1108       1112       1116       1120       1124       1128       1132       1136       1140       1144       1148       1152       1156       1160       1164       1168       1172       1176       1180       1184       1188       1192       1196       1200       1204       1208       1212       1216       1220       1224       1228       1232       1236       1240       1244       1248       1252       1256       1260       1264       1268       1272       1276       1280       1284       1288       1292       1296       1300       1304       1308       1312       1316       1320       1324       1328       1332       1336       1340       1344       1348       1352       1356       1360       1364       1368       1372       1376       1380       1384       1388       1392       1396       1400       1404       1408       1412       1416       1420       1424       1428       1432       1436       1440       1444       1448       1452       1456       1460       1464       1468       1472       1476       1480       1484       1488       1492       1496       1500       1504       1508       1512       1516       1520       1524       1528       1532       1536       1540       1544       1548       1552       1556       1560       1564       1568       1572       1576       1580       1584       1588       1592       1596       1600       1604       1608       1612       1616       1620       1624       1628       1632       1636       1640       1644       1648       1652       1656       1660       1664       1668       1672       1676       1680       1684       1688       1692       1696       1700       1704       1708       1712       1716       1720       1724       1728       1732       1736       1740       1744       1748       1752       1756       1760       1764       1768       1772       1776       1780       1784       1788       1792       1796       1800       1804       1808       1812       1816       1820       1824       1828       1832       1836       1840       1844       1848       1852       1856       1860       1864       1868       1872       1876       1880       1884       1888       1892       1896       1900       1904       1908       1912       1916       1920       1924       1928       1932       1936       1940       1944       1948       1952       1956       1960       1964       1968       1972       1976       1980       1984       1988       1992       1996       2000       2004       2008       2012       2016       2020       2024       2028       2032       2036       2040       2044       2048       2052       2056       2060       2064       2068       2072       2076       2080       2084       2088       2092       2096       2100       2104       2108       2112       2116       2120       2124       2128       2132       2136       2140       2144       2148       2152       2156       2160       2164       2168       2172       2176       2180       2184       2188       2192       2196       2200       2204       2208       2212       2216       2220       2224       2228       2232       2236       2240       2244       2248       2252       2256       2260       2264       2268       2272       2276       2280       2284       2288       2292       2296       2300       2304       2308       2312       2316       2320       2324       2328       2332       2336       2340       2344       2348       2352       2356       2360       2364       2368       2372       2376       2380       2384       2388       2392       2396       2400       2404       2408       2412       2416       2420       2424       2428       2432       2436       2440       2444       2448       2452       2456       2460       2464       2468       2472       2476       2480       2484       2488       2492       2496       2500       2504       2508       2512       2516       2520       2524       2528       2532       2536       2540       2544       2548       2552       2556       2560       2564       2568       2572       2576       2580       2584       2588       2592       2596       2600       2604       2608       2612       2616       2620       2624       2628       2632       2636       2640       2644       2648       2652       2656       2660       2664       2668       2672       2676       2680       2684       2688       2692       2696       2700       2704       2708       2712       2716       2720       2724       2728       2732       2736       2740       2744       2748       2752       2756       2760       2764       2768       2772       2776       2780       2784       2788       2792       2796       2800       2804       2808       2812       2816       2820       2824       2828       2832       2836       2840       2844       2848       2852       2856       2860       2864       2868       2872       2876       2880       2884       2888       2892       2896       2900       2904       2908       2912       2916       2920       2924       2928       2932       2936       2940       2944       2948       2952       2956       2960       2964       2968       2972       2976       2980       2984       2988       2992       2996       3000       3004       3008       3012       3016       3020       3024       3028       3032       3036       3040       3044       3048       3052       3056       3060       3064       3068       3072       3076       3080       3084       3088       3092       3096       3100       3104       3108       3112       3116       3120       3124       3128       3132       3136       3140       3144       3148       3152       3156       3160       3164       3168       3172       3176       3180       3184       3188       3192       3196       3200       3204       3208       3212       3216       3220       3224       3228       3232       3236       3240       3244       3248       3252       3256       3260       3264       3268       3272       3276       3280       3284       3288       3292       3296       3300       3304       3308       3312       3316       3320       3324       3328       3332       3336       3340       3344       3348       3352       3356       3360       3364       3368       3372       3376       3380       3384       3388       3392       3396       3400       3404       3408       3412       3416       3420       3424       3428       3432       3436       3440       3444       3448       3452       3456       3460       3464       3468       3472       3476       3480       3484       3488       3492       3496       3500       3504       3508       3512       3516       3520       3524       3528       3532       3536       3540       3544       3548       3552       3556       3560       3564       3568       3572       3576       3580       3584       3588       3592       3596       3600       3604       3608       3612       3616       3620       3624       3628       3632       3636       3640       3644       3648       3652       3656       3660       3664       3668       3672       3676       3680       3684       3688       3692       3696       3700       3704       3708       3712       3716       3720       3724       3728       3732       3736       3740       3744       3748       3752       3756       3760       3764       3768       3772       3776       3780       3784       3788       3792       3796       3800       3804       3808       3812       3816       3820       3824       3828       3832       3836       3840       3844       3848       3852       3856       3860       3864       3868       3872       3876       3880       3884       3888       3892       3896       3900       3904       3908       3912       3916       3920       3924       3928       3932       3936       3940       3944       3948       3952       3956       3960       3964       3968       3972       3976       3980       3984       3988       3992       3996       4000       4004       4008       4012       4016       4020       4024       4028       4032       4036       4040       4044       4048       4052       4056       4060       4064       4068       4072       4076       4080       4084       4088       4092       4096 </DataArray>
<DataArray type="UInt8"                                    Name="types"                                                      NumberOfComponents=" 1" format="ascii">
         9          9          9          9          9          9          9          9          9          9          9          9          9          9          9          9          9          9          9          9          9          9          9          9          9          9          9          9          9          9          9          9          9          9          9          9          9          9          9          9          9          9          9          9          9          9          9          9          9          9          9          9          9          9          9          9          9          9          9          9          9          9          9          9          9          9          9          9          9          9          9          9          9          9          9          9          9          9          9          9          9          9          9          9          9          9          9          9          9          9          9          9          9          9          9          9          9          9          9          9          9          9          9          9          9          9          9          9          9          9          9          9          9          9          9          9          9          9          9          9          9          9          9          9          9          9          9          9          9          9          9          9          9          9          9          9          9          9          9          9          9          9          9          9          9          9          9          9          9          9          9          9          9          9          9          9          9          9          9          9          9          9          9          9          9          9          9          9          9          9          9          9          9          9          9          9          9          9          9          9          9          9          9          9          9          9          9          9          9          9          9          9          9          9          9          9          9          9          9          9          9          9          9          9          9          9          9          9          9          9          9          9          9          9          9          9          9          9          9          9          9          9          9          9          9          9          9          9          9          9          9          9          9          9          9          9          9          9          9          9          9          9          9          9          9          9          9          9          9          9          9          9          9          9          9          9          9          9          9          9          9          9          9          9          9          9          9          9          9          9          9          9          9          9          9          9          9          9          9          9          9          9          9          9          9          9          9          9          9          9          9          9          9          9          9          9          9          9          9          9          9          9          9          9          9          9          9          9          9          9          9          9          9          9          9          9          9          9          9          9          9          9          9          9          9          9          9          9          9          9          9          9          9          9          9          9          9          9          9          9          9          9          9          9          9          9          9          9          9          9          9          9          9          9          9          9          9          9          9          9          9          9          9          9          9          9          9          9          9          9          9          9          9          9          9          9          9          9          9          9          9          9          9          9          9          9          9          9          9          9          9          9          9          9          9          9          9          9          9          9          9          9          9          9          9          9          9          9          9          9          9          9          9          9          9          9          9          9          9          9          9          9          9          9          9          9          9          9          9          9          9          9          9          9          9          9          9          9          9          9          9          9          9          9          9          9          9          9          9          9          9          9          9          9          9          9          9          9          9          9          9          9          9          9          9          9          9          9          9          9          9          9          9          9          9          9          9          9          9          9          9          9          9          9          9          9          9          9          9          9          9          9          9          9          9          9          9          9          9          9          9          9          9          9          9          9          9          9          9          9          9          9          9          9          9          9          9          9          9          9          9          9          9          9          9          9          9          9          9          9          9          9          9          9          9          9          9          9          9          9          9          9          9          9          9          9          9          9          9          9          9          9          9          9          9          9          9          9          9          9          9          9          9          9          9          9          9          9          9          9          9          9          9          9          9          9          9          9          9          9          9          9          9          9          9          9          9          9          9          9          9          9          9          9          9          9          9          9          9          9          9          9          9          9          9          9          9          9          9          9          9          9          9          9          9          9          9          9          9          9          9          9          9          9          9          9          9          9          9          9          9          9          9          9          9          9          9          9          9          9          9          9          9          9          9          9          9          9          9          9          9          9          9          9          9          9          9          9          9          9          9          9          9          9          9          9          9          9          9          9          9          9          9          9          9          9          9          9          9          9          9          9          9          9          9          9          9          9          9          9          9          9          9          9          9          9          9          9          9          9          9          9          9          9          9          9          9          9          9          9          9          9          9          9          9          9          9          9          9          9          9          9          9          9          9          9          9          9          9          9          9          9          9          9          9          9          9          9          9          9          9          9          9          9          9          9          9          9          9          9          9          9          9          9          9          9          9          9          9          9          9          9          9          9          9          9          9          9          9          9          9          9          9          9          9          9          9          9          9          9          9          9          9          9          9          9          9          9          9          9          9          9          9          9          9          9          9          9          9          9          9          9          9          9          9          9          9          9          9          9          9          9          9          9          9          9          9          9          9          9          9          9          9          9          9          9          9          9          9          9          9          9          9          9          9          9          9          9          9          9          9          9          9          9          9          9          9          9          9          9          9          9          9          9          9          9          9          9          9          9          9          9          9          9          9          9          9          9          9          9          9          9          9          9          9          9          9          9          9          9          9          9          9          9          9          9          9          9          9          9          9          9          9          9          9          9          9          9          9          9          9          9          9          9          9          9          9          9          9          9          9          9          9          9          9          9          9          9          9          9          9          9          9          9          9          9          9          9          9          9          9          9          9          9          9          9          9          9          9          9          9          9          9          9          9          9          9          9          9          9          9          9          9          9          9          9          9          9          9          9          9          9          9          9          9          9          9          9          9          9          9          9          9          9          9          9          9          9          9          9          9          9          9          9          9          9          9          9          9          9          9          9          9          9          9          9          9          9          9          9          9          9          9          9          9          9          9          9          9          9          9          9          9          9          9          9          9          9          9          9          9          9          9          9 </DataArray>
</Cells>
<CellData>
<DataArray type="Int32"                                    Name="material"                                                      NumberOfComponents=" 1" format="ascii">
         1          1          1          1          1          1          1          1          1          1          1          1          1          1          1          1          1          1          1          1          1          1          1          1          1          1          1          1          1          1          1          1          1          1          1          1          1          1          1          1          1          1          1          1          1          1          1          1          1          1          1          1          1          1          1          1          1          1          1          1          1          1          1          1          1          1          1          1          1          1          1          1          1          1          1          1          1          1          1          1          1          1          1          1          1          1          1          1          1          1          1          1          1          1          1          1          1          1          1          1          1          1          1          1          1          1          1          1          1          1          1          1          1          1          1          1          1          1          1          1          1          1          1          1          1          1          1          1          1          1          1          1          1          1          1          1          1          1          1          1          1          1          1          1          1          1          1          1          1          1          1          1          1          1          1          1          1          1          1          1          1          1          1          1          1          1          1          1          1          1          1          1          1          1          1          1          1          1          1          1          1          1          1          1          1          1          1          1          1          1          1          1          1          1          1          1          1          1          1          1          1          1          1          1          1          1          1          1          1          1          1          1          1          1          1          1          1          1          1          1          1          1          1          1          1          1          1          1          1          1          1          1          1          1          1          1          1          1          1          1          1          1          1          1          1          1          1          1          1          1          1          1          1          1          1          1          1          1          1          1          1          1          1          1          1          1          1          1          1          1          1          1          1          1          1          1          1          1          1          1          1          1          1          1          1          1          1          1          1          1          1          1          1          1          1          1          1          1          1          1          1          1          1          1          1          1          1          1          1          1          1          1          1          1          1          1          1          1          1          1          1          1          1          1          1          1          1          1          1          1          1          1          1          1          1          1          1          1          1          1          1          1          1          1          1          1          1          1          1          1          1          1          1          1          1          1          1          1          1          1          1          1          1          1          1          1          1          1          1          1          1          1          1          1          1          1          1          1          1          1          1          1          1          1          1          1          1          1          1          1          1          1          1          1          1          1          1          1          1          1          1          1          1          1          1          1          1          1          1          1          1          1          1          1          1          1          1          1          1          1          1          1          1          1          1          1          1          1          1          1          1          1          1          1          1          1          1          1          1          1          1          1          1          1          1          1          1          1          1          1          1          1          1          1          1          1          1          1          1          1          1          1          1          1          1          1          1          1          1          1          1          1          1          1          1          1          1          1          1          1          1          1          1          1          1          1          1          1          1          1          1          1          1          1          1          1          1          1          1          1          1          1          1          1          1          1          1          1          1          1          1          1          1          1          1          1          1          1          1          1          1          1          1          1          1          1          1          1          1          1          1          1          1          1          1          1          1          1          1          1          1          1          1          1          1          1          1          1          1          1          1          1          1          1          1          1          1          1          1          1          1          1          1          1          1          1          1          1          1          1          1          1          1          1          1          1          1          1          1          1          1          1          1          1          1          1          1          1          1          1          1          1          1          1          1          1          1          1          1          1          1          1          1          1          1          1          1          1          1          1          1          1          1          1          1          1          1          1          1          1          1          1          1          1          1          1          1          1          1          1          1          1          1          1          1          1          1          1          1          1          1          1          1          1          1          1          1          1          1          1          1          1          1          1          1          1          1          1          1          1          1          1          1          1          1          1          1          1          1          1          1          1          1          1          1          1          1          1          1          1          1          1          1          1          1          1          1          1          1          1          1          1          1          1          1          1          1          1          1          1          1          1          1          1          1          1          1          1          1          1          1          1          1          1          1          1          1          1          1          1          1          1          1          1          1          1          1          1          1          1          1          1          1          1          1          1          1          1          1          1          1          1          1          1          1          1          1          1          1          1          1          1          1          1          1          1          1          1          1          1          1          1          1          1          1          1          1          1          1          1          1          1          1          1          1          1          1          1          1          1          1          1          1          1          1          1          1          1          1          1          1          1          1          1          1          1          1          1          1          1          1          1          1          1          1          1          1          1          1          1          1          1          1          1          1          1          1          1          1          1          1          1          1          1          1          1          1          1          1          1          1          1          1          1          1          1          1          1          1          1          1          1          1          1          1          1          1          1          1          1          1          1          1          1          1          1          1          1          1          1          1          1          1          1          1          1          1          1          1          1          1          1          1          1          1          1          1          1          1          1          1          1          1          1          1          1          1          1          1          1          1          1          1          1          1          1          1          1          1          1          1          1          1          1          1          1          1          1          1          1          1          1          1          1          1          1          1          1          1          1          1          1          1          1          1          1          1          1          1          1          1          1          1          1          1          1          1          1          1          1          1          1          1          1          1          1          1          1          1          1          1          1          1          1          1          1          1          1          1          1          1          1          1          1          1          1          1          1          1          1          1          1          1          1          1          1          1          1          1          1          1          1          1          1          1          1          1          1          1          1          1          1          1          1          1          1          1          1          1          1          1          1          1          1          1          1          1          1          1          1          1          1          1          1          1          1          1          1          1          1          1          1          1          1 </DataArray>
</CellData>
<PointData>
<DataArray type="Float64"                                    Name="u"                                                      NumberOfComponents=" 3" format="ascii">
              0.000002857               0.000000000               1.000000000               0.000001011               0.000000000               1.000000000               0.000000275              -0.000000000               1.000000000               0.000000017              -0.000000000               1.000000000              -0.000000030               0.000000000               1.000000000              -0.000000073               0.000000000               1.000000000              -0.000000130               0.000000000               1.000000000              -0.000000146               0.000000000               1.000000000              -0.000000089               0.000000000               1.000000000               0.000000043               0.000000000               1.000000000               0.000000230               0.000000000               1.000000000               0.000000369               0.000000000               1.000000000               0.000000345               0.000000000               1.000000000               0.000000076               0.000000000               1.000000000              -0.000000546               0.000000000               1.000000000              -0.000001600               0.000000000               1.000000000              -0.000003138               0.000000000               1.000000000               0.000002867               0.000004819               1.000000000               0.000001039               0.000004423               1.000000000               0.000000281               0.000004467               1.000000000               0.000000042               0.000004679               1.000000000               0.000000005               0.000005201               1.000000000              -0.000000043               0.000005780               1.000000000              -0.000000157               0.000006412               1.000000000              -0.000000216               0.000006818               1.000000000              -0.000000151               0.000007084               1.000000000              -0.000000089               0.000007457               1.000000000              -0.000000097               0.000007853               1.000000000              -0.000000190               0.000008419               1.000000000              -0.000000481               0.000009219               1.000000000              -0.000001049               0.000010244               1.000000000              -0.000001934               0.000011526               1.000000000              -0.000003225               0.000013058               1.000000000              -0.000004969               0.000014842               1.000000000               0.000002695               0.000009559               1.000000000               0.000001013               0.000008796               1.000000000               0.000000362               0.000008855               1.000000000               0.000000151               0.000009362               1.000000000               0.000000036               0.000010335               1.000000000              -0.000000052               0.000011564               1.000000000              -0.000000169               0.000012831               1.000000000              -0.000000297               0.000013675               1.000000000              -0.000000445               0.000014364               1.000000000              -0.000000685               0.000015239               1.000000000              -0.000001036               0.000016229               1.000000000              -0.000001583               0.000017519               1.000000000              -0.000002424               0.000019194               1.000000000              -0.000003577               0.000021289               1.000000000              -0.000005066               0.000023843               1.000000000              -0.000006953               0.000026854               1.000000000              -0.000009277               0.000030306               1.000000000               0.000002436               0.000014247               1.000000000               0.000001035               0.000013065               1.000000000               0.000000506               0.000013173               1.000000000               0.000000299               0.000014009               1.000000000               0.000000142               0.000015503               1.000000000              -0.000000080               0.000017343               1.000000000              -0.000000350               0.000019196               1.000000000              -0.000000620               0.000020628               1.000000000              -0.000000950               0.000022015               1.000000000              -0.000001469               0.000023704               1.000000000              -0.000002339               0.000025584               1.000000000              -0.000003602               0.000027892               1.000000000              -0.000005275               0.000030691               1.000000000              -0.000007368               0.000034041               1.000000000              -0.000009830               0.000037993               1.000000000              -0.000012694               0.000042582               1.000000000              -0.000015984               0.000047847               1.000000000               0.000002158               0.000018851               1.000000000               0.000001114               0.000017203               1.000000000               0.000000733               0.000017407               1.000000000               0.000000539               0.000018614               1.000000000               0.000000234               0.000020714               1.000000000              -0.000000236               0.000023167               1.000000000              -0.000000679               0.000025713               1.000000000              -0.000001190               0.000027855               1.000000000              -0.000001906               0.000030206               1.000000000              -0.000002973               0.000033028               1.000000000              -0.000004491               0.000036264               1.000000000              -0.000006478               0.000040053               1.000000000              -0.000009013               0.000044467               1.000000000              -0.000012046               0.000049524               1.000000000              -0.000015513               0.000055295               1.000000000              -0.000019447               0.000061805               1.000000000              -0.000023810               0.000069086               1.000000000               0.000001789               0.000023255               1.000000000               0.000001291               0.000021176               1.000000000               0.000001122               0.000021577               1.000000000               0.000000818               0.000023280               1.000000000               0.000000269               0.000025982               1.000000000              -0.000000443               0.000029252               1.000000000              -0.000001281               0.000032540               1.000000000              -0.000002218               0.000035733               1.000000000              -0.000003364               0.000039414               1.000000000              -0.000004981               0.000043776               1.000000000              -0.000007151               0.000048804               1.000000000              -0.000009923               0.000054527               1.000000000              -0.000013295               0.000061041               1.000000000              -0.000017183               0.000068313               1.000000000              -0.000021568               0.000076384               1.000000000              -0.000026462               0.000085236               1.000000000              -0.000031816               0.000094831               1.000000000               0.000001495               0.000027472               1.000000000               0.000001618               0.000025041               1.000000000               0.000001530               0.000025677               1.000000000               0.000001100               0.000028034               1.000000000               0.000000229               0.000031523               1.000000000              -0.000000884               0.000035660               1.000000000              -0.000001990               0.000040154               1.000000000              -0.000003208               0.000044837               1.000000000              -0.000004842               0.000050246               1.000000000              -0.000007099               0.000056594               1.000000000              -0.000010010               0.000063703               1.000000000              -0.000013583               0.000071715               1.000000000              -0.000017776               0.000080599               1.000000000              -0.000022480               0.000090399               1.000000000              -0.000027709               0.000101019               1.000000000              -0.000033467               0.000112408               1.000000000              -0.000039692               0.000124552               1.000000000               0.000001274               0.000031494               1.000000000               0.000002020               0.000028802               1.000000000               0.000001990               0.000029805               1.000000000               0.000001259               0.000032868               1.000000000               0.000000061               0.000037392               1.000000000              -0.000001262               0.000042826               1.000000000              -0.000002659               0.000048861               1.000000000              -0.000004299               0.000055273               1.000000000              -0.000006487               0.000062781               1.000000000              -0.000009394               0.000071392               1.000000000              -0.000013027               0.000080854               1.000000000              -0.000017304               0.000091362               1.000000000              -0.000022172               0.000102917               1.000000000              -0.000027608               0.000115381               1.000000000              -0.000033636               0.000128781               1.000000000              -0.000040180               0.000143013               1.000000000              -0.000047191               0.000157971               1.000000000               0.000001089               0.000035280               1.000000000               0.000002499               0.000032459               1.000000000               0.000002391               0.000033947               1.000000000               0.000001331               0.000037955               1.000000000              -0.000000179               0.000043698               1.000000000              -0.000001848               0.000050674               1.000000000              -0.000003587               0.000058397               1.000000000              -0.000005529               0.000066970               1.000000000              -0.000008208               0.000076800               1.000000000              -0.000011711               0.000087793               1.000000000              -0.000015927               0.000099855               1.000000000              -0.000020769               0.000113127               1.000000000              -0.000026196               0.000127627               1.000000000              -0.000032249               0.000143231               1.000000000              -0.000038867               0.000159895               1.000000000              -0.000045972               0.000177560               1.000000000              -0.000053439               0.000195908               1.000000000               0.000000903               0.000038945               1.000000000               0.000002820               0.000036227               1.000000000               0.000002862               0.000037339               1.000000000               0.000001917               0.000040968               1.000000000               0.000000485               0.000046376               1.000000000              -0.000001239               0.000053163               1.000000000              -0.000002859               0.000060881               1.000000000              -0.000004408               0.000069295               1.000000000              -0.000006281               0.000078628               1.000000000              -0.000008899               0.000089026               1.000000000              -0.000012027               0.000100393               1.000000000              -0.000015624               0.000112744               1.000000000              -0.000019781               0.000126168               1.000000000              -0.000024380               0.000140715               1.000000000              -0.000029466               0.000156310               1.000000000              -0.000035065               0.000172934               1.000000000              -0.000041046               0.000190511               1.000000000               0.000000754               0.000042345               1.000000000               0.000002976               0.000039949               1.000000000               0.000003203               0.000040896               1.000000000               0.000002366               0.000044136               1.000000000               0.000001070               0.000049197               1.000000000              -0.000000484               0.000055749               1.000000000              -0.000002027               0.000063287               1.000000000              -0.000003330               0.000071553               1.000000000              -0.000004645               0.000080615               1.000000000              -0.000006420               0.000090587               1.000000000              -0.000008664               0.000101440               1.000000000              -0.000011267               0.000113129               1.000000000              -0.000014316               0.000125694               1.000000000              -0.000017700               0.000139242               1.000000000              -0.000021402               0.000153802               1.000000000              -0.000025491               0.000169249               1.000000000              -0.000030039               0.000185662               1.000000000               0.000000648               0.000045458               1.000000000               0.000002966               0.000043580               1.000000000               0.000003281               0.000044429               1.000000000               0.000002648               0.000047405               1.000000000               0.000001622               0.000052183               1.000000000               0.000000284               0.000058393               1.000000000              -0.000001098               0.000065635               1.000000000              -0.000002281               0.000073681               1.000000000              -0.000003315               0.000082533               1.000000000              -0.000004489               0.000092242               1.000000000              -0.000005981               0.000102790               1.000000000              -0.000007769               0.000114091               1.000000000              -0.000009822               0.000126116               1.000000000              -0.000012150               0.000138903               1.000000000              -0.000014644               0.000152518               1.000000000              -0.000017374               0.000167015               1.000000000              -0.000020365               0.000182421               1.000000000               0.000000535               0.000048181               1.000000000               0.000002710               0.000046882               1.000000000               0.000003107               0.000047804               1.000000000               0.000002747               0.000050647               1.000000000               0.000001922               0.000055095               1.000000000               0.000000834               0.000060866               1.000000000              -0.000000319               0.000067761               1.000000000              -0.000001355               0.000075663               1.000000000              -0.000002225               0.000084402               1.000000000              -0.000003013               0.000093958               1.000000000              -0.000003944               0.000104273               1.000000000              -0.000005057               0.000115354               1.000000000              -0.000006306               0.000127040               1.000000000              -0.000007721               0.000139337               1.000000000              -0.000009284               0.000152344               1.000000000              -0.000010909               0.000166145               1.000000000              -0.000012562               0.000180673               1.000000000               0.000000395               0.000050426               1.000000000               0.000002248               0.000049718               1.000000000               0.000002695               0.000050811               1.000000000               0.000002467               0.000053522               1.000000000               0.000001878               0.000057693               1.000000000               0.000001128               0.000063167               1.000000000               0.000000231               0.000069794               1.000000000              -0.000000647               0.000077491               1.000000000              -0.000001375               0.000086075               1.000000000              -0.000001900               0.000095455               1.000000000              -0.000002421               0.000105610               1.000000000              -0.000003037               0.000116510               1.000000000              -0.000003713               0.000128031               1.000000000              -0.000004491               0.000140153               1.000000000              -0.000005352               0.000152840               1.000000000              -0.000006183               0.000166146               1.000000000              -0.000006981               0.000180063               1.000000000               0.000000253               0.000052091               1.000000000               0.000001604               0.000051916               1.000000000               0.000001971               0.000053137               1.000000000               0.000001862               0.000055792               1.000000000               0.000001538               0.000059823               1.000000000               0.000001043               0.000065064               1.000000000               0.000000402               0.000071495               1.000000000              -0.000000215               0.000078991               1.000000000              -0.000000702               0.000087396               1.000000000              -0.000001032               0.000096617               1.000000000              -0.000001318               0.000106655               1.000000000              -0.000001637               0.000117421               1.000000000              -0.000001962               0.000128815               1.000000000              -0.000002327               0.000140847               1.000000000              -0.000002734               0.000153357               1.000000000              -0.000003122               0.000166347               1.000000000              -0.000003492               0.000179941               1.000000000               0.000000122               0.000053082               1.000000000               0.000000824               0.000053286               1.000000000               0.000001024               0.000054630               1.000000000               0.000001032               0.000057256               1.000000000               0.000000864               0.000061195               1.000000000               0.000000589               0.000066322               1.000000000               0.000000300               0.000072611               1.000000000              -0.000000012               0.000079930               1.000000000              -0.000000277               0.000088198               1.000000000              -0.000000449               0.000097356               1.000000000              -0.000000562               0.000107291               1.000000000              -0.000000683               0.000117911               1.000000000              -0.000000817               0.000129204               1.000000000              -0.000000961               0.000141114               1.000000000              -0.000001114               0.000153491               1.000000000              -0.000001287               0.000166322               1.000000000              -0.000001465               0.000179744               1.000000000               0.000000000               0.000053409               1.000000000               0.000000000               0.000053752               1.000000000               0.000000000               0.000055159               1.000000000               0.000000000               0.000057762               1.000000000               0.000000000               0.000061666               1.000000000               0.000000000               0.000066776               1.000000000              -0.000000000               0.000073007               1.000000000              -0.000000000               0.000080277               1.000000000               0.000000000               0.000088502               1.000000000              -0.000000000               0.000097598               1.000000000              -0.000000000               0.000107469               1.000000000              -0.000000000               0.000118039               1.000000000              -0.000000000               0.000129291               1.000000000               0.000000000               0.000141143               1.000000000               0.000000000               0.000153469               1.000000000              -0.000000000               0.000166241               1.000000000              -0.000000000               0.000179593               1.000000000               0.000002857               0.000000000               1.000000000               0.000001011               0.000000000               1.000000000               0.000000275              -0.000000000               1.000000000               0.000000017              -0.000000000               1.000000000              -0.000000030               0.000000000               1.000000000              -0.000000073               0.000000000               1.000000000              -0.000000130               0.000000000               1.000000000              -0.000000146               0.000000000               1.000000000              -0.000000089               0.000000000               1.000000000               0.000000043               0.000000000               1.000000000               0.000000230               0.000000000               1.000000000               0.000000369               0.000000000               1.000000000               0.000000345               0.000000000               1.000000000               0.000000076               0.000000000               1.000000000              -0.000000546               0.000000000               1.000000000              -0.000001600               0.000000000               1.000000000              -0.000003138               0.000000000               1.000000000               0.000002867              -0.000004819               1.000000000               0.000001039              -0.000004423               1.000000000               0.000000281              -0.000004467               1.000000000               0.000000042              -0.000004679               1.000000000               0.000000005              -0.000005201               1.000000000              -0.000000043              -0.000005780               1.000000000              -0.000000157              -0.000006412               1.000000000              -0.000000216              -0.000006818               1.000000000              -0.000000151              -0.000007084               1.000000000              -0.000000089              -0.000007457               1.000000000              -0.000000097              -0.000007853               1.000000000              -0.000000190              -0.000008419               1.000000000              -0.000000481              -0.000009219               1.000000000              -0.000001049              -0.000010244               1.000000000              -0.000001934              -0.000011526               1.000000000              -0.000003225              -0.000013058               1.000000000              -0.000004969              -0.000014842               1.000000000               0.000002695              -0.000009559               1.000000000               0.000001013              -0.000008796               1.000000000               0.000000362              -0.000008855               1.000000000               0.000000151              -0.000009362               1.000000000               0.000000036              -0.000010335               1.000000000              -0.000000052              -0.000011564               1.000000000              -0.000000169              -0.000012831               1.000000000              -0.000000297              -0.000013675               1.000000000              -0.000000445              -0.000014364               1.000000000              -0.000000685              -0.000015239               1.000000000              -0.000001036              -0.000016229               1.000000000              -0.000001583              -0.000017519               1.000000000              -0.000002424              -0.000019194               1.000000000              -0.000003577              -0.000021289               1.000000000              -0.000005066              -0.000023843               1.000000000              -0.000006953              -0.000026854               1.000000000              -0.000009277              -0.000030306               1.000000000               0.000002436              -0.000014247               1.000000000               0.000001035              -0.000013065               1.000000000               0.000000506              -0.000013173               1.000000000               0.000000299              -0.000014009               1.000000000               0.000000142              -0.000015503               1.000000000              -0.000000080              -0.000017343               1.000000000              -0.000000350              -0.000019196               1.000000000              -0.000000620              -0.000020628               1.000000000              -0.000000950              -0.000022015               1.000000000              -0.000001469              -0.000023704               1.000000000              -0.000002339              -0.000025584               1.000000000              -0.000003602              -0.000027892               1.000000000              -0.000005275              -0.000030691               1.000000000              -0.000007368              -0.000034041               1.000000000              -0.000009830              -0.000037993               1.000000000              -0.000012694              -0.000042582               1.000000000              -0.000015984              -0.000047847               1.000000000               0.000002158              -0.000018851               1.000000000               0.000001114              -0.000017203               1.000000000               0.000000733              -0.000017407               1.000000000               0.000000539              -0.000018614               1.000000000               0.000000234              -0.000020714               1.000000000              -0.000000236              -0.000023167               1.000000000              -0.000000679              -0.000025713               1.000000000              -0.000001190              -0.000027855               1.000000000              -0.000001906              -0.000030206               1.000000000              -0.000002973              -0.000033028               1.000000000              -0.000004491              -0.000036264               1.000000000              -0.000006478              -0.000040053               1.000000000              -0.000009013              -0.000044467               1.000000000              -0.000012046              -0.000049524               1.000000000              -0.000015513              -0.000055295               1.000000000              -0.000019447              -0.000061805               1.000000000              -0.000023810              -0.000069086               1.000000000               0.000001789              -0.000023255               1.000000000               0.000001291              -0.000021176               1.000000000               0.000001122              -0.000021577               1.000000000               0.000000818              -0.000023280               1.000000000               0.000000269              -0.000025982               1.000000000              -0.000000443              -0.000029252               1.000000000              -0.000001281              -0.000032540               1.000000000              -0.000002218              -0.000035733               1.000000000              -0.000003364              -0.000039414               1.000000000              -0.000004981              -0.000043776               1.000000000              -0.000007151              -0.000048804               1.000000000              -0.000009923              -0.000054527               1.000000000              -0.000013295              -0.000061041               1.000000000              -0.000017183              -0.000068313               1.000000000              -0.000021568              -0.000076384               1.000000000              -0.000026462              -0.000085236               1.000000000              -0.000031816              -0.000094831               1.000000000               0.000001495              -0.000027472               1.000000000               0.000001618              -0.000025041               1.000000000               0.000001530              -0.000025677               1.000000000               0.000001100              -0.000028034               1.000000000               0.000000229              -0.000031523               1.000000000              -0.000000884              -0.000035660               1.000000000              -0.000001990              -0.000040154               1.000000000              -0.000003208              -0.000044837               1.000000000              -0.000004842              -0.000050246               1.000000000              -0.000007099              -0.000056594               1.000000000              -0.000010010              -0.000063703               1.000000000              -0.000013583              -0.000071715               1.000000000              -0.000017776              -0.000080599               1.000000000              -0.000022480              -0.000090399               1.000000000              -0.000027709              -0.000101019               1.000000000              -0.000033467              -0.000112408               1.000000000              -0.000039692              -0.000124552               1.000000000               0.000001274              -0.000031494               1.000000000               0.000002020              -0.000028802               1.000000000               0.000001990              -0.000029805               1.000000000               0.000001259              -0.000032868               1.000000000               0.000000061              -0.000037392               1.000000000              -0.000001262              -0.000042826               1.000000000              -0.000002659              -0.000048861               1.000000000              -0.000004299              -0.000055273               1.000000000              -0.000006487              -0.000062781               1.000000000              -0.000009394              -0.000071392               1.000000000              -0.000013027              -0.000080854               1.000000000              -0.000017304              -0.000091362               1.000000000              -0.000022172              -0.000102917               1.000000000              -0.000027608              -0.000115381               1.000000000              -0.000033636              -0.000128781               1.000000000              -0.000040180              -0.000143013               1.000000000              -0.000047191              -0.000157971               1.000000000               0.000001089              -0.000035280               1.000000000               0.000002499              -0.000032459               1.000000000               0.000002391              -0.000033947               1.000000000               0.000001331              -0.000037955               1.000000000              -0.000000179              -0.000043698               1.000000000              -0.000001848              -0.000050674               1.000000000              -0.000003587              -0.000058397               1.000000000              -0.000005529              -0.000066970               1.000000000              -0.000008208              -0.000076800               1.000000000              -0.000011711              -0.000087793               1.000000000              -0.000015927              -0.000099855               1.000000000              -0.000020769              -0.000113127               1.000000000              -0.000026196              -0.000127627               1.000000000              -0.000032249              -0.000143231               1.000000000              -0.000038867              -0.000159895               1.000000000              -0.000045972              -0.000177560               1.000000000              -0.000053439              -0.000195908               1.000000000               0.000000903              -0.000038945               1.000000000               0.000002820              -0.000036227               1.000000000               0.000002862              -0.000037339               1.000000000               0.000001917              -0.000040968               1.000000000               0.000000485              -0.000046376               1.000000000              -0.000001239              -0.000053163               1.000000000              -0.000002859              -0.000060881               1.000000000              -0.000004408              -0.000069295               1.000000000              -0.000006281              -0.000078628               1.000000000              -0.000008899              -0.000089026               1.000000000              -0.000012027              -0.000100393               1.000000000              -0.000015624              -0.000112744               1.000000000              -0.000019781              -0.000126168               1.000000000              -0.000024380              -0.000140715               1.000000000              -0.000029466              -0.000156310               1.000000000              -0.000035065              -0.000172934               1.000000000              -0.000041046              -0.000190511               1.000000000               0.000000754              -0.000042345               1.000000000               0.000002976              -0.000039949               1.000000000               0.000003203              -0.000040896               1.000000000               0.000002366              -0.000044136               1.000000000               0.000001070              -0.000049197               1.000000000              -0.000000484              -0.000055749               1.000000000              -0.000002027              -0.000063287               1.000000000              -0.000003330              -0.000071553               1.000000000              -0.000004645              -0.000080615               1.000000000              -0.000006420              -0.000090587               1.000000000              -0.000008664              -0.000101440               1.000000000              -0.000011267              -0.000113129               1.000000000              -0.000014316              -0.000125694               1.000000000              -0.000017700              -0.000139242               1.000000000              -0.000021402              -0.000153802               1.000000000              -0.000025491              -0.000169249               1.000000000              -0.000030039              -0.000185662               1.000000000               0.000000648              -0.000045458               1.000000000               0.000002966              -0.000043580               1.000000000               0.000003281              -0.000044429               1.000000000               0.000002648              -0.000047405               1.000000000               0.000001622              -0.000052183               1.000000000               0.000000284              -0.000058393               1.000000000              -0.000001098              -0.000065635               1.000000000              -0.000002281              -0.000073681               1.000000000              -0.000003315              -0.000082533               1.000000000              -0.000004489              -0.000092242               1.000000000              -0.000005981              -0.000102790               1.000000000              -0.000007769              -0.000114091               1.000000000              -0.000009822              -0.000126116               1.000000000              -0.000012150              -0.000138903               1.000000000              -0.000014644              -0.000152518               1.000000000              -0.000017374              -0.000167015               1.000000000              -0.000020365              -0.000182421               1.000000000               0.000000535              -0.000048181               1.000000000               0.000002710              -0.000046882               1.000000000               0.000003107              -0.000047804               1.000000000               0.000002747              -0.000050647               1.000000000               0.000001922              -0.000055095               1.000000000               0.000000834              -0.000060866               1.000000000              -0.000000319              -0.000067761               1.000000000              -0.000001355              -0.000075663               1.000000000              -0.000002225              -0.000084402               1.000000000              -0.000003013              -0.000093958               1.000000000              -0.000003944              -0.000104273               1.000000000              -0.000005057              -0.000115354               1.000000000              -0.000006306              -0.000127040               1.000000000              -0.000007721              -0.000139337               1.000000000              -0.000009284              -0.000152344               1.000000000              -0.000010909              -0.000166145               1.000000000              -0.000012562              -0.000180673               1.000000000               0.000000395              -0.000050426               1.000000000               0.000002248              -0.000049718               1.000000000               0.000002695              -0.000050811               1.000000000               0.000002467              -0.000053522               1.000000000               0.000001878              -0.000057693               1.000000000               0.000001128              -0.000063167               1.000000000               0.000000231              -0.000069794               1.000000000              -0.000000647              -0.000077491               1.000000000              -0.000001375              -0.000086075               1.000000000              -0.000001900              -0.000095455               1.000000000              -0.000002421              -0.000105610               1.000000000              -0.000003037              -0.000116510               1.000000000              -0.000003713              -0.000128031               1.000000000              -0.000004491              -0.000140153               1.000000000              -0.000005352              -0.000152840               1.000000000              -0.000006183              -0.000166146               1.000000000              -0.000006981              -0.000180063               1.000000000               0.000000253              -0.000052091               1.000000000               0.000001604              -0.000051916               1.000000000               0.000001971              -0.000053137               1.000000000               0.000001862              -0.000055792               1.000000000               0.000001538              -0.000059823               1.000000000               0.000001043              -0.000065064               1.000000000               0.000000402              -0.000071495               1.000000000              -0.000000215              -0.000078991               1.000000000              -0.000000702              -0.000087396               1.000000000              -0.000001032              -0.000096617               1.000000000              -0.000001318              -0.000106655               1.000000000              -0.000001637              -0.000117421               1.000000000              -0.000001962              -0.000128815               1.000000000              -0.000002327              -0.000140847               1.000000000              -0.000002734              -0.000153357               1.000000000              -0.000003122              -0.000166347               1.000000000              -0.000003492              -0.000179941               1.000000000               0.000000122              -0.000053082               1.000000000               0.000000824              -0.000053286               1.000000000               0.000001024              -0.000054630               1.000000000               0.000001032              -0.000057256               1.000000000               0.000000864              -0.000061195               1.000000000               0.000000589              -0.000066322               1.000000000               0.000000300              -0.000072611               1.000000000              -0.000000012              -0.000079930               1.000000000              -0.000000277              -0.000088198               1.000000000              -0.000000449              -0.000097356               1.000000000              -0.000000562              -0.000107291               1.000000000              -0.000000683              -0.000117911               1.000000000              -0.000000817              -0.000129204               1.000000000              -0.000000961              -0.000141114               1.000000000              -0.000001114              -0.000153491               1.000000000              -0.000001287              -0.000166322               1.000000000              -0.000001465              -0.000179744               1.000000000              -0.000000000              -0.000053409               1.000000000               0.000000000              -0.000053752               1.000000000               0.000000000              -0.000055159               1.000000000               0.000000000              -0.000057762               1.000000000               0.000000000              -0.000061666               1.000000000               0.000000000              -0.000066776               1.000000000               0.000000000              -0.000073007               1.000000000               0.000000000              -0.000080277               1.000000000              -0.000000000              -0.000088502               1.000000000              -0.000000000              -0.000097598               1.000000000              -0.000000000              -0.000107469               1.000000000              -0.000000000              -0.000118039               1.000000000              -0.000000000              -0.000129291               1.000000000               0.000000000              -0.000141143               1.000000000               0.000000000              -0.000153469               1.000000000               0.000000000              -0.000166241               1.000000000               0.000000000              -0.000179593               1.000000000              -0.000002857              -0.000000000               1.000000000              -0.000001011               0.000000000               1.000000000              -0.000000275               0.000000000               1.000000000              -0.000000017               0.000000000               1.000000000               0.000000030               0.000000000               1.000000000               0.000000073              -0.000000000               1.000000000               0.000000130              -0.000000000               1.000000000               0.000000146               0.000000000               1.000000000               0.000000089               0.000000000               1.000000000              -0.000000043               0.000000000               1.000000000              -0.000000230               0.000000000               1.000000000              -0.000000369              -0.000000000               1.000000000              -0.000000345              -0.000000000               1.000000000              -0.000000076              -0.000000000               1.000000000               0.000000546              -0.000000000               1.000000000               0.000001600              -0.000000000               1.000000000               0.000003138              -0.000000000               1.000000000              -0.000002867              -0.000004819               1.000000000              -0.000001039              -0.000004423               1.000000000              -0.000000281              -0.000004467               1.000000000              -0.000000042              -0.000004679               1.000000000              -0.000000005              -0.000005201               1.000000000               0.000000043              -0.000005780               1.000000000               0.000000157              -0.000006412               1.000000000               0.000000216              -0.000006818               1.000000000               0.000000151              -0.000007084               1.000000000               0.000000089              -0.000007457               1.000000000               0.000000097              -0.000007853               1.000000000               0.000000190              -0.000008419               1.000000000               0.000000481              -0.000009219               1.000000000               0.000001049              -0.000010244               1.000000000               0.000001934              -0.000011526               1.000000000               0.000003225              -0.000013058               1.000000000               0.000004969              -0.000014842               1.000000000              -0.000002695              -0.000009559               1.000000000              -0.000001013              -0.000008796               1.000000000              -0.000000362              -0.000008855               1.000000000              -0.000000151              -0.000009362               1.000000000              -0.000000036              -0.000010335               1.000000000               0.000000052              -0.000011564               1.000000000               0.000000169              -0.000012831               1.000000000               0.000000297              -0.000013675               1.000000000               0.000000445              -0.000014364               1.000000000               0.000000685              -0.000015239               1.000000000               0.000001036              -0.000016229               1.000000000               0.000001583              -0.000017519               1.000000000               0.000002424              -0.000019194               1.000000000               0.000003577              -0.000021289               1.000000000               0.000005066              -0.000023843               1.000000000               0.000006953              -0.000026854               1.000000000               0.000009277              -0.000030306               1.000000000              -0.000002436              -0.000014247               1.000000000              -0.000001035              -0.000013065               1.000000000              -0.000000506              -0.000013173               1.000000000              -0.000000299              -0.000014009               1.000000000              -0.000000142              -0.000015503               1.000000000               0.000000080              -0.000017343               1.000000000               0.000000350              -0.000019196               1.000000000               0.000000620              -0.000020628               1.000000000               0.000000950              -0.000022015               1.000000000               0.000001469              -0.000023704               1.000000000               0.000002339              -0.000025584               1.000000000               0.000003602              -0.000027892               1.000000000               0.000005275              -0.000030691               1.000000000               0.000007368              -0.000034041               1.000000000               0.000009830              -0.000037993               1.000000000               0.000012694              -0.000042582               1.000000000               0.000015984              -0.000047847               1.000000000              -0.000002158              -0.000018851               1.000000000              -0.000001114              -0.000017203               1.000000000              -0.000000733              -0.000017407               1.000000000              -0.000000539              -0.000018614               1.000000000              -0.000000234              -0.000020714               1.000000000               0.000000236              -0.000023167               1.000000000               0.000000679              -0.000025713               1.000000000               0.000001190              -0.000027855               1.000000000               0.000001906              -0.000030206               1.000000000               0.000002973              -0.000033028               1.000000000               0.000004491              -0.000036264               1.000000000               0.000006478              -0.000040053               1.000000000               0.000009013              -0.000044467               1.000000000               0.000012046              -0.000049524               1.000000000               0.000015513              -0.000055295               1.000000000               0.000019447              -0.000061805               1.000000000               0.000023810              -0.000069086               1.000000000              -0.000001789              -0.000023255               1.000000000              -0.000001291              -0.000021176               1.000000000              -0.000001122              -0.000021577               1.000000000              -0.000000818              -0.000023280               1.000000000              -0.000000269              -0.000025982               1.000000000               0.000000443              -0.000029252               1.000000000               0.000001281              -0.000032540               1.000000000               0.000002218              -0.000035733               1.000000000               0.000003364              -0.000039414               1.000000000               0.000004981              -0.000043776               1.000000000               0.000007151              -0.000048804               1.000000000               0.000009923              -0.000054527               1.000000000               0.000013295              -0.000061041               1.000000000               0.000017183              -0.000068313               1.000000000               0.000021568              -0.000076384               1.000000000               0.000026462              -0.000085236               1.000000000               0.000031816              -0.000094831               1.000000000              -0.000001495              -0.000027472               1.000000000              -0.000001618              -0.000025041               1.000000000              -0.000001530              -0.000025677               1.000000000              -0.000001100              -0.000028034               1.000000000              -0.000000229              -0.000031523               1.000000000               0.000000884              -0.000035660               1.000000000               0.000001990              -0.000040154               1.000000000               0.000003208              -0.000044837               1.000000000               0.000004842              -0.000050246               1.000000000               0.000007099              -0.000056594               1.000000000               0.000010010              -0.000063703               1.000000000               0.000013583              -0.000071715               1.000000000               0.000017776              -0.000080599               1.000000000               0.000022480              -0.000090399               1.000000000               0.000027709              -0.000101019               1.000000000               0.000033467              -0.000112408               1.000000000               0.000039692              -0.000124552               1.000000000              -0.000001274              -0.000031494               1.000000000              -0.000002020              -0.000028802               1.000000000              -0.000001990              -0.000029805               1.000000000              -0.000001259              -0.000032868               1.000000000              -0.000000061              -0.000037392               1.000000000               0.000001262              -0.000042826               1.000000000               0.000002659              -0.000048861               1.000000000               0.000004299              -0.000055273               1.000000000               0.000006487              -0.000062781               1.000000000               0.000009394              -0.000071392               1.000000000               0.000013027              -0.000080854               1.000000000               0.000017304              -0.000091362               1.000000000               0.000022172              -0.000102917               1.000000000               0.000027608              -0.000115381               1.000000000               0.000033636              -0.000128781               1.000000000               0.000040180              -0.000143013               1.000000000               0.000047191              -0.000157971               1.000000000              -0.000001089              -0.000035280               1.000000000              -0.000002499              -0.000032459               1.000000000              -0.000002391              -0.000033947               1.000000000              -0.000001331              -0.000037955               1.000000000               0.000000179              -0.000043698               1.000000000               0.000001848              -0.000050674               1.000000000               0.000003587              -0.000058397               1.000000000               0.000005529              -0.000066970               1.000000000               0.000008208              -0.000076800               1.000000000               0.000011711              -0.000087793               1.000000000               0.000015927              -0.000099855               1.000000000               0.000020769              -0.000113127               1.000000000               0.000026196              -0.000127627               1.000000000               0.000032249              -0.000143231               1.000000000               0.000038867              -0.000159895               1.000000000               0.000045972              -0.000177560               1.000000000               0.000053439              -0.000195908               1.000000000              -0.000000903              -0.000038945               1.000000000              -0.000002820              -0.000036227               1.000000000              -0.000002862              -0.000037339               1.000000000              -0.000001917              -0.000040968               1.000000000              -0.000000485              -0.000046376               1.000000000               0.000001239              -0.000053163               1.000000000               0.000002859              -0.000060881               1.000000000               0.000004408              -0.000069295               1.000000000               0.000006281              -0.000078628               1.000000000               0.000008899              -0.000089026               1.000000000               0.000012027              -0.000100393               1.000000000               0.000015624              -0.000112744               1.000000000               0.000019781              -0.000126168               1.000000000               0.000024380              -0.000140715               1.000000000               0.000029466              -0.000156310               1.000000000               0.000035065              -0.000172934               1.000000000               0.000041046              -0.000190511               1.000000000              -0.000000754              -0.000042345               1.000000000              -0.000002976              -0.000039949               1.000000000              -0.000003203              -0.000040896               1.000000000              -0.000002366              -0.000044136               1.000000000              -0.000001070              -0.000049197               1.000000000               0.000000484              -0.000055749               1.000000000               0.000002027              -0.000063287               1.000000000               0.000003330              -0.000071553               1.000000000               0.000004645              -0.000080615               1.000000000               0.000006420              -0.000090587               1.000000000               0.000008664              -0.000101440               1.000000000               0.000011267              -0.000113129               1.000000000               0.000014316              -0.000125694               1.000000000               0.000017700              -0.000139242               1.000000000               0.000021402              -0.000153802               1.000000000               0.000025491              -0.000169249               1.000000000               0.000030039              -0.000185662               1.000000000              -0.000000648              -0.000045458               1.000000000              -0.000002966              -0.000043580               1.000000000              -0.000003281              -0.000044429               1.000000000              -0.000002648              -0.000047405               1.000000000              -0.000001622              -0.000052183               1.000000000              -0.000000284              -0.000058393               1.000000000               0.000001098              -0.000065635               1.000000000               0.000002281              -0.000073681               1.000000000               0.000003315              -0.000082533               1.000000000               0.000004489              -0.000092242               1.000000000               0.000005981              -0.000102790               1.000000000               0.000007769              -0.000114091               1.000000000               0.000009822              -0.000126116               1.000000000               0.000012150              -0.000138903               1.000000000               0.000014644              -0.000152518               1.000000000               0.000017374              -0.000167015               1.000000000               0.000020365              -0.000182421               1.000000000              -0.000000535              -0.000048181               1.000000000              -0.000002710              -0.000046882               1.000000000              -0.000003107              -0.000047804               1.000000000              -0.000002747              -0.000050647               1.000000000              -0.000001922              -0.000055095               1.000000000              -0.000000834              -0.000060866               1.000000000               0.000000319              -0.000067761               1.000000000               0.000001355              -0.000075663               1.000000000               0.000002225              -0.000084402               1.000000000               0.000003013              -0.000093958               1.000000000               0.000003944              -0.000104273               1.000000000               0.000005057              -0.000115354               1.000000000               0.000006306              -0.000127040               1.000000000               0.000007721              -0.000139337               1.000000000               0.000009284              -0.000152344               1.000000000               0.000010909              -0.000166145               1.000000000               0.000012562              -0.000180673               1.000000000              -0.000000395              -0.000050426               1.000000000              -0.000002248              -0.000049718               1.000000000              -0.000002695              -0.000050811               1.000000000              -0.000002467              -0.000053522               1.000000000              -0.000001878              -0.000057693               1.000000000              -0.000001128              -0.000063167               1.000000000              -0.000000231              -0.000069794               1.000000000               0.000000647              -0.000077491               1.000000000               0.000001375              -0.000086075               1.000000000               0.000001900              -0.000095455               1.000000000               0.000002421              -0.000105610               1.000000000               0.000003037              -0.000116510               1.000000000               0.000003713              -0.000128031               1.000000000               0.000004491              -0.000140153               1.000000000               0.000005352              -0.000152840               1.000000000               0.000006183              -0.000166146               1.000000000               0.000006981              -0.000180063               1.000000000              -0.000000253              -0.000052091               1.000000000              -0.000001604              -0.000051916               1.000000000              -0.000001971              -0.000053137               1.000000000              -0.000001862              -0.000055792               1.000000000              -0.000001538              -0.000059823               1.000000000              -0.000001043              -0.000065064               1.000000000              -0.000000402              -0.000071495               1.000000000               0.000000215              -0.000078991               1.000000000               0.000000702              -0.000087396               1.000000000               0.000001032              -0.000096617               1.000000000               0.000001318              -0.000106655               1.000000000               0.000001637              -0.000117421               1.000000000               0.000001962              -0.000128815               1.000000000               0.000002327              -0.000140847               1.000000000               0.000002734              -0.000153357               1.000000000               0.000003122              -0.000166347               1.000000000               0.000003492              -0.000179941               1.000000000              -0.000000122              -0.000053082               1.000000000              -0.000000824              -0.000053286               1.000000000              -0.000001024              -0.000054630               1.000000000              -0.000001032              -0.000057256               1.000000000              -0.000000864              -0.000061195               1.000000000              -0.000000589              -0.000066322               1.000000000              -0.000000300              -0.000072611               1.000000000               0.000000012              -0.000079930               1.000000000               0.000000277              -0.000088198               1.000000000               0.000000449              -0.000097356               1.000000000               0.000000562              -0.000107291               1.000000000               0.000000683              -0.000117911               1.000000000               0.000000817              -0.000129204               1.000000000               0.000000961              -0.000141114               1.000000000               0.000001114              -0.000153491               1.000000000               0.000001287              -0.000166322               1.000000000               0.000001465              -0.000179744               1.000000000              -0.000000000              -0.000053409               1.000000000               0.000000000              -0.000053752               1.000000000               0.000000000              -0.000055159               1.000000000               0.000000000              -0.000057762               1.000000000               0.000000000              -0.000061666               1.000000000               0.000000000              -0.000066776               1.000000000               0.000000000              -0.000073007               1.000000000               0.000000000              -0.000080277               1.000000000              -0.000000000              -0.000088502               1.000000000              -0.000000000              -0.000097598               1.000000000              -0.000000000              -0.000107469               1.000000000              -0.000000000              -0.000118039               1.000000000              -0.000000000              -0.000129291               1.000000000               0.000000000              -0.000141143               1.000000000               0.000000000              -0.000153469               1.000000000               0.000000000              -0.000166241               1.000000000               0.000000000              -0.000179593               1.000000000              -0.000002857              -0.000000000               1.000000000              -0.000001011               0.000000000               1.000000000              -0.000000275               0.000000000               1.000000000              -0.000000017               0.000000000               1.000000000               0.000000030               0.000000000               1.000000000               0.000000073              -0.000000000               1.000000000               0.000000130              -0.000000000               1.000000000               0.000000146               0.000000000               1.000000000               0.000000089               0.000000000               1.000000000              -0.000000043               0.000000000               1.000000000              -0.000000230               0.000000000               1.000000000              -0.000000369              -0.000000000               1.000000000              -0.000000345              -0.000000000               1.000000000              -0.000000076              -0.000000000               1.000000000               0.000000546              -0.000000000               1.000000000               0.000001600              -0.000000000               1.000000000               0.000003138              -0.000000000               1.000000000              -0.000002867               0.000004819               1.000000000              -0.000001039               0.000004423               1.000000000              -0.000000281               0.000004467               1.000000000              -0.000000042               0.000004679               1.000000000              -0.000000005               0.000005201               1.000000000               0.000000043               0.000005780               1.000000000               0.000000157               0.000006412               1.000000000               0.000000216               0.000006818               1.000000000               0.000000151               0.000007084               1.000000000               0.000000089               0.000007457               1.000000000               0.000000097               0.000007853               1.000000000               0.000000190               0.000008419               1.000000000               0.000000481               0.000009219               1.000000000               0.000001049               0.000010244               1.000000000               0.000001934               0.000011526               1.000000000               0.000003225               0.000013058               1.000000000               0.000004969               0.000014842               1.000000000              -0.000002695               0.000009559               1.000000000              -0.000001013               0.000008796               1.000000000              -0.000000362               0.000008855               1.000000000              -0.000000151               0.000009362               1.000000000              -0.000000036               0.000010335               1.000000000               0.000000052               0.000011564               1.000000000               0.000000169               0.000012831               1.000000000               0.000000297               0.000013675               1.000000000               0.000000445               0.000014364               1.000000000               0.000000685               0.000015239               1.000000000               0.000001036               0.000016229               1.000000000               0.000001583               0.000017519               1.000000000               0.000002424               0.000019194               1.000000000               0.000003577               0.000021289               1.000000000               0.000005066               0.000023843               1.000000000               0.000006953               0.000026854               1.000000000               0.000009277               0.000030306               1.000000000              -0.000002436               0.000014247               1.000000000              -0.000001035               0.000013065               1.000000000              -0.000000506               0.000013173               1.000000000              -0.000000299               0.000014009               1.000000000              -0.000000142               0.000015503               1.000000000               0.000000080               0.000017343               1.000000000               0.000000350               0.000019196               1.000000000               0.000000620               0.000020628               1.000000000               0.000000950               0.000022015               1.000000000               0.000001469               0.000023704               1.000000000               0.000002339               0.000025584               1.000000000               0.000003602               0.000027892               1.000000000               0.000005275               0.000030691               1.000000000               0.000007368               0.000034041               1.000000000               0.000009830               0.000037993               1.000000000               0.000012694               0.000042582               1.000000000               0.000015984               0.000047847               1.000000000              -0.000002158               0.000018851               1.000000000              -0.000001114               0.000017203               1.000000000              -0.000000733               0.000017407               1.000000000              -0.000000539               0.000018614               1.000000000              -0.000000234               0.000020714               1.000000000               0.000000236               0.000023167               1.000000000               0.000000679               0.000025713               1.000000000               0.000001190               0.000027855               1.000000000               0.000001906               0.000030206               1.000000000               0.000002973               0.000033028               1.000000000               0.000004491               0.000036264               1.000000000               0.000006478               0.000040053               1.000000000               0.000009013               0.000044467               1.000000000               0.000012046               0.000049524               1.000000000               0.000015513               0.000055295               1.000000000               0.000019447               0.000061805               1.000000000               0.000023810               0.000069086               1.000000000              -0.000001789               0.000023255               1.000000000              -0.000001291               0.000021176               1.000000000              -0.000001122               0.000021577               1.000000000              -0.000000818               0.000023280               1.000000000              -0.000000269               0.000025982               1.000000000               0.000000443               0.000029252               1.000000000               0.000001281               0.000032540               1.000000000               0.000002218               0.000035733               1.000000000               0.000003364               0.000039414               1.000000000               0.000004981               0.000043776               1.000000000               0.000007151               0.000048804               1.000000000               0.000009923               0.000054527               1.000000000               0.000013295               0.000061041               1.000000000               0.000017183               0.000068313               1.000000000               0.000021568               0.000076384               1.000000000               0.000026462               0.000085236               1.000000000               0.000031816               0.000094831               1.000000000              -0.000001495               0.000027472               1.000000000              -0.000001618               0.000025041               1.000000000              -0.000001530               0.000025677               1.000000000              -0.000001100               0.000028034               1.000000000              -0.000000229               0.000031523               1.000000000               0.000000884               0.000035660               1.000000000               0.000001990               0.000040154               1.000000000               0.000003208               0.000044837               1.000000000               0.000004842               0.000050246               1.000000000               0.000007099               0.000056594               1.000000000               0.000010010               0.000063703               1.000000000               0.000013583               0.000071715               1.000000000               0.000017776               0.000080599               1.000000000               0.000022480               0.000090399               1.000000000               0.000027709               0.000101019               1.000000000               0.000033467               0.000112408               1.000000000               0.000039692               0.000124552               1.000000000              -0.000001274               0.000031494               1.000000000              -0.000002020               0.000028802               1.000000000              -0.000001990               0.000029805               1.000000000              -0.000001259               0.000032868               1.000000000              -0.000000061               0.000037392               1.000000000               0.000001262               0.000042826               1.000000000               0.000002659               0.000048861               1.000000000               0.000004299               0.000055273               1.000000000               0.000006487               0.000062781               1.000000000               0.000009394               0.000071392               1.000000000               0.000013027               0.000080854               1.000000000               0.000017304               0.000091362               1.000000000               0.000022172               0.000102917               1.000000000               0.000027608               0.000115381               1.000000000               0.000033636               0.000128781               1.000000000               0.000040180               0.000143013               1.000000000               0.000047191               0.000157971               1.000000000              -0.000001089               0.000035280               1.000000000              -0.000002499               0.000032459               1.000000000              -0.000002391               0.000033947               1.000000000              -0.000001331               0.000037955               1.000000000               0.000000179               0.000043698               1.000000000               0.000001848               0.000050674               1.000000000               0.000003587               0.000058397               1.000000000               0.000005529               0.000066970               1.000000000               0.000008208               0.000076800               1.000000000               0.000011711               0.000087793               1.000000000               0.000015927               0.000099855               1.000000000               0.000020769               0.000113127               1.000000000               0.000026196               0.000127627               1.000000000               0.000032249               0.000143231               1.000000000               0.000038867               0.000159895               1.000000000               0.000045972               0.000177560               1.000000000               0.000053439               0.000195908               1.000000000              -0.000000903               0.000038945               1.000000000              -0.000002820               0.000036227               1.000000000              -0.000002862               0.000037339               1.000000000              -0.000001917               0.000040968               1.000000000              -0.000000485               0.000046376               1.000000000               0.000001239               0.000053163               1.000000000               0.000002859               0.000060881               1.000000000               0.000004408               0.000069295               1.000000000               0.000006281               0.000078628               1.000000000               0.000008899               0.000089026               1.000000000               0.000012027               0.000100393               1.000000000               0.000015624               0.000112744               1.000000000               0.000019781               0.000126168               1.000000000               0.000024380               0.000140715               1.000000000               0.000029466               0.000156310               1.000000000               0.000035065               0.000172934               1.000000000               0.000041046               0.000190511               1.000000000              -0.000000754               0.000042345               1.000000000              -0.000002976               0.000039949               1.000000000              -0.000003203               0.000040896               1.000000000              -0.000002366               0.000044136               1.000000000              -0.000001070               0.000049197               1.000000000               0.000000484               0.000055749               1.000000000               0.000002027               0.000063287               1.000000000               0.000003330               0.000071553               1.000000000               0.000004645               0.000080615               1.000000000               0.000006420               0.000090587               1.000000000               0.000008664               0.000101440               1.000000000               0.000011267               0.000113129               1.000000000               0.000014316               0.000125694               1.000000000               0.000017700               0.000139242               1.000000000               0.000021402               0.000153802               1.000000000               0.000025491               0.000169249               1.000000000               0.000030039               0.000185662               1.000000000              -0.000000648               0.000045458               1.000000000              -0.000002966               0.000043580               1.000000000              -0.000003281               0.000044429               1.000000000              -0.000002648               0.000047405               1.000000000              -0.000001622               0.000052183               1.000000000              -0.000000284               0.000058393               1.000000000               0.000001098               0.000065635               1.000000000               0.000002281               0.000073681               1.000000000               0.000003315               0.000082533               1.000000000               0.000004489               0.000092242               1.000000000               0.000005981               0.000102790               1.000000000               0.000007769               0.000114091               1.000000000               0.000009822               0.000126116               1.000000000               0.000012150               0.000138903               1.000000000               0.000014644               0.000152518               1.000000000               0.000017374               0.000167015               1.000000000               0.000020365               0.000182421               1.000000000              -0.000000535               0.000048181               1.000000000              -0.000002710               0.000046882               1.000000000              -0.000003107               0.000047804               1.000000000              -0.000002747               0.000050647               1.000000000              -0.000001922               0.000055095               1.000000000              -0.000000834               0.000060866               1.000000000               0.000000319               0.000067761               1.000000000               0.000001355               0.000075663               1.000000000               0.000002225               0.000084402               1.000000000               0.000003013               0.000093958               1.000000000               0.000003944               0.000104273               1.000000000               0.000005057               0.000115354               1.000000000               0.000006306               0.000127040               1.000000000               0.000007721               0.000139337               1.000000000               0.000009284               0.000152344               1.000000000               0.000010909               0.000166145               1.000000000               0.000012562               0.000180673               1.000000000              -0.000000395               0.000050426               1.000000000              -0.000002248               0.000049718               1.000000000              -0.000002695               0.000050811               1.000000000              -0.000002467               0.000053522               1.000000000              -0.000001878               0.000057693               1.000000000              -0.000001128               0.000063167               1.000000000              -0.000000231               0.000069794               1.000000000               0.000000647               0.000077491               1.000000000               0.000001375               0.000086075               1.000000000               0.000001900               0.000095455               1.000000000               0.000002421               0.000105610               1.000000000               0.000003037               0.000116510               1.000000000               0.000003713               0.000128031               1.000000000               0.000004491               0.000140153               1.000000000               0.000005352               0.000152840               1.000000000               0.000006183               0.000166146               1.000000000               0.000006981               0.000180063               1.000000000              -0.000000253               0.000052091               1.000000000              -0.000001604               0.000051916               1.000000000              -0.000001971               0.000053137               1.000000000              -0.000001862               0.000055792               1.000000000              -0.000001538               0.000059823               1.000000000              -0.000001043               0.000065064               1.000000000              -0.000000402               0.000071495               1.000000000               0.000000215               0.000078991               1.000000000               0.000000702               0.000087396               1.000000000               0.000001032               0.000096617               1.000000000               0.000001318               0.000106655               1.000000000               0.000001637               0.000117421               1.000000000               0.000001962               0.000128815               1.000000000               0.000002327               0.000140847               1.000000000               0.000002734               0.000153357               1.000000000               0.000003122               0.000166347               1.000000000               0.000003492               0.000179941               1.000000000              -0.000000122               0.000053082               1.000000000              -0.000000824               0.000053286               1.000000000              -0.000001024               0.000054630               1.000000000              -0.000001032               0.000057256               1.000000000              -0.000000864               0.000061195               1.000000000              -0.000000589               0.000066322               1.000000000              -0.000000300               0.000072611               1.000000000               0.000000012               0.000079930               1.000000000               0.000000277               0.000088198               1.000000000               0.000000449               0.000097356               1.000000000               0.000000562               0.000107291               1.000000000               0.000000683               0.000117911               1.000000000               0.000000817               0.000129204               1.000000000               0.000000961               0.000141114               1.000000000               0.000001114               0.000153491               1.000000000               0.000001287               0.000166322               1.000000000               0.000001465               0.000179744               1.000000000               0.000000000               0.000053409               1.000000000               0.000000000               0.000053752               1.000000000               0.000000000               0.000055159               1.000000000               0.000000000               0.000057762               1.000000000               0.000000000               0.000061666               1.000000000               0.000000000               0.000066776               1.000000000              -0.000000000               0.000073007               1.000000000              -0.000000000               0.000080277               1.000000000               0.000000000               0.000088502               1.000000000              -0.000000000               0.000097598               1.000000000              -0.000000000               0.000107469               1.000000000              -0.000000000               0.000118039               1.000000000              -0.000000000               0.000129291               1.000000000               0.000000000               0.000141143               1.000000000               0.000000000               0.000153469               1.000000000              -0.000000000               0.000166241               1.000000000              -0.000000000               0.000179593               1.000000000 </DataArray>
<DataArray type="Float64"                                    Name="defo"                                                      NumberOfComponents=" 3" format="ascii">
              0.000002857               0.000000000               1.000000000               0.000001011               0.000000000               1.000000000               0.000000275              -0.000000000               1.000000000               0.000000017              -0.000000000               1.000000000              -0.000000030               0.000000000               1.000000000              -0.000000073               0.000000000               1.000000000              -0.000000130               0.000000000               1.000000000              -0.000000146               0.000000000               1.000000000              -0.000000089               0.000000000               1.000000000               0.000000043               0.000000000               1.000000000               0.000000230               0.000000000               1.000000000               0.000000369               0.000000000               1.000000000               0.000000345               0.000000000               1.000000000               0.000000076               0.000000000               1.000000000              -0.000000546               0.000000000               1.000000000              -0.000001600               0.000000000               1.000000000              -0.000003138               0.000000000               1.000000000               0.000002867               0.000004819               1.000000000               0.000001039               0.000004423               1.000000000               0.000000281               0.000004467               1.000000000               0.000000042               0.000004679               1.000000000               0.000000005               0.000005201               1.000000000              -0.000000043               0.000005780               1.000000000              -0.000000157               0.000006412               1.000000000              -0.000000216               0.000006818               1.000000000              -0.000000151               0.000007084               1.000000000              -0.000000089               0.000007457               1.000000000              -0.000000097               0.000007853               1.000000000              -0.000000190               0.000008419               1.000000000              -0.000000481               0.000009219               1.000000000              -0.000001049               0.000010244               1.000000000              -0.000001934               0.000011526               1.000000000              -0.000003225               0.000013058               1.000000000              -0.000004969               0.000014842               1.000000000               0.000002695               0.000009559               1.000000000               0.000001013               0.000008796               1.000000000               0.000000362               0.000008855               1.000000000               0.000000151               0.000009362               1.000000000               0.000000036               0.000010335               1.000000000              -0.000000052               0.000011564               1.000000000              -0.000000169               0.000012831               1.000000000              -0.000000297               0.000013675               1.000000000              -0.000000445               0.000014364               1.000000000              -0.000000685               0.000015239               1.000000000              -0.000001036               0.000016229               1.000000000              -0.000001583               0.000017519               1.000000000              -0.000002424               0.000019194               1.000000000              -0.000003577               0.000021289               1.000000000              -0.000005066               0.000023843               1.000000000              -0.000006953               0.000026854               1.000000000              -0.000009277               0.000030306               1.000000000               0.000002436               0.000014247               1.000000000               0.000001035               0.000013065               1.000000000               0.000000506               0.000013173               1.000000000               0.000000299               0.000014009               1.000000000               0.000000142               0.000015503               1.000000000              -0.000000080               0.000017343               1.000000000              -0.000000350               0.000019196               1.000000000              -0.000000620               0.000020628               1.000000000              -0.000000950               0.000022015               1.000000000              -0.000001469               0.000023704               1.000000000              -0.000002339               0.000025584               1.000000000              -0.000003602               0.000027892               1.000000000              -0.000005275               0.000030691               1.000000000              -0.000007368               0.000034041               1.000000000              -0.000009830               0.000037993               1.000000000              -0.000012694               0.000042582               1.000000000              -0.000015984               0.000047847               1.000000000               0.000002158               0.000018851               1.000000000               0.000001114               0.000017203               1.000000000               0.000000733               0.000017407               1.000000000               0.000000539               0.000018614               1.000000000               0.000000234               0.000020714               1.000000000              -0.000000236               0.000023167               1.000000000              -0.000000679               0.000025713               1.000000000              -0.000001190               0.000027855               1.000000000              -0.000001906               0.000030206               1.000000000              -0.000002973               0.000033028               1.000000000              -0.000004491               0.000036264               1.000000000              -0.000006478               0.000040053               1.000000000              -0.000009013               0.000044467               1.000000000              -0.000012046               0.000049524               1.000000000              -0.000015513               0.000055295               1.000000000              -0.000019447               0.000061805               1.000000000              -0.000023810               0.000069086               1.000000000               0.000001789               0.000023255               1.000000000               0.000001291               0.000021176               1.000000000               0.000001122               0.000021577               1.000000000               0.000000818               0.000023280               1.000000000               0.000000269               0.000025982               1.000000000              -0.000000443               0.000029252               1.000000000              -0.000001281               0.000032540               1.000000000              -0.000002218               0.000035733               1.000000000              -0.000003364               0.000039414               1.000000000              -0.000004981               0.000043776               1.000000000              -0.000007151               0.000048804               1.000000000              -0.000009923               0.000054527               1.000000000              -0.000013295               0.000061041               1.000000000              -0.000017183               0.000068313               1.000000000              -0.000021568               0.000076384               1.000000000              -0.000026462               0.000085236               1.000000000              -0.000031816               0.000094831               1.000000000               0.000001495               0.000027472               1.000000000               0.000001618               0.000025041               1.000000000               0.000001530               0.000025677               1.000000000               0.000001100               0.000028034               1.000000000               0.000000229               0.000031523               1.000000000              -0.000000884               0.000035660               1.000000000              -0.000001990               0.000040154               1.000000000              -0.000003208               0.000044837               1.000000000              -0.000004842               0.000050246               1.000000000              -0.000007099               0.000056594               1.000000000              -0.000010010               0.000063703               1.000000000              -0.000013583               0.000071715               1.000000000              -0.000017776               0.000080599               1.000000000              -0.000022480               0.000090399               1.000000000              -0.000027709               0.000101019               1.000000000              -0.000033467               0.000112408               1.000000000              -0.000039692               0.000124552               1.000000000               0.000001274               0.000031494               1.000000000               0.000002020               0.000028802               1.000000000               0.000001990               0.000029805               1.000000000               0.000001259               0.000032868               1.000000000               0.000000061               0.000037392               1.000000000              -0.000001262               0.000042826               1.000000000              -0.000002659               0.000048861               1.000000000              -0.000004299               0.000055273               1.000000000              -0.000006487               0.000062781               1.000000000              -0.000009394               0.000071392               1.000000000              -0.000013027               0.000080854               1.000000000              -0.000017304               0.000091362               1.000000000              -0.000022172               0.000102917               1.000000000              -0.000027608               0.000115381               1.000000000              -0.000033636               0.000128781               1.000000000              -0.000040180               0.000143013               1.000000000              -0.000047191               0.000157971               1.000000000               0.000001089               0.000035280               1.000000000               0.000002499               0.000032459               1.000000000               0.000002391               0.000033947               1.000000000               0.000001331               0.000037955               1.000000000              -0.000000179               0.000043698               1.000000000              -0.000001848               0.000050674               1.000000000              -0.000003587               0.000058397               1.000000000              -0.000005529               0.000066970               1.000000000              -0.000008208               0.000076800               1.000000000              -0.000011711               0.000087793               1.000000000              -0.000015927               0.000099855               1.000000000              -0.000020769               0.000113127               1.000000000              -0.000026196               0.000127627               1.000000000              -0.000032249               0.000143231               1.000000000              -0.000038867               0.000159895               1.000000000              -0.000045972               0.000177560               1.000000000              -0.000053439               0.000195908               1.000000000               0.000000903               0.000038945               1.000000000               0.000002820               0.000036227               1.000000000               0.000002862               0.000037339               1.000000000               0.000001917               0.000040968               1.000000000               0.000000485               0.000046376               1.000000000              -0.000001239               0.000053163               1.000000000              -0.000002859               0.000060881               1.000000000              -0.000004408               0.000069295               1.000000000              -0.000006281               0.000078628               1.000000000              -0.000008899               0.000089026               1.000000000              -0.000012027               0.000100393               1.000000000              -0.000015624               0.000112744               1.000000000              -0.000019781               0.000126168               1.000000000              -0.000024380               0.000140715               1.000000000              -0.000029466               0.000156310               1.000000000              -0.000035065               0.000172934               1.000000000              -0.000041046               0.000190511               1.000000000               0.000000754               0.000042345               1.000000000               0.000002976               0.000039949               1.000000000               0.000003203               0.000040896               1.000000000               0.000002366               0.000044136               1.000000000               0.000001070               0.000049197               1.000000000              -0.000000484               0.000055749               1.000000000              -0.000002027               0.000063287               1.000000000              -0.000003330               0.000071553               1.000000000              -0.000004645               0.000080615               1.000000000              -0.000006420               0.000090587               1.000000000              -0.000008664               0.000101440               1.000000000              -0.000011267               0.000113129               1.000000000              -0.000014316               0.000125694               1.000000000              -0.000017700               0.000139242               1.000000000              -0.000021402               0.000153802               1.000000000              -0.000025491               0.000169249               1.000000000              -0.000030039               0.000185662               1.000000000               0.000000648               0.000045458               1.000000000               0.000002966               0.000043580               1.000000000               0.000003281               0.000044429               1.000000000               0.000002648               0.000047405               1.000000000               0.000001622               0.000052183               1.000000000               0.000000284               0.000058393               1.000000000              -0.000001098               0.000065635               1.000000000              -0.000002281               0.000073681               1.000000000              -0.000003315               0.000082533               1.000000000              -0.000004489               0.000092242               1.000000000              -0.000005981               0.000102790               1.000000000              -0.000007769               0.000114091               1.000000000              -0.000009822               0.000126116               1.000000000              -0.000012150               0.000138903               1.000000000              -0.000014644               0.000152518               1.000000000              -0.000017374               0.000167015               1.000000000              -0.000020365               0.000182421               1.000000000               0.000000535               0.000048181               1.000000000               0.000002710               0.000046882               1.000000000               0.000003107               0.000047804               1.000000000               0.000002747               0.000050647               1.000000000               0.000001922               0.000055095               1.000000000               0.000000834               0.000060866               1.000000000              -0.000000319               0.000067761               1.000000000              -0.000001355               0.000075663               1.000000000              -0.000002225               0.000084402               1.000000000              -0.000003013               0.000093958               1.000000000              -0.000003944               0.000104273               1.000000000              -0.000005057               0.000115354               1.000000000              -0.000006306               0.000127040               1.000000000              -0.000007721               0.000139337               1.000000000              -0.000009284               0.000152344               1.000000000              -0.000010909               0.000166145               1.000000000              -0.000012562               0.000180673               1.000000000               0.000000395               0.000050426               1.000000000               0.000002248               0.000049718               1.000000000               0.000002695               0.000050811               1.000000000               0.000002467               0.000053522               1.000000000               0.000001878               0.000057693               1.000000000               0.000001128               0.000063167               1.000000000               0.000000231               0.000069794               1.000000000              -0.000000647               0.000077491               1.000000000              -0.000001375               0.000086075               1.000000000              -0.000001900               0.000095455               1.000000000              -0.000002421               0.000105610               1.000000000              -0.000003037               0.000116510               1.000000000              -0.000003713               0.000128031               1.000000000              -0.000004491               0.000140153               1.000000000              -0.000005352               0.000152840               1.000000000              -0.000006183               0.000166146               1.000000000              -0.000006981               0.000180063               1.000000000               0.000000253               0.000052091               1.000000000               0.000001604               0.000051916               1.000000000               0.000001971               0.000053137               1.000000000               0.000001862               0.000055792               1.000000000               0.000001538               0.000059823               1.000000000               0.000001043               0.000065064               1.000000000               0.000000402               0.000071495               1.000000000              -0.000000215               0.000078991               1.000000000              -0.000000702               0.000087396               1.000000000              -0.000001032               0.000096617               1.000000000              -0.000001318               0.000106655               1.000000000              -0.000001637               0.000117421               1.000000000              -0.000001962               0.000128815               1.000000000              -0.000002327               0.000140847               1.000000000              -0.000002734               0.000153357               1.000000000              -0.000003122               0.000166347               1.000000000              -0.000003492               0.000179941               1.000000000               0.000000122               0.000053082               1.000000000               0.000000824               0.000053286               1.000000000               0.000001024               0.000054630               1.000000000               0.000001032               0.000057256               1.000000000               0.000000864               0.000061195               1.000000000               0.000000589               0.000066322               1.000000000               0.000000300               0.000072611               1.000000000              -0.000000012               0.000079930               1.000000000              -0.000000277               0.000088198               1.000000000              -0.000000449               0.000097356               1.000000000              -0.000000562               0.000107291               1.000000000              -0.000000683               0.000117911               1.000000000              -0.000000817               0.000129204               1.000000000              -0.000000961               0.000141114               1.000000000              -0.000001114               0.000153491               1.000000000              -0.000001287               0.000166322               1.000000000              -0.000001465               0.000179744               1.000000000               0.000000000               0.000053409               1.000000000               0.000000000               0.000053752               1.000000000               0.000000000               0.000055159               1.000000000               0.000000000               0.000057762               1.000000000               0.000000000               0.000061666               1.000000000               0.000000000               0.000066776               1.000000000              -0.000000000               0.000073007               1.000000000              -0.000000000               0.000080277               1.000000000               0.000000000               0.000088502               1.000000000              -0.000000000               0.000097598               1.000000000              -0.000000000               0.000107469               1.000000000              -0.000000000               0.000118039               1.000000000              -0.000000000               0.000129291               1.000000000               0.000000000               0.000141143               1.000000000               0.000000000               0.000153469               1.000000000              -0.000000000               0.000166241               1.000000000              -0.000000000               0.000179593               1.000000000               0.000002857               0.000000000               1.000000000               0.000001011               0.000000000               1.000000000               0.000000275              -0.000000000               1.000000000               0.000000017              -0.000000000               1.000000000              -0.000000030               0.000000000               1.000000000              -0.000000073               0.000000000               1.000000000              -0.000000130               0.000000000               1.000000000              -0.000000146               0.000000000               1.000000000              -0.000000089               0.000000000               1.000000000               0.000000043               0.000000000               1.000000000               0.000000230               0.000000000               1.000000000               0.000000369               0.000000000               1.000000000               0.000000345               0.000000000               1.000000000               0.000000076               0.000000000               1.000000000              -0.000000546               0.000000000               1.000000000              -0.000001600               0.000000000               1.000000000              -0.000003138               0.000000000               1.000000000               0.000002867              -0.000004819               1.000000000               0.000001039              -0.000004423               1.000000000               0.000000281              -0.000004467               1.000000000               0.000000042              -0.000004679               1.000000000               0.000000005              -0.000005201               1.000000000              -0.000000043              -0.000005780               1.000000000              -0.000000157              -0.000006412               1.000000000              -0.000000216              -0.000006818               1.000000000              -0.000000151              -0.000007084               1.000000000              -0.000000089              -0.000007457               1.000000000              -0.000000097              -0.000007853               1.000000000              -0.000000190              -0.000008419               1.000000000              -0.000000481              -0.000009219               1.000000000              -0.000001049              -0.000010244               1.000000000              -0.000001934              -0.000011526               1.000000000              -0.000003225              -0.000013058               1.000000000              -0.000004969              -0.000014842               1.000000000               0.000002695              -0.000009559               1.000000000               0.000001013              -0.000008796               1.000000000               0.000000362              -0.000008855               1.000000000               0.000000151              -0.000009362               1.000000000               0.000000036              -0.000010335               1.000000000              -0.000000052              -0.000011564               1.000000000              -0.000000169              -0.000012831               1.000000000              -0.000000297              -0.000013675               1.000000000              -0.000000445              -0.000014364               1.000000000              -0.000000685              -0.000015239               1.000000000              -0.000001036              -0.000016229               1.000000000              -0.000001583              -0.000017519               1.000000000              -0.000002424              -0.000019194               1.000000000              -0.000003577              -0.000021289               1.000000000              -0.000005066              -0.000023843               1.000000000              -0.000006953              -0.000026854               1.000000000              -0.000009277              -0.000030306               1.000000000               0.000002436              -0.000014247               1.000000000               0.000001035              -0.000013065               1.000000000               0.000000506              -0.000013173               1.000000000               0.000000299              -0.000014009               1.000000000               0.000000142              -0.000015503               1.000000000              -0.000000080              -0.000017343               1.000000000              -0.000000350              -0.000019196               1.000000000              -0.000000620              -0.000020628               1.000000000              -0.000000950              -0.000022015               1.000000000              -0.000001469              -0.000023704               1.000000000              -0.000002339              -0.000025584               1.000000000              -0.000003602              -0.000027892               1.000000000              -0.000005275              -0.000030691               1.000000000              -0.000007368              -0.000034041               1.000000000              -0.000009830              -0.000037993               1.000000000              -0.000012694              -0.000042582               1.000000000              -0.000015984              -0.000047847               1.000000000               0.000002158              -0.000018851               1.000000000               0.000001114              -0.000017203               1.000000000               0.000000733              -0.000017407               1.000000000               0.000000539              -0.000018614               1.000000000               0.000000234              -0.000020714               1.000000000              -0.000000236              -0.000023167               1.000000000              -0.000000679              -0.000025713               1.000000000              -0.000001190              -0.000027855               1.000000000              -0.000001906              -0.000030206               1.000000000              -0.000002973              -0.000033028               1.000000000              -0.000004491              -0.000036264               1.000000000              -0.000006478              -0.000040053               1.000000000              -0.000009013              -0.000044467               1.000000000              -0.000012046              -0.000049524               1.000000000              -0.000015513              -0.000055295               1.000000000              -0.000019447              -0.000061805               1.000000000              -0.000023810              -0.000069086               1.000000000               0.000001789              -0.000023255               1.000000000               0.000001291              -0.000021176               1.000000000               0.000001122              -0.000021577               1.000000000               0.000000818              -0.000023280               1.000000000               0.000000269              -0.000025982               1.000000000              -0.000000443              -0.000029252               1.000000000              -0.000001281              -0.000032540               1.000000000              -0.000002218              -0.000035733               1.000000000              -0.000003364              -0.000039414               1.000000000              -0.000004981              -0.000043776               1.000000000              -0.000007151              -0.000048804               1.000000000              -0.000009923              -0.000054527               1.000000000              -0.000013295              -0.000061041               1.000000000              -0.000017183              -0.000068313               1.000000000              -0.000021568              -0.000076384               1.000000000              -0.000026462              -0.000085236               1.000000000              -0.000031816              -0.000094831               1.000000000               0.000001495              -0.000027472               1.000000000               0.000001618              -0.000025041               1.000000000               0.000001530              -0.000025677               1.000000000               0.000001100              -0.000028034               1.000000000               0.000000229              -0.000031523               1.000000000              -0.000000884              -0.000035660               1.000000000              -0.000001990              -0.000040154               1.000000000              -0.000003208              -0.000044837               1.000000000              -0.000004842              -0.000050246               1.000000000              -0.000007099              -0.000056594               1.000000000              -0.000010010              -0.000063703               1.000000000              -0.000013583              -0.000071715               1.000000000              -0.000017776              -0.000080599               1.000000000              -0.000022480              -0.000090399               1.000000000              -0.000027709              -0.000101019               1.000000000              -0.000033467              -0.000112408               1.000000000              -0.000039692              -0.000124552               1.000000000               0.000001274              -0.000031494               1.000000000               0.000002020              -0.000028802               1.000000000               0.000001990              -0.000029805               1.000000000               0.000001259              -0.000032868               1.000000000               0.000000061              -0.000037392               1.000000000              -0.000001262              -0.000042826               1.000000000              -0.000002659              -0.000048861               1.000000000              -0.000004299              -0.000055273               1.000000000              -0.000006487              -0.000062781               1.000000000              -0.000009394              -0.000071392               1.000000000              -0.000013027              -0.000080854               1.000000000              -0.000017304              -0.000091362               1.000000000              -0.000022172              -0.000102917               1.000000000              -0.000027608              -0.000115381               1.000000000              -0.000033636              -0.000128781               1.000000000              -0.000040180              -0.000143013               1.000000000              -0.000047191              -0.000157971               1.000000000               0.000001089              -0.000035280               1.000000000               0.000002499              -0.000032459               1.000000000               0.000002391              -0.000033947               1.000000000               0.000001331              -0.000037955               1.000000000              -0.000000179              -0.000043698               1.000000000              -0.000001848              -0.000050674               1.000000000              -0.000003587              -0.000058397               1.000000000              -0.000005529              -0.000066970               1.000000000              -0.000008208              -0.000076800               1.000000000              -0.000011711              -0.000087793               1.000000000              -0.000015927              -0.000099855               1.000000000              -0.000020769              -0.000113127               1.000000000              -0.000026196              -0.000127627               1.000000000              -0.000032249              -0.000143231               1.000000000              -0.000038867              -0.000159895               1.000000000              -0.000045972              -0.000177560               1.000000000              -0.000053439              -0.000195908               1.000000000               0.000000903              -0.000038945               1.000000000               0.000002820              -0.000036227               1.000000000               0.000002862              -0.000037339               1.000000000               0.000001917              -0.000040968               1.000000000               0.000000485              -0.000046376               1.000000000              -0.000001239              -0.000053163               1.000000000              -0.000002859              -0.000060881               1.000000000              -0.000004408              -0.000069295               1.000000000              -0.000006281              -0.000078628               1.000000000              -0.000008899              -0.000089026               1.000000000              -0.000012027              -0.000100393               1.000000000              -0.000015624              -0.000112744               1.000000000              -0.000019781              -0.000126168               1.000000000              -0.000024380              -0.000140715               1.000000000              -0.000029466              -0.000156310               1.000000000              -0.000035065              -0.000172934               1.000000000              -0.000041046              -0.000190511               1.000000000               0.000000754              -0.000042345               1.000000000               0.000002976              -0.000039949               1.000000000               0.000003203              -0.000040896               1.000000000               0.000002366              -0.000044136               1.000000000               0.000001070              -0.000049197               1.000000000              -0.000000484              -0.000055749               1.000000000              -0.000002027              -0.000063287               1.000000000              -0.000003330              -0.000071553               1.000000000              -0.000004645              -0.000080615               1.000000000              -0.000006420              -0.000090587               1.000000000              -0.000008664              -0.000101440               1.000000000              -0.000011267              -0.000113129               1.000000000              -0.000014316              -0.000125694               1.000000000              -0.000017700              -0.000139242               1.000000000              -0.000021402              -0.000153802               1.000000000              -0.000025491              -0.000169249               1.000000000              -0.000030039              -0.000185662               1.000000000               0.000000648              -0.000045458               1.000000000               0.000002966              -0.000043580               1.000000000               0.000003281              -0.000044429               1.000000000               0.000002648              -0.000047405               1.000000000               0.000001622              -0.000052183               1.000000000               0.000000284              -0.000058393               1.000000000              -0.000001098              -0.000065635               1.000000000              -0.000002281              -0.000073681               1.000000000              -0.000003315              -0.000082533               1.000000000              -0.000004489              -0.000092242               1.000000000              -0.000005981              -0.000102790               1.000000000              -0.000007769              -0.000114091               1.000000000              -0.000009822              -0.000126116               1.000000000              -0.000012150              -0.000138903               1.000000000              -0.000014644              -0.000152518               1.000000000              -0.000017374              -0.000167015               1.000000000              -0.000020365              -0.000182421               1.000000000               0.000000535              -0.000048181               1.000000000               0.000002710              -0.000046882               1.000000000               0.000003107              -0.000047804               1.000000000               0.000002747              -0.000050647               1.000000000               0.000001922              -0.000055095               1.000000000               0.000000834              -0.000060866               1.000000000              -0.000000319              -0.000067761               1.000000000              -0.000001355              -0.000075663               1.000000000              -0.000002225              -0.000084402               1.000000000              -0.000003013              -0.000093958               1.000000000              -0.000003944              -0.000104273               1.000000000              -0.000005057              -0.000115354               1.000000000              -0.000006306              -0.000127040               1.000000000              -0.000007721              -0.000139337               1.000000000              -0.000009284              -0.000152344               1.000000000              -0.000010909              -0.000166145               1.000000000              -0.000012562              -0.000180673               1.000000000               0.000000395              -0.000050426               1.000000000               0.000002248              -0.000049718               1.000000000               0.000002695              -0.000050811               1.000000000               0.000002467              -0.000053522               1.000000000               0.000001878              -0.000057693               1.000000000               0.000001128              -0.000063167               1.000000000               0.000000231              -0.000069794               1.000000000              -0.000000647              -0.000077491               1.000000000              -0.000001375              -0.000086075               1.000000000              -0.000001900              -0.000095455               1.000000000              -0.000002421              -0.000105610               1.000000000              -0.000003037              -0.000116510               1.000000000              -0.000003713              -0.000128031               1.000000000              -0.000004491              -0.000140153               1.000000000              -0.000005352              -0.000152840               1.000000000              -0.000006183              -0.000166146               1.000000000              -0.000006981              -0.000180063               1.000000000               0.000000253              -0.000052091               1.000000000               0.000001604              -0.000051916               1.000000000               0.000001971              -0.000053137               1.000000000               0.000001862              -0.000055792               1.000000000               0.000001538              -0.000059823               1.000000000               0.000001043              -0.000065064               1.000000000               0.000000402              -0.000071495               1.000000000              -0.000000215              -0.000078991               1.000000000              -0.000000702              -0.000087396               1.000000000              -0.000001032              -0.000096617               1.000000000              -0.000001318              -0.000106655               1.000000000              -0.000001637              -0.000117421               1.000000000              -0.000001962              -0.000128815               1.000000000              -0.000002327              -0.000140847               1.000000000              -0.000002734              -0.000153357               1.000000000              -0.000003122              -0.000166347               1.000000000              -0.000003492              -0.000179941               1.000000000               0.000000122              -0.000053082               1.000000000               0.000000824              -0.000053286               1.000000000               0.000001024              -0.000054630               1.000000000               0.000001032              -0.000057256               1.000000000               0.000000864              -0.000061195               1.000000000               0.000000589              -0.000066322               1.000000000               0.000000300              -0.000072611               1.000000000              -0.000000012              -0.000079930               1.000000000              -0.000000277              -0.000088198               1.000000000              -0.000000449              -0.000097356               1.000000000              -0.000000562              -0.000107291               1.000000000              -0.000000683              -0.000117911               1.000000000              -0.000000817              -0.000129204               1.000000000              -0.000000961              -0.000141114               1.000000000              -0.000001114              -0.000153491               1.000000000              -0.000001287              -0.000166322               1.000000000              -0.000001465              -0.000179744               1.000000000              -0.000000000              -0.000053409               1.000000000               0.000000000              -0.000053752               1.000000000               0.000000000              -0.000055159               1.000000000               0.000000000              -0.000057762               1.000000000               0.000000000              -0.000061666               1.000000000               0.000000000              -0.000066776               1.000000000               0.000000000              -0.000073007               1.000000000               0.000000000              -0.000080277               1.000000000              -0.000000000              -0.000088502               1.000000000              -0.000000000              -0.000097598               1.000000000              -0.000000000              -0.000107469               1.000000000              -0.000000000              -0.000118039               1.000000000              -0.000000000              -0.000129291               1.000000000               0.000000000              -0.000141143               1.000000000               0.000000000              -0.000153469               1.000000000               0.000000000              -0.000166241               1.000000000               0.000000000              -0.000179593               1.000000000              -0.000002857              -0.000000000               1.000000000              -0.000001011               0.000000000               1.000000000              -0.000000275               0.000000000               1.000000000              -0.000000017               0.000000000               1.000000000               0.000000030               0.000000000               1.000000000               0.000000073              -0.000000000               1.000000000               0.000000130              -0.000000000               1.000000000               0.000000146               0.000000000               1.000000000               0.000000089               0.000000000               1.000000000              -0.000000043               0.000000000               1.000000000              -0.000000230               0.000000000               1.000000000              -0.000000369              -0.000000000               1.000000000              -0.000000345              -0.000000000               1.000000000              -0.000000076              -0.000000000               1.000000000               0.000000546              -0.000000000               1.000000000               0.000001600              -0.000000000               1.000000000               0.000003138              -0.000000000               1.000000000              -0.000002867              -0.000004819               1.000000000              -0.000001039              -0.000004423               1.000000000              -0.000000281              -0.000004467               1.000000000              -0.000000042              -0.000004679               1.000000000              -0.000000005              -0.000005201               1.000000000               0.000000043              -0.000005780               1.000000000               0.000000157              -0.000006412               1.000000000               0.000000216              -0.000006818               1.000000000               0.000000151              -0.000007084               1.000000000               0.000000089              -0.000007457               1.000000000               0.000000097              -0.000007853               1.000000000               0.000000190              -0.000008419               1.000000000               0.000000481              -0.000009219               1.000000000               0.000001049              -0.000010244               1.000000000               0.000001934              -0.000011526               1.000000000               0.000003225              -0.000013058               1.000000000               0.000004969              -0.000014842               1.000000000              -0.000002695              -0.000009559               1.000000000              -0.000001013              -0.000008796               1.000000000              -0.000000362              -0.000008855               1.000000000              -0.000000151              -0.000009362               1.000000000              -0.000000036              -0.000010335               1.000000000               0.000000052              -0.000011564               1.000000000               0.000000169              -0.000012831               1.000000000               0.000000297              -0.000013675               1.000000000               0.000000445              -0.000014364               1.000000000               0.000000685              -0.000015239               1.000000000               0.000001036              -0.000016229               1.000000000               0.000001583              -0.000017519               1.000000000               0.000002424              -0.000019194               1.000000000               0.000003577              -0.000021289               1.000000000               0.000005066              -0.000023843               1.000000000               0.000006953              -0.000026854               1.000000000               0.000009277              -0.000030306               1.000000000              -0.000002436              -0.000014247               1.000000000              -0.000001035              -0.000013065               1.000000000              -0.000000506              -0.000013173               1.000000000              -0.000000299              -0.000014009               1.000000000              -0.000000142              -0.000015503               1.000000000               0.000000080              -0.000017343               1.000000000               0.000000350              -0.000019196               1.000000000               0.000000620              -0.000020628               1.000000000               0.000000950              -0.000022015               1.000000000               0.000001469              -0.000023704               1.000000000               0.000002339              -0.000025584               1.000000000               0.000003602              -0.000027892               1.000000000               0.000005275              -0.000030691               1.000000000               0.000007368              -0.000034041               1.000000000               0.000009830              -0.000037993               1.000000000               0.000012694              -0.000042582               1.000000000               0.000015984              -0.000047847               1.000000000              -0.000002158              -0.000018851               1.000000000              -0.000001114              -0.000017203               1.000000000              -0.000000733              -0.000017407               1.000000000              -0.000000539              -0.000018614               1.000000000              -0.000000234              -0.000020714               1.000000000               0.000000236              -0.000023167               1.000000000               0.000000679              -0.000025713               1.000000000               0.000001190              -0.000027855               1.000000000               0.000001906              -0.000030206               1.000000000               0.000002973              -0.000033028               1.000000000               0.000004491              -0.000036264               1.000000000               0.000006478              -0.000040053               1.000000000               0.000009013              -0.000044467               1.000000000               0.000012046              -0.000049524               1.000000000               0.000015513              -0.000055295               1.000000000               0.000019447              -0.000061805               1.000000000               0.000023810              -0.000069086               1.000000000              -0.000001789              -0.000023255               1.000000000              -0.000001291              -0.000021176               1.000000000              -0.000001122              -0.000021577               1.000000000              -0.000000818              -0.000023280               1.000000000              -0.000000269              -0.000025982               1.000000000               0.000000443              -0.000029252               1.000000000               0.000001281              -0.000032540               1.000000000               0.000002218              -0.000035733               1.000000000               0.000003364              -0.000039414               1.000000000               0.000004981              -0.000043776               1.000000000               0.000007151              -0.000048804               1.000000000               0.000009923              -0.000054527               1.000000000               0.000013295              -0.000061041               1.000000000               0.000017183              -0.000068313               1.000000000               0.000021568              -0.000076384               1.000000000               0.000026462              -0.000085236               1.000000000               0.000031816              -0.000094831               1.000000000              -0.000001495              -0.000027472               1.000000000              -0.000001618              -0.000025041               1.000000000              -0.000001530              -0.000025677               1.000000000              -0.000001100              -0.000028034               1.000000000              -0.000000229              -0.000031523               1.000000000               0.000000884              -0.000035660               1.000000000               0.000001990              -0.000040154               1.000000000               0.000003208              -0.000044837               1.000000000               0.000004842              -0.000050246               1.000000000               0.000007099              -0.000056594               1.000000000               0.000010010              -0.000063703               1.000000000               0.000013583              -0.000071715               1.000000000               0.000017776              -0.000080599               1.000000000               0.000022480              -0.000090399               1.000000000               0.000027709              -0.000101019               1.000000000               0.000033467              -0.000112408               1.000000000               0.000039692              -0.000124552               1.000000000              -0.000001274              -0.000031494               1.000000000              -0.000002020              -0.000028802               1.000000000              -0.000001990              -0.000029805               1.000000000              -0.000001259              -0.000032868               1.000000000              -0.000000061              -0.000037392               1.000000000               0.000001262              -0.000042826               1.000000000               0.000002659              -0.000048861               1.000000000               0.000004299              -0.000055273               1.000000000               0.000006487              -0.000062781               1.000000000               0.000009394              -0.000071392               1.000000000               0.000013027              -0.000080854               1.000000000               0.000017304              -0.000091362               1.000000000               0.000022172              -0.000102917               1.000000000               0.000027608              -0.000115381               1.000000000               0.000033636              -0.000128781               1.000000000               0.000040180              -0.000143013               1.000000000               0.000047191              -0.000157971               1.000000000              -0.000001089              -0.000035280               1.000000000              -0.000002499              -0.000032459               1.000000000              -0.000002391              -0.000033947               1.000000000              -0.000001331              -0.000037955               1.000000000               0.000000179              -0.000043698               1.000000000               0.000001848              -0.000050674               1.000000000               0.000003587              -0.000058397               1.000000000               0.000005529              -0.000066970               1.000000000               0.000008208              -0.000076800               1.000000000               0.000011711              -0.000087793               1.000000000               0.000015927              -0.000099855               1.000000000               0.000020769              -0.000113127               1.000000000               0.000026196              -0.000127627               1.000000000               0.000032249              -0.000143231               1.000000000               0.000038867              -0.000159895               1.000000000               0.000045972              -0.000177560               1.000000000               0.000053439              -0.000195908               1.000000000              -0.000000903              -0.000038945               1.000000000              -0.000002820              -0.000036227               1.000000000              -0.000002862              -0.000037339               1.000000000              -0.000001917              -0.000040968               1.000000000              -0.000000485              -0.000046376               1.000000000               0.000001239              -0.000053163               1.000000000               0.000002859              -0.000060881               1.000000000               0.000004408              -0.000069295               1.000000000               0.000006281              -0.000078628               1.000000000               0.000008899              -0.000089026               1.000000000               0.000012027              -0.000100393               1.000000000               0.000015624              -0.000112744               1.000000000               0.000019781              -0.000126168               1.000000000               0.000024380              -0.000140715               1.000000000               0.000029466              -0.000156310               1.000000000               0.000035065              -0.000172934               1.000000000               0.000041046              -0.000190511               1.000000000              -0.000000754              -0.000042345               1.000000000              -0.000002976              -0.000039949               1.000000000              -0.000003203              -0.000040896               1.000000000              -0.000002366              -0.000044136               1.000000000              -0.000001070              -0.000049197               1.000000000               0.000000484              -0.000055749               1.000000000               0.000002027              -0.000063287               1.000000000               0.000003330              -0.000071553               1.000000000               0.000004645              -0.000080615               1.000000000               0.000006420              -0.000090587               1.000000000               0.000008664              -0.000101440               1.000000000               0.000011267              -0.000113129               1.000000000               0.000014316              -0.000125694               1.000000000               0.000017700              -0.000139242               1.000000000               0.000021402              -0.000153802               1.000000000               0.000025491              -0.000169249               1.000000000               0.000030039              -0.000185662               1.000000000              -0.000000648              -0.000045458               1.000000000              -0.000002966              -0.000043580               1.000000000              -0.000003281              -0.000044429               1.000000000              -0.000002648              -0.000047405               1.000000000              -0.000001622              -0.000052183               1.000000000              -0.000000284              -0.000058393               1.000000000               0.000001098              -0.000065635               1.000000000               0.000002281              -0.000073681               1.000000000               0.000003315              -0.000082533               1.000000000               0.000004489              -0.000092242               1.000000000               0.000005981              -0.000102790               1.000000000               0.000007769              -0.000114091               1.000000000               0.000009822              -0.000126116               1.000000000               0.000012150              -0.000138903               1.000000000               0.000014644              -0.000152518               1.000000000               0.000017374              -0.000167015               1.000000000               0.000020365              -0.000182421               1.000000000              -0.000000535              -0.000048181               1.000000000              -0.000002710              -0.000046882               1.000000000              -0.000003107              -0.000047804               1.000000000              -0.000002747              -0.000050647               1.000000000              -0.000001922              -0.000055095               1.000000000              -0.000000834              -0.000060866               1.000000000               0.000000319              -0.000067761               1.000000000               0.000001355              -0.000075663               1.000000000               0.000002225              -0.000084402               1.000000000               0.000003013              -0.000093958               1.000000000               0.000003944              -0.000104273               1.000000000               0.000005057              -0.000115354               1.000000000               0.000006306              -0.000127040               1.000000000               0.000007721              -0.000139337               1.000000000               0.000009284              -0.000152344               1.000000000               0.000010909              -0.000166145               1.000000000               0.000012562              -0.000180673               1.000000000              -0.000000395              -0.000050426               1.000000000              -0.000002248              -0.000049718               1.000000000              -0.000002695              -0.000050811               1.000000000              -0.000002467              -0.000053522               1.000000000              -0.000001878              -0.000057693               1.000000000              -0.000001128              -0.000063167               1.000000000              -0.000000231              -0.000069794               1.000000000               0.000000647              -0.000077491               1.000000000               0.000001375              -0.000086075               1.000000000               0.000001900              -0.000095455               1.000000000               0.000002421              -0.000105610               1.000000000               0.000003037              -0.000116510               1.000000000               0.000003713              -0.000128031               1.000000000               0.000004491              -0.000140153               1.000000000               0.000005352              -0.000152840               1.000000000               0.000006183              -0.000166146               1.000000000               0.000006981              -0.000180063               1.000000000              -0.000000253              -0.000052091               1.000000000              -0.000001604              -0.000051916               1.000000000              -0.000001971              -0.000053137               1.000000000              -0.000001862              -0.000055792               1.000000000              -0.000001538              -0.000059823               1.000000000              -0.000001043              -0.000065064               1.000000000              -0.000000402              -0.000071495               1.000000000               0.000000215              -0.000078991               1.000000000               0.000000702              -0.000087396               1.000000000               0.000001032              -0.000096617               1.000000000               0.000001318              -0.000106655               1.000000000               0.000001637              -0.000117421               1.000000000               0.000001962              -0.000128815               1.000000000               0.000002327              -0.000140847               1.000000000               0.000002734              -0.000153357               1.000000000               0.000003122              -0.000166347               1.000000000               0.000003492              -0.000179941               1.000000000              -0.000000122              -0.000053082               1.000000000              -0.000000824              -0.000053286               1.000000000              -0.000001024              -0.000054630               1.000000000              -0.000001032              -0.000057256               1.000000000              -0.000000864              -0.000061195               1.000000000              -0.000000589              -0.000066322               1.000000000              -0.000000300              -0.000072611               1.000000000               0.000000012              -0.000079930               1.000000000               0.000000277              -0.000088198               1.000000000               0.000000449              -0.000097356               1.000000000               0.000000562              -0.000107291               1.000000000               0.000000683              -0.000117911               1.000000000               0.000000817              -0.000129204               1.000000000               0.000000961              -0.000141114               1.000000000               0.000001114              -0.000153491               1.000000000               0.000001287              -0.000166322               1.000000000               0.000001465              -0.000179744               1.000000000              -0.000000000              -0.000053409               1.000000000               0.000000000              -0.000053752               1.000000000               0.000000000              -0.000055159               1.000000000               0.000000000              -0.000057762               1.000000000               0.000000000              -0.000061666               1.000000000               0.000000000              -0.000066776               1.000000000               0.000000000              -0.000073007               1.000000000               0.000000000              -0.000080277               1.000000000              -0.000000000              -0.000088502               1.000000000              -0.000000000              -0.000097598               1.000000000              -0.000000000              -0.000107469               1.000000000              -0.000000000              -0.000118039               1.000000000              -0.000000000              -0.000129291               1.000000000               0.000000000              -0.000141143               1.000000000               0.000000000              -0.000153469               1.000000000               0.000000000              -0.000166241               1.000000000               0.000000000              -0.000179593               1.000000000              -0.000002857              -0.000000000               1.000000000              -0.000001011               0.000000000               1.000000000              -0.000000275               0.000000000               1.000000000              -0.000000017               0.000000000               1.000000000               0.000000030               0.000000000               1.000000000               0.000000073              -0.000000000               1.000000000               0.000000130              -0.000000000               1.000000000               0.000000146               0.000000000               1.000000000               0.000000089               0.000000000               1.000000000              -0.000000043               0.000000000               1.000000000              -0.000000230               0.000000000               1.000000000              -0.000000369              -0.000000000               1.000000000              -0.000000345              -0.000000000               1.000000000              -0.000000076              -0.000000000               1.000000000               0.000000546              -0.000000000               1.000000000               0.000001600              -0.000000000               1.000000000               0.000003138              -0.000000000               1.000000000              -0.000002867               0.000004819               1.000000000              -0.000001039               0.000004423               1.000000000              -0.000000281               0.000004467               1.000000000              -0.000000042               0.000004679               1.000000000              -0.000000005               0.000005201               1.000000000               0.000000043               0.000005780               1.000000000               0.000000157               0.000006412               1.000000000               0.000000216               0.000006818               1.000000000               0.000000151               0.000007084               1.000000000               0.000000089               0.000007457               1.000000000               0.000000097               0.000007853               1.000000000               0.000000190               0.000008419               1.000000000               0.000000481               0.000009219               1.000000000               0.000001049               0.000010244               1.000000000               0.000001934               0.000011526               1.000000000               0.000003225               0.000013058               1.000000000               0.000004969               0.000014842               1.000000000              -0.000002695               0.000009559               1.000000000              -0.000001013               0.000008796               1.000000000              -0.000000362               0.000008855               1.000000000              -0.000000151               0.000009362               1.000000000              -0.000000036               0.000010335               1.000000000               0.000000052               0.000011564               1.000000000               0.000000169               0.000012831               1.000000000               0.000000297               0.000013675               1.000000000               0.000000445               0.000014364               1.000000000               0.000000685               0.000015239               1.000000000               0.000001036               0.000016229               1.000000000               0.000001583               0.000017519               1.000000000               0.000002424               0.000019194               1.000000000               0.000003577               0.000021289               1.000000000               0.000005066               0.000023843               1.000000000               0.000006953               0.000026854               1.000000000               0.000009277               0.000030306               1.000000000              -0.000002436               0.000014247               1.000000000              -0.000001035               0.000013065               1.000000000              -0.000000506               0.000013173               1.000000000              -0.000000299               0.000014009               1.000000000              -0.000000142               0.000015503               1.000000000               0.000000080               0.000017343               1.000000000               0.000000350               0.000019196               1.000000000               0.000000620               0.000020628               1.000000000               0.000000950               0.000022015               1.000000000               0.000001469               0.000023704               1.000000000               0.000002339               0.000025584               1.000000000               0.000003602               0.000027892               1.000000000               0.000005275               0.000030691               1.000000000               0.000007368               0.000034041               1.000000000               0.000009830               0.000037993               1.000000000               0.000012694               0.000042582               1.000000000               0.000015984               0.000047847               1.000000000              -0.000002158               0.000018851               1.000000000              -0.000001114               0.000017203               1.000000000              -0.000000733               0.000017407               1.000000000              -0.000000539               0.000018614               1.000000000              -0.000000234               0.000020714               1.000000000               0.000000236               0.000023167               1.000000000               0.000000679               0.000025713               1.000000000               0.000001190               0.000027855               1.000000000               0.000001906               0.000030206               1.000000000               0.000002973               0.000033028               1.000000000               0.000004491               0.000036264               1.000000000               0.000006478               0.000040053               1.000000000               0.000009013               0.000044467               1.000000000               0.000012046               0.000049524               1.000000000               0.000015513               0.000055295               1.000000000               0.000019447               0.000061805               1.000000000               0.000023810               0.000069086               1.000000000              -0.000001789               0.000023255               1.000000000              -0.000001291               0.000021176               1.000000000              -0.000001122               0.000021577               1.000000000              -0.000000818               0.000023280               1.000000000              -0.000000269               0.000025982               1.000000000               0.000000443               0.000029252               1.000000000               0.000001281               0.000032540               1.000000000               0.000002218               0.000035733               1.000000000               0.000003364               0.000039414               1.000000000               0.000004981               0.000043776               1.000000000               0.000007151               0.000048804               1.000000000               0.000009923               0.000054527               1.000000000               0.000013295               0.000061041               1.000000000               0.000017183               0.000068313               1.000000000               0.000021568               0.000076384               1.000000000               0.000026462               0.000085236               1.000000000               0.000031816               0.000094831               1.000000000              -0.000001495               0.000027472               1.000000000              -0.000001618               0.000025041               1.000000000              -0.000001530               0.000025677               1.000000000              -0.000001100               0.000028034               1.000000000              -0.000000229               0.000031523               1.000000000               0.000000884               0.000035660               1.000000000               0.000001990               0.000040154               1.000000000               0.000003208               0.000044837               1.000000000               0.000004842               0.000050246               1.000000000               0.000007099               0.000056594               1.000000000               0.000010010               0.000063703               1.000000000               0.000013583               0.000071715               1.000000000               0.000017776               0.000080599               1.000000000               0.000022480               0.000090399               1.000000000               0.000027709               0.000101019               1.000000000               0.000033467               0.000112408               1.000000000               0.000039692               0.000124552               1.000000000              -0.000001274               0.000031494               1.000000000              -0.000002020               0.000028802               1.000000000              -0.000001990               0.000029805               1.000000000              -0.000001259               0.000032868               1.000000000              -0.000000061               0.000037392               1.000000000               0.000001262               0.000042826               1.000000000               0.000002659               0.000048861               1.000000000               0.000004299               0.000055273               1.000000000               0.000006487               0.000062781               1.000000000               0.000009394               0.000071392               1.000000000               0.000013027               0.000080854               1.000000000               0.000017304               0.000091362               1.000000000               0.000022172               0.000102917               1.000000000               0.000027608               0.000115381               1.000000000               0.000033636               0.000128781               1.000000000               0.000040180               0.000143013               1.000000000               0.000047191               0.000157971               1.000000000              -0.000001089               0.000035280               1.000000000              -0.000002499               0.000032459               1.000000000              -0.000002391               0.000033947               1.000000000              -0.000001331               0.000037955               1.000000000               0.000000179               0.000043698               1.000000000               0.000001848               0.000050674               1.000000000               0.000003587               0.000058397               1.000000000               0.000005529               0.000066970               1.000000000               0.000008208               0.000076800               1.000000000               0.000011711               0.000087793               1.000000000               0.000015927               0.000099855               1.000000000               0.000020769               0.000113127               1.000000000               0.000026196               0.000127627               1.000000000               0.000032249               0.000143231               1.000000000               0.000038867               0.000159895               1.000000000               0.000045972               0.000177560               1.000000000               0.000053439               0.000195908               1.000000000              -0.000000903               0.000038945               1.000000000              -0.000002820               0.000036227               1.000000000              -0.000002862               0.000037339               1.000000000              -0.000001917               0.000040968               1.000000000              -0.000000485               0.000046376               1.000000000               0.000001239               0.000053163               1.000000000               0.000002859               0.000060881               1.000000000               0.000004408               0.000069295               1.000000000               0.000006281               0.000078628               1.000000000               0.000008899               0.000089026               1.000000000               0.000012027               0.000100393               1.000000000               0.000015624               0.000112744               1.000000000               0.000019781               0.000126168               1.000000000               0.000024380               0.000140715               1.000000000               0.000029466               0.000156310               1.000000000               0.000035065               0.000172934               1.000000000               0.000041046               0.000190511               1.000000000              -0.000000754               0.000042345               1.000000000              -0.000002976               0.000039949               1.000000000              -0.000003203               0.000040896               1.000000000              -0.000002366               0.000044136               1.000000000              -0.000001070               0.000049197               1.000000000               0.000000484               0.000055749               1.000000000               0.000002027               0.000063287               1.000000000               0.000003330               0.000071553               1.000000000               0.000004645               0.000080615               1.000000000               0.000006420               0.000090587               1.000000000               0.000008664               0.000101440               1.000000000               0.000011267               0.000113129               1.000000000               0.000014316               0.000125694               1.000000000               0.000017700               0.000139242               1.000000000               0.000021402               0.000153802               1.000000000               0.000025491               0.000169249               1.000000000               0.000030039               0.000185662               1.000000000              -0.000000648               0.000045458               1.000000000              -0.000002966               0.000043580               1.000000000              -0.000003281               0.000044429               1.000000000              -0.000002648               0.000047405               1.000000000              -0.000001622               0.000052183               1.000000000              -0.000000284               0.000058393               1.000000000               0.000001098               0.000065635               1.000000000               0.000002281               0.000073681               1.000000000               0.000003315               0.000082533               1.000000000               0.000004489               0.000092242               1.000000000               0.000005981               0.000102790               1.000000000               0.000007769               0.000114091               1.000000000               0.000009822               0.000126116               1.000000000               0.000012150               0.000138903               1.000000000               0.000014644               0.000152518               1.000000000               0.000017374               0.000167015               1.000000000               0.000020365               0.000182421               1.000000000              -0.000000535               0.000048181               1.000000000              -0.000002710               0.000046882               1.000000000              -0.000003107               0.000047804               1.000000000              -0.000002747               0.000050647               1.000000000              -0.000001922               0.000055095               1.000000000              -0.000000834               0.000060866               1.000000000               0.000000319               0.000067761               1.000000000               0.000001355               0.000075663               1.000000000               0.000002225               0.000084402               1.000000000               0.000003013               0.000093958               1.000000000               0.000003944               0.000104273               1.000000000               0.000005057               0.000115354               1.000000000               0.000006306               0.000127040               1.000000000               0.000007721               0.000139337               1.000000000               0.000009284               0.000152344               1.000000000               0.000010909               0.000166145               1.000000000               0.000012562               0.000180673               1.000000000              -0.000000395               0.000050426               1.000000000              -0.000002248               0.000049718               1.000000000              -0.000002695               0.000050811               1.000000000              -0.000002467               0.000053522               1.000000000              -0.000001878               0.000057693               1.000000000              -0.000001128               0.000063167               1.000000000              -0.000000231               0.000069794               1.000000000               0.000000647               0.000077491               1.000000000               0.000001375               0.000086075               1.000000000               0.000001900               0.000095455               1.000000000               0.000002421               0.000105610               1.000000000               0.000003037               0.000116510               1.000000000               0.000003713               0.000128031               1.000000000               0.000004491               0.000140153               1.000000000               0.000005352               0.000152840               1.000000000               0.000006183               0.000166146               1.000000000               0.000006981               0.000180063               1.000000000              -0.000000253               0.000052091               1.000000000              -0.000001604               0.000051916               1.000000000              -0.000001971               0.000053137               1.000000000              -0.000001862               0.000055792               1.000000000              -0.000001538               0.000059823               1.000000000              -0.000001043               0.000065064               1.000000000              -0.000000402               0.000071495               1.000000000               0.000000215               0.000078991               1.000000000               0.000000702               0.000087396               1.000000000               0.000001032               0.000096617               1.000000000               0.000001318               0.000106655               1.000000000               0.000001637               0.000117421               1.000000000               0.000001962               0.000128815               1.000000000               0.000002327               0.000140847               1.000000000               0.000002734               0.000153357               1.000000000               0.000003122               0.000166347               1.000000000               0.000003492               0.000179941               1.000000000              -0.000000122               0.000053082               1.000000000              -0.000000824               0.000053286               1.000000000              -0.000001024               0.000054630               1.000000000              -0.000001032               0.000057256               1.000000000              -0.000000864               0.000061195               1.000000000              -0.000000589               0.000066322               1.000000000              -0.000000300               0.000072611               1.000000000               0.000000012               0.000079930               1.000000000               0.000000277               0.000088198               1.000000000               0.000000449               0.000097356               1.000000000               0.000000562               0.000107291               1.000000000               0.000000683               0.000117911               1.000000000               0.000000817               0.000129204               1.000000000               0.000000961               0.000141114               1.000000000               0.000001114               0.000153491               1.000000000               0.000001287               0.000166322               1.000000000               0.000001465               0.000179744               1.000000000               0.000000000               0.000053409               1.000000000               0.000000000               0.000053752               1.000000000               0.000000000               0.000055159               1.000000000               0.000000000               0.000057762               1.000000000               0.000000000               0.000061666               1.000000000               0.000000000               0.000066776               1.000000000              -0.000000000               0.000073007               1.000000000              -0.000000000               0.000080277               1.000000000               0.000000000               0.000088502               1.000000000              -0.000000000               0.000097598               1.000000000              -0.000000000               0.000107469               1.000000000              -0.000000000               0.000118039               1.000000000              -0.000000000               0.000129291               1.000000000               0.000000000               0.000141143               1.000000000               0.000000000               0.000153469               1.000000000              -0.000000000               0.000166241               1.000000000              -0.000000000               0.000179593               1.000000000 </DataArray>
<DataArray type="Float64"                                    Name="stress"                                                      NumberOfComponents="10" format="ascii">
              0.000092167               0.000916780               0.000000000              -0.000080035               0.000332269               0.000252234               0.000000000               0.000000000               0.000000000               0.000000000               0.000114093               0.000779973              -0.000000000              -0.000054712               0.000278226               0.000223514               0.000000000               0.000000000               0.000000000               0.000000000               0.000170299               0.000679730              -0.000000000              -0.000021104               0.000233609               0.000212505               0.000000000               0.000000000               0.000000000               0.000000000               0.000193122               0.000629498               0.000000000              -0.000006267               0.000211919               0.000205653               0.000000000               0.000000000               0.000000000               0.000000000               0.000199108               0.000613267               0.000000000              -0.000001993               0.000205084               0.000203092               0.000000000               0.000000000               0.000000000               0.000000000               0.000195065               0.000606769               0.000000000              -0.000002697               0.000203153               0.000200457               0.000000000               0.000000000               0.000000000               0.000000000               0.000195052               0.000603148               0.000000000              -0.000002249               0.000201797               0.000199548               0.000000000               0.000000000               0.000000000               0.000000000               0.000198277               0.000588483              -0.000000000               0.000000793               0.000195895               0.000196688               0.000000000               0.000000000               0.000000000               0.000000000               0.000199354               0.000567789              -0.000000000               0.000003784               0.000188000               0.000191784               0.000000000               0.000000000               0.000000000               0.000000000               0.000198131               0.000552926               0.000000000               0.000005183               0.000182579               0.000187762               0.000000000               0.000000000               0.000000000               0.000000000               0.000192287               0.000542285              -0.000000000               0.000004322               0.000179319               0.000183641               0.000000000               0.000000000               0.000000000               0.000000000               0.000177861               0.000538777              -0.000000000              -0.000000649               0.000179807               0.000179158               0.000000000               0.000000000               0.000000000               0.000000000               0.000155071               0.000544090               0.000000000              -0.000009860               0.000184648               0.000174788               0.000000000               0.000000000               0.000000000               0.000000000               0.000125215               0.000557178               0.000000000              -0.000022691               0.000193288               0.000170596               0.000000000               0.000000000               0.000000000               0.000000000               0.000087758               0.000577032              -0.000000000              -0.000039220               0.000205415               0.000166195               0.000000000               0.000000000               0.000000000               0.000000000               0.000044600               0.000602901              -0.000000000              -0.000058637               0.000220511               0.000161873               0.000000000               0.000000000               0.000000000               0.000000000               0.000025686               0.000626653              -0.000000000              -0.000068699               0.000231782               0.000163083               0.000000000               0.000000000               0.000000000               0.000000000               0.000095570               0.000900782              -0.000071363              -0.000076759               0.000325844               0.000249085               0.000000000               0.000000000               0.000000000               0.000000000               0.000114849               0.000769129              -0.000048286              -0.000053073               0.000274064               0.000220992               0.000000000               0.000000000               0.000000000               0.000000000               0.000168992               0.000672989              -0.000024212              -0.000020752               0.000231245               0.000210493               0.000000000               0.000000000               0.000000000               0.000000000               0.000191967               0.000627607              -0.000009866              -0.000006463               0.000211355               0.000204891               0.000000000               0.000000000               0.000000000               0.000000000               0.000197052               0.000610973              -0.000002192              -0.000002477               0.000204481               0.000202004               0.000000000               0.000000000               0.000000000               0.000000000               0.000192783               0.000606432              -0.000000490              -0.000003510               0.000203312               0.000199802               0.000000000               0.000000000               0.000000000               0.000000000               0.000191560               0.000602874              -0.000005514              -0.000003524               0.000202131               0.000198607               0.000000000               0.000000000               0.000000000               0.000000000               0.000195720               0.000589907              -0.000013716              -0.000000343               0.000196748               0.000196405               0.000000000               0.000000000               0.000000000               0.000000000               0.000196329               0.000573513              -0.000015822               0.000001934               0.000190524               0.000192459               0.000000000               0.000000000               0.000000000               0.000000000               0.000190470               0.000561455              -0.000016636               0.000001244               0.000186735               0.000187979               0.000000000               0.000000000               0.000000000               0.000000000               0.000181453               0.000554543              -0.000017625              -0.000001273               0.000185270               0.000183997               0.000000000               0.000000000               0.000000000               0.000000000               0.000165916               0.000554041              -0.000015911              -0.000007037               0.000187024               0.000179987               0.000000000               0.000000000               0.000000000               0.000000000               0.000142450               0.000560287              -0.000013863              -0.000016617               0.000192300               0.000175682               0.000000000               0.000000000               0.000000000               0.000000000               0.000114567               0.000573871              -0.000011412              -0.000028771               0.000200879               0.000172108               0.000000000               0.000000000               0.000000000               0.000000000               0.000080744               0.000593595              -0.000008075              -0.000043920               0.000212503               0.000168583               0.000000000               0.000000000               0.000000000               0.000000000               0.000040793               0.000618175              -0.000004263              -0.000061974               0.000226714               0.000164740               0.000000000               0.000000000               0.000000000               0.000000000               0.000023391               0.000640306              -0.000003230              -0.000071266               0.000237189               0.000165922               0.000000000               0.000000000               0.000000000               0.000000000               0.000112724               0.000863558              -0.000138382              -0.000065673               0.000309741               0.000244068               0.000000000               0.000000000               0.000000000               0.000000000               0.000123926               0.000742304              -0.000092779              -0.000046316               0.000262871               0.000216555               0.000000000               0.000000000               0.000000000               0.000000000               0.000168785               0.000658108              -0.000044625              -0.000018969               0.000225690               0.000206721               0.000000000               0.000000000               0.000000000               0.000000000               0.000185572               0.000621852              -0.000018971              -0.000008142               0.000209996               0.000201854               0.000000000               0.000000000               0.000000000               0.000000000               0.000189052               0.000608852              -0.000004835              -0.000005212               0.000204686               0.000199474               0.000000000               0.000000000               0.000000000               0.000000000               0.000188756               0.000606827              -0.000001895              -0.000005070               0.000203964               0.000198894               0.000000000               0.000000000               0.000000000               0.000000000               0.000187290               0.000602300              -0.000011983              -0.000005054               0.000202449               0.000197395               0.000000000               0.000000000               0.000000000               0.000000000               0.000186688               0.000593937              -0.000025408              -0.000004234               0.000199388               0.000195154               0.000000000               0.000000000               0.000000000               0.000000000               0.000182816               0.000589446              -0.000028505              -0.000005125               0.000198188               0.000193063               0.000000000               0.000000000               0.000000000               0.000000000               0.000173796               0.000589729              -0.000028976              -0.000008543               0.000199422               0.000190879               0.000000000               0.000000000               0.000000000               0.000000000               0.000161135               0.000593981              -0.000029670              -0.000013822               0.000202599               0.000188777               0.000000000               0.000000000               0.000000000               0.000000000               0.000142332               0.000602070              -0.000027167              -0.000021884               0.000207983               0.000186099               0.000000000               0.000000000               0.000000000               0.000000000               0.000118836               0.000613818              -0.000023626              -0.000032164               0.000215325               0.000183162               0.000000000               0.000000000               0.000000000               0.000000000               0.000094757               0.000630802              -0.000018973              -0.000043316               0.000224704               0.000181388               0.000000000               0.000000000               0.000000000               0.000000000               0.000066973               0.000651822              -0.000013088              -0.000056363               0.000236059               0.000179697               0.000000000               0.000000000               0.000000000               0.000000000               0.000033771               0.000676282              -0.000006583              -0.000071871               0.000249382               0.000177511               0.000000000               0.000000000               0.000000000               0.000000000               0.000020360               0.000697890              -0.000005285              -0.000079601               0.000259162               0.000179560               0.000000000               0.000000000               0.000000000               0.000000000               0.000138621               0.000810445              -0.000190623              -0.000049323               0.000286586               0.000237264               0.000000000               0.000000000               0.000000000               0.000000000               0.000135657               0.000702915              -0.000127062              -0.000036993               0.000246634               0.000209641               0.000000000               0.000000000               0.000000000               0.000000000               0.000165817               0.000638528              -0.000060317              -0.000017635               0.000218719               0.000201084               0.000000000               0.000000000               0.000000000               0.000000000               0.000176135               0.000614869              -0.000025694              -0.000010808               0.000208557               0.000197749               0.000000000               0.000000000               0.000000000               0.000000000               0.000177343               0.000610600              -0.000008390              -0.000009821               0.000206805               0.000196984               0.000000000               0.000000000               0.000000000               0.000000000               0.000178238               0.000609574              -0.000006877              -0.000009358               0.000206309               0.000196951               0.000000000               0.000000000               0.000000000               0.000000000               0.000180557               0.000608137              -0.000020194              -0.000008308               0.000205480               0.000197172               0.000000000               0.000000000               0.000000000               0.000000000               0.000181246               0.000609709              -0.000034622              -0.000008246               0.000205983               0.000197737               0.000000000               0.000000000               0.000000000               0.000000000               0.000176703               0.000621980              -0.000037097              -0.000011484               0.000211152               0.000199669               0.000000000               0.000000000               0.000000000               0.000000000               0.000161892               0.000638887              -0.000038326              -0.000019151               0.000219344               0.000200193               0.000000000               0.000000000               0.000000000               0.000000000               0.000140747               0.000659239              -0.000040055              -0.000029625               0.000229619               0.000199995               0.000000000               0.000000000               0.000000000               0.000000000               0.000117062               0.000682565              -0.000037796              -0.000041422               0.000241327               0.000199905               0.000000000               0.000000000               0.000000000               0.000000000               0.000092382               0.000707753              -0.000034140              -0.000053826               0.000253857               0.000200031               0.000000000               0.000000000               0.000000000               0.000000000               0.000070922               0.000735548              -0.000028524              -0.000065347               0.000266963               0.000201615               0.000000000               0.000000000               0.000000000               0.000000000               0.000049472               0.000765082              -0.000020795              -0.000077083               0.000280719               0.000203636               0.000000000               0.000000000               0.000000000               0.000000000               0.000024239               0.000795462              -0.000011221              -0.000090343               0.000295266               0.000204923               0.000000000               0.000000000               0.000000000               0.000000000               0.000015980               0.000819617              -0.000008774              -0.000096460               0.000305356               0.000208897               0.000000000               0.000000000               0.000000000               0.000000000               0.000165344               0.000736328              -0.000228310              -0.000030037               0.000255453               0.000225415               0.000000000               0.000000000               0.000000000               0.000000000               0.000145573               0.000652730              -0.000150315              -0.000027001               0.000226575               0.000199573               0.000000000               0.000000000               0.000000000               0.000000000               0.000158341               0.000618135              -0.000069674              -0.000017889               0.000212006               0.000194117               0.000000000               0.000000000               0.000000000               0.000000000               0.000162154               0.000612003              -0.000031238              -0.000015693               0.000209230               0.000193537               0.000000000               0.000000000               0.000000000               0.000000000               0.000161077               0.000616527              -0.000014303              -0.000016662               0.000211061               0.000194399               0.000000000               0.000000000               0.000000000               0.000000000               0.000167078               0.000624853              -0.000014666              -0.000015452               0.000213433               0.000197981               0.000000000               0.000000000               0.000000000               0.000000000               0.000176935               0.000632690              -0.000029946              -0.000012735               0.000215140               0.000202404               0.000000000               0.000000000               0.000000000               0.000000000               0.000180705               0.000650066              -0.000044248              -0.000013494               0.000221185               0.000207691               0.000000000               0.000000000               0.000000000               0.000000000               0.000174438               0.000681128              -0.000045614              -0.000019727               0.000233616               0.000213889               0.000000000               0.000000000               0.000000000               0.000000000               0.000157112               0.000717294              -0.000046305              -0.000030745               0.000249344               0.000218599               0.000000000               0.000000000               0.000000000               0.000000000               0.000135139               0.000758444              -0.000047333              -0.000044128               0.000267522               0.000223393               0.000000000               0.000000000               0.000000000               0.000000000               0.000109413               0.000800497              -0.000044758              -0.000059032               0.000286507               0.000227475               0.000000000               0.000000000               0.000000000               0.000000000               0.000083349               0.000843109              -0.000040437              -0.000074133               0.000305744               0.000231612               0.000000000               0.000000000               0.000000000               0.000000000               0.000062351               0.000886426              -0.000033616              -0.000087422               0.000324613               0.000237191               0.000000000               0.000000000               0.000000000               0.000000000               0.000041571               0.000928168              -0.000024292              -0.000100431               0.000342863               0.000242432               0.000000000               0.000000000               0.000000000               0.000000000               0.000019010               0.000966727              -0.000013040              -0.000113712               0.000360143               0.000246431               0.000000000               0.000000000               0.000000000               0.000000000               0.000013337               0.000993558              -0.000009902              -0.000119193               0.000370914               0.000251721               0.000000000               0.000000000               0.000000000               0.000000000               0.000190646               0.000654250              -0.000246015              -0.000010289               0.000221511               0.000211222               0.000000000               0.000000000               0.000000000               0.000000000               0.000154185               0.000602045              -0.000161111              -0.000017436               0.000206492               0.000189055               0.000000000               0.000000000               0.000000000               0.000000000               0.000148194               0.000601879              -0.000075319              -0.000019662               0.000207178               0.000187516               0.000000000               0.000000000               0.000000000               0.000000000               0.000145455               0.000617930              -0.000038769              -0.000022696               0.000213540               0.000190844               0.000000000               0.000000000               0.000000000               0.000000000               0.000148481               0.000637313              -0.000023069              -0.000023984               0.000220430               0.000196446               0.000000000               0.000000000               0.000000000               0.000000000               0.000160008               0.000658963              -0.000025067              -0.000022367               0.000227108               0.000204741               0.000000000               0.000000000               0.000000000               0.000000000               0.000174505               0.000686516              -0.000039948              -0.000020375               0.000235628               0.000215253               0.000000000               0.000000000               0.000000000               0.000000000               0.000184635               0.000730334              -0.000050225              -0.000022054               0.000250793               0.000228740               0.000000000               0.000000000               0.000000000               0.000000000               0.000179918               0.000784011              -0.000049565              -0.000030532               0.000271512               0.000240980               0.000000000               0.000000000               0.000000000               0.000000000               0.000161810               0.000839384              -0.000048911              -0.000044244               0.000294540               0.000250296               0.000000000               0.000000000               0.000000000               0.000000000               0.000138344               0.000894590              -0.000048762              -0.000059945               0.000318175               0.000258231               0.000000000               0.000000000               0.000000000               0.000000000               0.000112303               0.000949556              -0.000045841              -0.000076581               0.000342042               0.000265462               0.000000000               0.000000000               0.000000000               0.000000000               0.000088579               0.001003831              -0.000040260              -0.000092262               0.000365361               0.000273099               0.000000000               0.000000000               0.000000000               0.000000000               0.000067972               0.001057104              -0.000032636              -0.000106648               0.000387914               0.000281266               0.000000000               0.000000000               0.000000000               0.000000000               0.000044646               0.001104894              -0.000023057              -0.000121369               0.000408751               0.000287382               0.000000000               0.000000000               0.000000000               0.000000000               0.000020066               0.001146439              -0.000012162              -0.000135780               0.000427402               0.000291623               0.000000000               0.000000000               0.000000000               0.000000000               0.000013662               0.001174227              -0.000009474              -0.000141655               0.000438623               0.000296968               0.000000000               0.000000000               0.000000000               0.000000000               0.000206439               0.000575665              -0.000246436               0.000005456               0.000190068               0.000195524               0.000000000               0.000000000               0.000000000               0.000000000               0.000156765               0.000556863              -0.000164646              -0.000010821               0.000189226               0.000178405               0.000000000               0.000000000               0.000000000               0.000000000               0.000137703               0.000594318              -0.000081245              -0.000022651               0.000205655               0.000183003               0.000000000               0.000000000               0.000000000               0.000000000               0.000134585               0.000634317              -0.000047463              -0.000028820               0.000221044               0.000192224               0.000000000               0.000000000               0.000000000               0.000000000               0.000142052               0.000676693              -0.000034852              -0.000031317               0.000236001               0.000204684               0.000000000               0.000000000               0.000000000               0.000000000               0.000163222               0.000723352              -0.000034877              -0.000029211               0.000250852               0.000221641               0.000000000               0.000000000               0.000000000               0.000000000               0.000187226               0.000779681              -0.000045449              -0.000027250               0.000268975               0.000241724               0.000000000               0.000000000               0.000000000               0.000000000               0.000196695               0.000843820              -0.000052535              -0.000031717               0.000291843               0.000260126               0.000000000               0.000000000               0.000000000               0.000000000               0.000188378               0.000914562              -0.000051196              -0.000043678               0.000319411               0.000275732               0.000000000               0.000000000               0.000000000               0.000000000               0.000168601               0.000982643              -0.000051403              -0.000059605               0.000347413               0.000287808               0.000000000               0.000000000               0.000000000               0.000000000               0.000144392               0.001045139              -0.000050580              -0.000076495               0.000373875               0.000297379               0.000000000               0.000000000               0.000000000               0.000000000               0.000118497               0.001105805              -0.000045325              -0.000093789               0.000399861               0.000306072               0.000000000               0.000000000               0.000000000               0.000000000               0.000095427               0.001164501              -0.000037573              -0.000109777               0.000424756               0.000314978               0.000000000               0.000000000               0.000000000               0.000000000               0.000073232               0.001218792              -0.000028540              -0.000124887               0.000447889               0.000323002               0.000000000               0.000000000               0.000000000               0.000000000               0.000047817               0.001267083              -0.000019730              -0.000140453               0.000469174               0.000328721               0.000000000               0.000000000               0.000000000               0.000000000               0.000022244               0.001309672              -0.000010159              -0.000155367               0.000488342               0.000332975               0.000000000               0.000000000               0.000000000               0.000000000               0.000015164               0.001338091              -0.000008153              -0.000161574               0.000499884               0.000338310               0.000000000               0.000000000               0.000000000               0.000000000               0.000214192               0.000501621              -0.000236408               0.000017619               0.000161332               0.000178951               0.000000000               0.000000000               0.000000000               0.000000000               0.000156053               0.000518249              -0.000163014              -0.000006261               0.000174835               0.000168574               0.000000000               0.000000000               0.000000000               0.000000000               0.000128024               0.000597165              -0.000088645              -0.000026637               0.000207932               0.000181295               0.000000000               0.000000000               0.000000000               0.000000000               0.000131257               0.000666521              -0.000058341              -0.000034094               0.000233536               0.000199442               0.000000000               0.000000000               0.000000000               0.000000000               0.000151893               0.000737299              -0.000044749              -0.000035202               0.000257498               0.000222296               0.000000000               0.000000000               0.000000000               0.000000000               0.000183486               0.000811170              -0.000043477              -0.000032589               0.000281250               0.000248661               0.000000000               0.000000000               0.000000000               0.000000000               0.000209961               0.000884600              -0.000052038              -0.000031839               0.000305477               0.000273637               0.000000000               0.000000000               0.000000000               0.000000000               0.000215445               0.000964094              -0.000056708              -0.000039720               0.000334601               0.000294882               0.000000000               0.000000000               0.000000000               0.000000000               0.000200700               0.001044304              -0.000053502              -0.000055275               0.000366523               0.000311248               0.000000000               0.000000000               0.000000000               0.000000000               0.000175886               0.001115325              -0.000052654              -0.000073458               0.000396257               0.000322799               0.000000000               0.000000000               0.000000000               0.000000000               0.000150263               0.001182288              -0.000049617              -0.000091437               0.000424571               0.000333134               0.000000000               0.000000000               0.000000000               0.000000000               0.000125263               0.001247715              -0.000040395              -0.000108990               0.000452231               0.000343240               0.000000000               0.000000000               0.000000000               0.000000000               0.000099783               0.001310718              -0.000031016              -0.000126421               0.000479042               0.000352621               0.000000000               0.000000000               0.000000000               0.000000000               0.000072666               0.001369035              -0.000022063              -0.000143879               0.000504300               0.000360421               0.000000000               0.000000000               0.000000000               0.000000000               0.000045741               0.001424232              -0.000013227              -0.000160876               0.000528365               0.000367489               0.000000000               0.000000000               0.000000000               0.000000000               0.000021707               0.001476672              -0.000006185              -0.000176443               0.000551034               0.000374590               0.000000000               0.000000000               0.000000000               0.000000000               0.000014172               0.001510610              -0.000006190              -0.000183511               0.000564702               0.000381191               0.000000000               0.000000000               0.000000000               0.000000000               0.000216772               0.000434253              -0.000219073               0.000027007               0.000135747               0.000162755               0.000000000               0.000000000               0.000000000               0.000000000               0.000155762               0.000485021              -0.000160208              -0.000002217               0.000162411               0.000160194               0.000000000               0.000000000               0.000000000               0.000000000               0.000127114               0.000605306              -0.000099527              -0.000027996               0.000211098               0.000183103               0.000000000               0.000000000               0.000000000               0.000000000               0.000137255               0.000703770              -0.000071202              -0.000036501               0.000246755               0.000210254               0.000000000               0.000000000               0.000000000               0.000000000               0.000166500               0.000795997              -0.000056018              -0.000037062               0.000277684               0.000240621               0.000000000               0.000000000               0.000000000               0.000000000               0.000205598               0.000883460              -0.000052741              -0.000033333               0.000305595               0.000272262               0.000000000               0.000000000               0.000000000               0.000000000               0.000233484               0.000965264              -0.000054180              -0.000033101               0.000332785               0.000299684               0.000000000               0.000000000               0.000000000               0.000000000               0.000235955               0.001052648              -0.000054062              -0.000043098               0.000365245               0.000322147               0.000000000               0.000000000               0.000000000               0.000000000               0.000214775               0.001134235              -0.000051487              -0.000061239               0.000398488               0.000337249               0.000000000               0.000000000               0.000000000               0.000000000               0.000188729               0.001206320              -0.000049327              -0.000080017               0.000428775               0.000348758               0.000000000               0.000000000               0.000000000               0.000000000               0.000163162               0.001277854              -0.000043087              -0.000098546               0.000458796               0.000360250               0.000000000               0.000000000               0.000000000               0.000000000               0.000138536               0.001350602              -0.000032307              -0.000116874               0.000489154               0.000372280               0.000000000               0.000000000               0.000000000               0.000000000               0.000113847               0.001421542              -0.000022146              -0.000135000               0.000518843               0.000383843               0.000000000               0.000000000               0.000000000               0.000000000               0.000088158               0.001491087              -0.000013579              -0.000153326               0.000548133               0.000394807               0.000000000               0.000000000               0.000000000               0.000000000               0.000064783               0.001560142              -0.000005626              -0.000170724               0.000576950               0.000406226               0.000000000               0.000000000               0.000000000               0.000000000               0.000045706               0.001625152              -0.000000314              -0.000186004               0.000603713               0.000417709               0.000000000               0.000000000               0.000000000               0.000000000               0.000035457               0.001659172               0.000000791              -0.000194100               0.000617752               0.000423652               0.000000000               0.000000000               0.000000000               0.000000000               0.000213995               0.000361817              -0.000198951               0.000035020               0.000108931               0.000143951               0.000000000               0.000000000               0.000000000               0.000000000               0.000160478               0.000439139              -0.000160748               0.000005286               0.000144616               0.000149902               0.000000000               0.000000000               0.000000000               0.000000000               0.000136262               0.000590852              -0.000118408              -0.000022758               0.000204535               0.000181777               0.000000000               0.000000000               0.000000000               0.000000000               0.000150559               0.000710093              -0.000091781              -0.000032302               0.000247462               0.000215161               0.000000000               0.000000000               0.000000000               0.000000000               0.000179891               0.000819448              -0.000075226              -0.000034972               0.000284804               0.000249832               0.000000000               0.000000000               0.000000000               0.000000000               0.000215504               0.000917590              -0.000065239              -0.000033885               0.000317155               0.000283270               0.000000000               0.000000000               0.000000000               0.000000000               0.000243725               0.000999264              -0.000056798              -0.000033511               0.000344255               0.000310744               0.000000000               0.000000000               0.000000000               0.000000000               0.000252517               0.001077785              -0.000050632              -0.000040029               0.000372601               0.000332572               0.000000000               0.000000000               0.000000000               0.000000000               0.000239859               0.001157963              -0.000048871              -0.000054798               0.000404250               0.000349452               0.000000000               0.000000000               0.000000000               0.000000000               0.000218669               0.001233585              -0.000047524              -0.000072197               0.000435257               0.000363060               0.000000000               0.000000000               0.000000000               0.000000000               0.000196538               0.001305527              -0.000041455              -0.000089489               0.000465001               0.000375512               0.000000000               0.000000000               0.000000000               0.000000000               0.000174871               0.001379255              -0.000034037              -0.000106830               0.000495357               0.000388527               0.000000000               0.000000000               0.000000000               0.000000000               0.000155911               0.001456949              -0.000025647              -0.000123652               0.000526862               0.000403210               0.000000000               0.000000000               0.000000000               0.000000000               0.000136737               0.001535581              -0.000016553              -0.000140671               0.000558746               0.000418075               0.000000000               0.000000000               0.000000000               0.000000000               0.000116941               0.001612356              -0.000009585              -0.000157691               0.000590010               0.000432319               0.000000000               0.000000000               0.000000000               0.000000000               0.000099373               0.001686323              -0.000003543              -0.000173525               0.000619944               0.000446419               0.000000000               0.000000000               0.000000000               0.000000000               0.000085099               0.001718531               0.000001834              -0.000182904               0.000633806               0.000450902               0.000000000               0.000000000               0.000000000               0.000000000               0.000204691               0.000294339              -0.000175862               0.000039966               0.000084790               0.000124756               0.000000000               0.000000000               0.000000000               0.000000000               0.000169203               0.000393184              -0.000159835               0.000014303               0.000126293               0.000140595               0.000000000               0.000000000               0.000000000               0.000000000               0.000152719               0.000562780              -0.000136779              -0.000013078               0.000191951               0.000178873               0.000000000               0.000000000               0.000000000               0.000000000               0.000165751               0.000697013              -0.000112265              -0.000024970               0.000240659               0.000215689               0.000000000               0.000000000               0.000000000               0.000000000               0.000189218               0.000819871              -0.000091429              -0.000031527               0.000283797               0.000252270               0.000000000               0.000000000               0.000000000               0.000000000               0.000215296               0.000921926              -0.000074955              -0.000034505               0.000318807               0.000284302               0.000000000               0.000000000               0.000000000               0.000000000               0.000242377               0.001001712              -0.000059278              -0.000034323               0.000345342               0.000311019               0.000000000               0.000000000               0.000000000               0.000000000               0.000262819               0.001078883              -0.000047172              -0.000036303               0.000371725               0.000335422               0.000000000               0.000000000               0.000000000               0.000000000               0.000267580               0.001161687              -0.000043755              -0.000044868               0.000402181               0.000357313               0.000000000               0.000000000               0.000000000               0.000000000               0.000257262               0.001241898              -0.000043980              -0.000058764               0.000433550               0.000374786               0.000000000               0.000000000               0.000000000               0.000000000               0.000243505               0.001316590              -0.000041991              -0.000073259               0.000463279               0.000390020               0.000000000               0.000000000               0.000000000               0.000000000               0.000229120               0.001389129              -0.000038908              -0.000087721               0.000492279               0.000404558               0.000000000               0.000000000               0.000000000               0.000000000               0.000214268               0.001464648              -0.000033108              -0.000102730               0.000522454               0.000419724               0.000000000               0.000000000               0.000000000               0.000000000               0.000200287               0.001543195              -0.000023511              -0.000117792               0.000553657               0.000435865               0.000000000               0.000000000               0.000000000               0.000000000               0.000182525               0.001616783              -0.000013928              -0.000133651               0.000583473               0.000449822               0.000000000               0.000000000               0.000000000               0.000000000               0.000163243               0.001689249              -0.000006471              -0.000149940               0.000613057               0.000463118               0.000000000               0.000000000               0.000000000               0.000000000               0.000145639               0.001720606               0.000000169              -0.000160461               0.000627016               0.000466556               0.000000000               0.000000000               0.000000000               0.000000000               0.000189242               0.000233336              -0.000148668               0.000041798               0.000063845               0.000105643               0.000000000               0.000000000               0.000000000               0.000000000               0.000176558               0.000342789              -0.000152744               0.000023360               0.000106475               0.000129835               0.000000000               0.000000000               0.000000000               0.000000000               0.000172739               0.000522514              -0.000146592              -0.000000537               0.000174349               0.000173811               0.000000000               0.000000000               0.000000000               0.000000000               0.000184017               0.000671771              -0.000124911              -0.000014965               0.000228910               0.000213945               0.000000000               0.000000000               0.000000000               0.000000000               0.000203010               0.000801232              -0.000102827              -0.000024025               0.000275083               0.000251058               0.000000000               0.000000000               0.000000000               0.000000000               0.000222494               0.000903947              -0.000082921              -0.000029558               0.000311165               0.000281607               0.000000000               0.000000000               0.000000000               0.000000000               0.000245340               0.000989490              -0.000063563              -0.000031684               0.000340388               0.000308704               0.000000000               0.000000000               0.000000000               0.000000000               0.000272340               0.001075404              -0.000048612              -0.000032298               0.000369230               0.000336932               0.000000000               0.000000000               0.000000000               0.000000000               0.000292682               0.001165544              -0.000041549              -0.000035937               0.000400490               0.000364553               0.000000000               0.000000000               0.000000000               0.000000000               0.000297582               0.001252539              -0.000040485              -0.000044974               0.000432500               0.000387526               0.000000000               0.000000000               0.000000000               0.000000000               0.000293063               0.001331633              -0.000040567              -0.000056555               0.000462725               0.000406169               0.000000000               0.000000000               0.000000000               0.000000000               0.000284394               0.001403692              -0.000039440              -0.000068814               0.000490831               0.000422017               0.000000000               0.000000000               0.000000000               0.000000000               0.000271893               0.001472173              -0.000035748              -0.000082062               0.000518073               0.000436012               0.000000000               0.000000000               0.000000000               0.000000000               0.000259856               0.001543255              -0.000028061              -0.000095461               0.000546234               0.000450773               0.000000000               0.000000000               0.000000000               0.000000000               0.000248422               0.001617721              -0.000018359              -0.000109056               0.000575587               0.000466531               0.000000000               0.000000000               0.000000000               0.000000000               0.000234468               0.001694337              -0.000009394              -0.000123866               0.000606062               0.000482196               0.000000000               0.000000000               0.000000000               0.000000000               0.000216498               0.001725858              -0.000001257              -0.000134545               0.000620129               0.000485583               0.000000000               0.000000000               0.000000000               0.000000000               0.000169242               0.000176397              -0.000119039               0.000041416               0.000044993               0.000086409               0.000000000               0.000000000               0.000000000               0.000000000               0.000182029               0.000290495              -0.000136640               0.000031949               0.000086181               0.000118130               0.000000000               0.000000000               0.000000000               0.000000000               0.000193356               0.000475150              -0.000142866               0.000013115               0.000154010               0.000167125               0.000000000               0.000000000               0.000000000               0.000000000               0.000207930               0.000629514              -0.000126816              -0.000000715               0.000210074               0.000209359               0.000000000               0.000000000               0.000000000               0.000000000               0.000223866               0.000759365              -0.000106746              -0.000010971               0.000256776               0.000245805               0.000000000               0.000000000               0.000000000               0.000000000               0.000237962               0.000869628              -0.000086418              -0.000019468               0.000296362               0.000276895               0.000000000               0.000000000               0.000000000               0.000000000               0.000259407               0.000973282              -0.000067623              -0.000024383               0.000332552               0.000308169               0.000000000               0.000000000               0.000000000               0.000000000               0.000288075               0.001073627              -0.000052349              -0.000026175               0.000366597               0.000340422               0.000000000               0.000000000               0.000000000               0.000000000               0.000314409               0.001168909              -0.000041335              -0.000028210               0.000399036               0.000370825               0.000000000               0.000000000               0.000000000               0.000000000               0.000329210               0.001257846              -0.000035872              -0.000033777               0.000430537               0.000396760               0.000000000               0.000000000               0.000000000               0.000000000               0.000334336               0.001340825              -0.000034633              -0.000042227               0.000461013               0.000418786               0.000000000               0.000000000               0.000000000               0.000000000               0.000333107               0.001414166              -0.000033321              -0.000051855               0.000488669               0.000436814               0.000000000               0.000000000               0.000000000               0.000000000               0.000326972               0.001478611              -0.000031213              -0.000062212               0.000513602               0.000451391               0.000000000               0.000000000               0.000000000               0.000000000               0.000321112               0.001546218              -0.000027901              -0.000072860               0.000539688               0.000466827               0.000000000               0.000000000               0.000000000               0.000000000               0.000317841               0.001620924              -0.000021107              -0.000083425               0.000568111               0.000484686               0.000000000               0.000000000               0.000000000               0.000000000               0.000311846               0.001694589              -0.000010722              -0.000094881               0.000596485               0.000501603               0.000000000               0.000000000               0.000000000               0.000000000               0.000299832               0.001723974              -0.000002176              -0.000103059               0.000609005               0.000505946               0.000000000               0.000000000               0.000000000               0.000000000               0.000144369               0.000128737              -0.000087599               0.000038046               0.000030230               0.000068276               0.000000000               0.000000000               0.000000000               0.000000000               0.000184342               0.000242381              -0.000111312               0.000038830               0.000067849               0.000106680               0.000000000               0.000000000               0.000000000               0.000000000               0.000214547               0.000421010              -0.000124857               0.000027828               0.000131059               0.000158887               0.000000000               0.000000000               0.000000000               0.000000000               0.000234095               0.000575346              -0.000114701               0.000015867               0.000186491               0.000202358               0.000000000               0.000000000               0.000000000               0.000000000               0.000247469               0.000711670              -0.000097924               0.000003842               0.000235940               0.000239782               0.000000000               0.000000000               0.000000000               0.000000000               0.000260876               0.000835359              -0.000081792              -0.000006592               0.000280647               0.000274056               0.000000000               0.000000000               0.000000000               0.000000000               0.000281184               0.000953842              -0.000067489              -0.000013786               0.000322540               0.000308753               0.000000000               0.000000000               0.000000000               0.000000000               0.000305748               0.001062728              -0.000052538              -0.000018185               0.000360301               0.000342116               0.000000000               0.000000000               0.000000000               0.000000000               0.000329562               0.001160227              -0.000038097              -0.000021442               0.000393886               0.000372443               0.000000000               0.000000000               0.000000000               0.000000000               0.000349917               0.001252494              -0.000028582              -0.000025343               0.000425941               0.000400599               0.000000000               0.000000000               0.000000000               0.000000000               0.000365025               0.001341214              -0.000025630              -0.000030767               0.000457323               0.000426555               0.000000000               0.000000000               0.000000000               0.000000000               0.000374181               0.001419474              -0.000024012              -0.000037116               0.000485525               0.000448409               0.000000000               0.000000000               0.000000000               0.000000000               0.000379223               0.001489523              -0.000023048              -0.000043981               0.000511163               0.000467182               0.000000000               0.000000000               0.000000000               0.000000000               0.000382321               0.001556563              -0.000022702              -0.000051200               0.000535916               0.000484716               0.000000000               0.000000000               0.000000000               0.000000000               0.000384915               0.001622906              -0.000018393              -0.000058520               0.000560470               0.000501950               0.000000000               0.000000000               0.000000000               0.000000000               0.000388269               0.001690706              -0.000010062              -0.000065737               0.000585476               0.000519738               0.000000000               0.000000000               0.000000000               0.000000000               0.000386224               0.001721659              -0.000004294              -0.000070373               0.000597338               0.000526965               0.000000000               0.000000000               0.000000000               0.000000000               0.000118601               0.000093460              -0.000055211               0.000032793               0.000020222               0.000053015               0.000000000               0.000000000               0.000000000               0.000000000               0.000183926               0.000200496              -0.000078174               0.000043910               0.000052195               0.000096104               0.000000000               0.000000000               0.000000000               0.000000000               0.000233028               0.000369895              -0.000092584               0.000041148               0.000109581               0.000150729               0.000000000               0.000000000               0.000000000               0.000000000               0.000255363               0.000525938              -0.000086452               0.000030019               0.000165305               0.000195323               0.000000000               0.000000000               0.000000000               0.000000000               0.000271193               0.000668756              -0.000075736               0.000018103               0.000216882               0.000234985               0.000000000               0.000000000               0.000000000               0.000000000               0.000287243               0.000802325              -0.000065611               0.000007425               0.000264964               0.000272389               0.000000000               0.000000000               0.000000000               0.000000000               0.000303277               0.000928737              -0.000054924              -0.000002363               0.000310364               0.000308000               0.000000000               0.000000000               0.000000000               0.000000000               0.000321078               0.001042133              -0.000041895              -0.000009863               0.000350662               0.000340799               0.000000000               0.000000000               0.000000000               0.000000000               0.000342078               0.001144992              -0.000029039              -0.000014845               0.000386609               0.000371764               0.000000000               0.000000000               0.000000000               0.000000000               0.000366236               0.001244205              -0.000020508              -0.000018187               0.000420793               0.000402606               0.000000000               0.000000000               0.000000000               0.000000000               0.000388380               0.001337588              -0.000016965              -0.000021556               0.000453043               0.000431488               0.000000000               0.000000000               0.000000000               0.000000000               0.000405831               0.001419921              -0.000014759              -0.000025303               0.000481737               0.000456434               0.000000000               0.000000000               0.000000000               0.000000000               0.000421024               0.001496676              -0.000013424              -0.000029200               0.000508620               0.000479420               0.000000000               0.000000000               0.000000000               0.000000000               0.000432218               0.001563949              -0.000012967              -0.000033412               0.000532448               0.000499037               0.000000000               0.000000000               0.000000000               0.000000000               0.000440445               0.001622498              -0.000010686              -0.000037645               0.000553376               0.000515730               0.000000000               0.000000000               0.000000000               0.000000000               0.000452912               0.001688420              -0.000006501              -0.000041210               0.000576538               0.000535327               0.000000000               0.000000000               0.000000000               0.000000000               0.000459199               0.001723414              -0.000003884              -0.000043227               0.000588875               0.000545648               0.000000000               0.000000000               0.000000000               0.000000000               0.000098820               0.000073681              -0.000025693               0.000027847               0.000015278               0.000043125               0.000000000               0.000000000               0.000000000               0.000000000               0.000180272               0.000173153              -0.000040070               0.000045957               0.000042398               0.000088355               0.000000000               0.000000000               0.000000000               0.000000000               0.000242362               0.000333744              -0.000049151               0.000049167               0.000094858               0.000144025               0.000000000               0.000000000               0.000000000               0.000000000               0.000271647               0.000490853              -0.000046381               0.000040511               0.000150112               0.000190623               0.000000000               0.000000000               0.000000000               0.000000000               0.000290814               0.000638978              -0.000041954               0.000029183               0.000203263               0.000232446               0.000000000               0.000000000               0.000000000               0.000000000               0.000305388               0.000777190              -0.000036644               0.000017372               0.000253270               0.000270642               0.000000000               0.000000000               0.000000000               0.000000000               0.000318034               0.000905944              -0.000030295               0.000006020               0.000299972               0.000305991               0.000000000               0.000000000               0.000000000               0.000000000               0.000332952               0.001023468              -0.000023399              -0.000003077               0.000342178               0.000339101               0.000000000               0.000000000               0.000000000               0.000000000               0.000353805               0.001134299              -0.000016268              -0.000009111               0.000381133               0.000372022               0.000000000               0.000000000               0.000000000               0.000000000               0.000378935               0.001237770              -0.000010798              -0.000012621               0.000416793               0.000404172               0.000000000               0.000000000               0.000000000               0.000000000               0.000403232               0.001330606              -0.000007801              -0.000015114               0.000448569               0.000433455               0.000000000               0.000000000               0.000000000               0.000000000               0.000425505               0.001416173              -0.000006185              -0.000017457               0.000477872               0.000460415               0.000000000               0.000000000               0.000000000               0.000000000               0.000446584               0.001497143              -0.000005211              -0.000019674               0.000505601               0.000485927               0.000000000               0.000000000               0.000000000               0.000000000               0.000463147               0.001565098              -0.000004378              -0.000021957               0.000529013               0.000507056               0.000000000               0.000000000               0.000000000               0.000000000               0.000476211               0.001622775              -0.000003545              -0.000024268               0.000549009               0.000524741               0.000000000               0.000000000               0.000000000               0.000000000               0.000492900               0.001688813              -0.000002404              -0.000026264               0.000571687               0.000545423               0.000000000               0.000000000               0.000000000               0.000000000               0.000501974               0.001725208              -0.000001520              -0.000027411               0.000584200               0.000556790               0.000000000               0.000000000               0.000000000               0.000000000               0.000091255               0.000067937               0.000000000               0.000025728               0.000014069               0.000039798               0.000000000               0.000000000               0.000000000               0.000000000               0.000177606               0.000164160               0.000000000               0.000046082               0.000039359               0.000085441               0.000000000               0.000000000               0.000000000               0.000000000               0.000244354               0.000320332               0.000000000               0.000051591               0.000089579               0.000141170               0.000000000               0.000000000               0.000000000               0.000000000               0.000278929               0.000477958               0.000000000               0.000044853               0.000144367               0.000189220               0.000000000               0.000000000               0.000000000               0.000000000               0.000298129               0.000628694               0.000000000               0.000033211               0.000198492               0.000231703               0.000000000               0.000000000               0.000000000               0.000000000               0.000310579               0.000767650              -0.000000000               0.000020511               0.000249044               0.000269555               0.000000000               0.000000000               0.000000000               0.000000000               0.000323976               0.000897433              -0.000000000               0.000009312               0.000296037               0.000305349               0.000000000               0.000000000               0.000000000               0.000000000               0.000338643               0.001017277               0.000000000              -0.000000169               0.000339145               0.000338977               0.000000000               0.000000000               0.000000000               0.000000000               0.000358001               0.001129622               0.000000000              -0.000006953               0.000378854               0.000371902               0.000000000               0.000000000               0.000000000               0.000000000               0.000382437               0.001233342               0.000000000              -0.000010754               0.000414694               0.000403941               0.000000000               0.000000000               0.000000000               0.000000000               0.000408115               0.001326899               0.000000000              -0.000012819               0.000446568               0.000433749               0.000000000               0.000000000               0.000000000               0.000000000               0.000432709               0.001414699              -0.000000000              -0.000014572               0.000476419               0.000461847               0.000000000               0.000000000               0.000000000               0.000000000               0.000455328               0.001496666              -0.000000000              -0.000016335               0.000504329               0.000487993               0.000000000               0.000000000               0.000000000               0.000000000               0.000473446               0.001565009               0.000000000              -0.000018084               0.000527692               0.000509608               0.000000000               0.000000000               0.000000000               0.000000000               0.000488187               0.001623303              -0.000000000              -0.000019843               0.000547710               0.000527867               0.000000000               0.000000000               0.000000000               0.000000000               0.000505189               0.001688986              -0.000000000              -0.000021677               0.000570215               0.000548538               0.000000000               0.000000000               0.000000000               0.000000000               0.000514107               0.001725224              -0.000000000              -0.000022863               0.000582690               0.000559827               0.000000000               0.000000000               0.000000000               0.000000000               0.000000000               0.000000000               0.000000000               0.000000000               0.000000000               0.000000000               0.000000000               0.000000000               0.000000000               0.000000000               0.000000000               0.000000000               0.000000000               0.000000000               0.000000000               0.000000000               0.000000000               0.000000000               0.000000000               0.000000000               0.000000000               0.000000000               0.000000000               0.000000000               0.000000000               0.000000000               0.000000000               0.000000000               0.000000000               0.000000000               0.000000000               0.000000000               0.000000000               0.000000000               0.000000000               0.000000000               0.000000000               0.000000000               0.000000000               0.000000000               0.000000000               0.000000000               0.000000000               0.000000000               0.000000000               0.000000000               0.000000000               0.000000000               0.000000000               0.000000000               0.000000000               0.000000000               0.000000000               0.000000000               0.000000000               0.000000000               0.000000000               0.000000000               0.000000000               0.000000000               0.000000000               0.000000000               0.000000000               0.000000000               0.000000000               0.000000000               0.000000000               0.000000000               0.000000000               0.000000000               0.000000000               0.000000000               0.000000000               0.000000000               0.000000000               0.000000000               0.000000000               0.000000000               0.000000000               0.000000000               0.000000000               0.000000000               0.000000000               0.000000000               0.000000000               0.000000000               0.000000000               0.000000000               0.000000000               0.000000000               0.000000000               0.000000000               0.000000000               0.000000000               0.000000000               0.000000000               0.000000000               0.000000000               0.000000000               0.000000000               0.000000000               0.000000000               0.000000000               0.000000000               0.000000000               0.000000000               0.000000000               0.000000000               0.000000000               0.000000000               0.000000000               0.000000000               0.000000000               0.000000000               0.000000000               0.000000000               0.000000000               0.000000000               0.000000000               0.000000000               0.000000000               0.000000000               0.000000000               0.000000000               0.000000000               0.000000000               0.000000000               0.000000000               0.000000000               0.000000000               0.000000000               0.000000000               0.000000000               0.000000000               0.000000000               0.000000000               0.000000000               0.000000000               0.000000000               0.000000000               0.000000000               0.000000000               0.000000000               0.000000000               0.000000000               0.000000000               0.000000000               0.000000000               0.000000000               0.000000000               0.000000000               0.000000000               0.000000000               0.000000000               0.000000000               0.000000000               0.000000000               0.000000000               0.000000000               0.000000000               0.000000000               0.000000000               0.000000000               0.000000000               0.000000000               0.000000000               0.000000000               0.000000000               0.000000000               0.000000000               0.000095570               0.000900782               0.000071363              -0.000076759               0.000325844               0.000249085               0.000000000               0.000000000               0.000000000               0.000000000               0.000114849               0.000769129               0.000048286              -0.000053073               0.000274064               0.000220992               0.000000000               0.000000000               0.000000000               0.000000000               0.000168992               0.000672989               0.000024212              -0.000020752               0.000231245               0.000210493               0.000000000               0.000000000               0.000000000               0.000000000               0.000191967               0.000627607               0.000009866              -0.000006463               0.000211355               0.000204891               0.000000000               0.000000000               0.000000000               0.000000000               0.000197052               0.000610973               0.000002192              -0.000002477               0.000204481               0.000202004               0.000000000               0.000000000               0.000000000               0.000000000               0.000192783               0.000606432               0.000000490              -0.000003510               0.000203312               0.000199802               0.000000000               0.000000000               0.000000000               0.000000000               0.000191560               0.000602874               0.000005514              -0.000003524               0.000202131               0.000198607               0.000000000               0.000000000               0.000000000               0.000000000               0.000195720               0.000589907               0.000013716              -0.000000343               0.000196748               0.000196405               0.000000000               0.000000000               0.000000000               0.000000000               0.000196329               0.000573513               0.000015822               0.000001934               0.000190524               0.000192459               0.000000000               0.000000000               0.000000000               0.000000000               0.000190470               0.000561455               0.000016636               0.000001244               0.000186735               0.000187979               0.000000000               0.000000000               0.000000000               0.000000000               0.000181453               0.000554543               0.000017625              -0.000001273               0.000185270               0.000183997               0.000000000               0.000000000               0.000000000               0.000000000               0.000165916               0.000554041               0.000015911              -0.000007037               0.000187024               0.000179987               0.000000000               0.000000000               0.000000000               0.000000000               0.000142450               0.000560287               0.000013863              -0.000016617               0.000192300               0.000175682               0.000000000               0.000000000               0.000000000               0.000000000               0.000114567               0.000573871               0.000011412              -0.000028771               0.000200879               0.000172108               0.000000000               0.000000000               0.000000000               0.000000000               0.000080744               0.000593595               0.000008075              -0.000043920               0.000212503               0.000168583               0.000000000               0.000000000               0.000000000               0.000000000               0.000040793               0.000618175               0.000004263              -0.000061974               0.000226714               0.000164740               0.000000000               0.000000000               0.000000000               0.000000000               0.000023391               0.000640306               0.000003230              -0.000071266               0.000237189               0.000165922               0.000000000               0.000000000               0.000000000               0.000000000               0.000112724               0.000863558               0.000138382              -0.000065673               0.000309741               0.000244068               0.000000000               0.000000000               0.000000000               0.000000000               0.000123926               0.000742304               0.000092779              -0.000046316               0.000262871               0.000216555               0.000000000               0.000000000               0.000000000               0.000000000               0.000168785               0.000658108               0.000044625              -0.000018969               0.000225690               0.000206721               0.000000000               0.000000000               0.000000000               0.000000000               0.000185572               0.000621852               0.000018971              -0.000008142               0.000209996               0.000201854               0.000000000               0.000000000               0.000000000               0.000000000               0.000189052               0.000608852               0.000004835              -0.000005212               0.000204686               0.000199474               0.000000000               0.000000000               0.000000000               0.000000000               0.000188756               0.000606827               0.000001895              -0.000005070               0.000203964               0.000198894               0.000000000               0.000000000               0.000000000               0.000000000               0.000187290               0.000602300               0.000011983              -0.000005054               0.000202449               0.000197395               0.000000000               0.000000000               0.000000000               0.000000000               0.000186688               0.000593937               0.000025408              -0.000004234               0.000199388               0.000195154               0.000000000               0.000000000               0.000000000               0.000000000               0.000182816               0.000589446               0.000028505              -0.000005125               0.000198188               0.000193063               0.000000000               0.000000000               0.000000000               0.000000000               0.000173796               0.000589729               0.000028976              -0.000008543               0.000199422               0.000190879               0.000000000               0.000000000               0.000000000               0.000000000               0.000161135               0.000593981               0.000029670              -0.000013822               0.000202599               0.000188777               0.000000000               0.000000000               0.000000000               0.000000000               0.000142332               0.000602070               0.000027167              -0.000021884               0.000207983               0.000186099               0.000000000               0.000000000               0.000000000               0.000000000               0.000118836               0.000613818               0.000023626              -0.000032164               0.000215325               0.000183162               0.000000000               0.000000000               0.000000000               0.000000000               0.000094757               0.000630802               0.000018973              -0.000043316               0.000224704               0.000181388               0.000000000               0.000000000               0.000000000               0.000000000               0.000066973               0.000651822               0.000013088              -0.000056363               0.000236059               0.000179697               0.000000000               0.000000000               0.000000000               0.000000000               0.000033771               0.000676282               0.000006583              -0.000071871               0.000249382               0.000177511               0.000000000               0.000000000               0.000000000               0.000000000               0.000020360               0.000697890               0.000005285              -0.000079601               0.000259162               0.000179560               0.000000000               0.000000000               0.000000000               0.000000000               0.000138621               0.000810445               0.000190623              -0.000049323               0.000286586               0.000237264               0.000000000               0.000000000               0.000000000               0.000000000               0.000135657               0.000702915               0.000127062              -0.000036993               0.000246634               0.000209641               0.000000000               0.000000000               0.000000000               0.000000000               0.000165817               0.000638528               0.000060317              -0.000017635               0.000218719               0.000201084               0.000000000               0.000000000               0.000000000               0.000000000               0.000176135               0.000614869               0.000025694              -0.000010808               0.000208557               0.000197749               0.000000000               0.000000000               0.000000000               0.000000000               0.000177343               0.000610600               0.000008390              -0.000009821               0.000206805               0.000196984               0.000000000               0.000000000               0.000000000               0.000000000               0.000178238               0.000609574               0.000006877              -0.000009358               0.000206309               0.000196951               0.000000000               0.000000000               0.000000000               0.000000000               0.000180557               0.000608137               0.000020194              -0.000008308               0.000205480               0.000197172               0.000000000               0.000000000               0.000000000               0.000000000               0.000181246               0.000609709               0.000034622              -0.000008246               0.000205983               0.000197737               0.000000000               0.000000000               0.000000000               0.000000000               0.000176703               0.000621980               0.000037097              -0.000011484               0.000211152               0.000199669               0.000000000               0.000000000               0.000000000               0.000000000               0.000161892               0.000638887               0.000038326              -0.000019151               0.000219344               0.000200193               0.000000000               0.000000000               0.000000000               0.000000000               0.000140747               0.000659239               0.000040055              -0.000029625               0.000229619               0.000199995               0.000000000               0.000000000               0.000000000               0.000000000               0.000117062               0.000682565               0.000037796              -0.000041422               0.000241327               0.000199905               0.000000000               0.000000000               0.000000000               0.000000000               0.000092382               0.000707753               0.000034140              -0.000053826               0.000253857               0.000200031               0.000000000               0.000000000               0.000000000               0.000000000               0.000070922               0.000735548               0.000028524              -0.000065347               0.000266963               0.000201615               0.000000000               0.000000000               0.000000000               0.000000000               0.000049472               0.000765082               0.000020795              -0.000077083               0.000280719               0.000203636               0.000000000               0.000000000               0.000000000               0.000000000               0.000024239               0.000795462               0.000011221              -0.000090343               0.000295266               0.000204923               0.000000000               0.000000000               0.000000000               0.000000000               0.000015980               0.000819617               0.000008774              -0.000096460               0.000305356               0.000208897               0.000000000               0.000000000               0.000000000               0.000000000               0.000165344               0.000736328               0.000228310              -0.000030037               0.000255453               0.000225415               0.000000000               0.000000000               0.000000000               0.000000000               0.000145573               0.000652730               0.000150315              -0.000027001               0.000226575               0.000199573               0.000000000               0.000000000               0.000000000               0.000000000               0.000158341               0.000618135               0.000069674              -0.000017889               0.000212006               0.000194117               0.000000000               0.000000000               0.000000000               0.000000000               0.000162154               0.000612003               0.000031238              -0.000015693               0.000209230               0.000193537               0.000000000               0.000000000               0.000000000               0.000000000               0.000161077               0.000616527               0.000014303              -0.000016662               0.000211061               0.000194399               0.000000000               0.000000000               0.000000000               0.000000000               0.000167078               0.000624853               0.000014666              -0.000015452               0.000213433               0.000197981               0.000000000               0.000000000               0.000000000               0.000000000               0.000176935               0.000632690               0.000029946              -0.000012735               0.000215140               0.000202404               0.000000000               0.000000000               0.000000000               0.000000000               0.000180705               0.000650066               0.000044248              -0.000013494               0.000221185               0.000207691               0.000000000               0.000000000               0.000000000               0.000000000               0.000174438               0.000681128               0.000045614              -0.000019727               0.000233616               0.000213889               0.000000000               0.000000000               0.000000000               0.000000000               0.000157112               0.000717294               0.000046305              -0.000030745               0.000249344               0.000218599               0.000000000               0.000000000               0.000000000               0.000000000               0.000135139               0.000758444               0.000047333              -0.000044128               0.000267522               0.000223393               0.000000000               0.000000000               0.000000000               0.000000000               0.000109413               0.000800497               0.000044758              -0.000059032               0.000286507               0.000227475               0.000000000               0.000000000               0.000000000               0.000000000               0.000083349               0.000843109               0.000040437              -0.000074133               0.000305744               0.000231612               0.000000000               0.000000000               0.000000000               0.000000000               0.000062351               0.000886426               0.000033616              -0.000087422               0.000324613               0.000237191               0.000000000               0.000000000               0.000000000               0.000000000               0.000041571               0.000928168               0.000024292              -0.000100431               0.000342863               0.000242432               0.000000000               0.000000000               0.000000000               0.000000000               0.000019010               0.000966727               0.000013040              -0.000113712               0.000360143               0.000246431               0.000000000               0.000000000               0.000000000               0.000000000               0.000013337               0.000993558               0.000009902              -0.000119193               0.000370914               0.000251721               0.000000000               0.000000000               0.000000000               0.000000000               0.000190646               0.000654250               0.000246015              -0.000010289               0.000221511               0.000211222               0.000000000               0.000000000               0.000000000               0.000000000               0.000154185               0.000602045               0.000161111              -0.000017436               0.000206492               0.000189055               0.000000000               0.000000000               0.000000000               0.000000000               0.000148194               0.000601879               0.000075319              -0.000019662               0.000207178               0.000187516               0.000000000               0.000000000               0.000000000               0.000000000               0.000145455               0.000617930               0.000038769              -0.000022696               0.000213540               0.000190844               0.000000000               0.000000000               0.000000000               0.000000000               0.000148481               0.000637313               0.000023069              -0.000023984               0.000220430               0.000196446               0.000000000               0.000000000               0.000000000               0.000000000               0.000160008               0.000658963               0.000025067              -0.000022367               0.000227108               0.000204741               0.000000000               0.000000000               0.000000000               0.000000000               0.000174505               0.000686516               0.000039948              -0.000020375               0.000235628               0.000215253               0.000000000               0.000000000               0.000000000               0.000000000               0.000184635               0.000730334               0.000050225              -0.000022054               0.000250793               0.000228740               0.000000000               0.000000000               0.000000000               0.000000000               0.000179918               0.000784011               0.000049565              -0.000030532               0.000271512               0.000240980               0.000000000               0.000000000               0.000000000               0.000000000               0.000161810               0.000839384               0.000048911              -0.000044244               0.000294540               0.000250296               0.000000000               0.000000000               0.000000000               0.000000000               0.000138344               0.000894590               0.000048762              -0.000059945               0.000318175               0.000258231               0.000000000               0.000000000               0.000000000               0.000000000               0.000112303               0.000949556               0.000045841              -0.000076581               0.000342042               0.000265462               0.000000000               0.000000000               0.000000000               0.000000000               0.000088579               0.001003831               0.000040260              -0.000092262               0.000365361               0.000273099               0.000000000               0.000000000               0.000000000               0.000000000               0.000067972               0.001057104               0.000032636              -0.000106648               0.000387914               0.000281266               0.000000000               0.000000000               0.000000000               0.000000000               0.000044646               0.001104894               0.000023057              -0.000121369               0.000408751               0.000287382               0.000000000               0.000000000               0.000000000               0.000000000               0.000020066               0.001146439               0.000012162              -0.000135780               0.000427402               0.000291623               0.000000000               0.000000000               0.000000000               0.000000000               0.000013662               0.001174227               0.000009474              -0.000141655               0.000438623               0.000296968               0.000000000               0.000000000               0.000000000               0.000000000               0.000206439               0.000575665               0.000246436               0.000005456               0.000190068               0.000195524               0.000000000               0.000000000               0.000000000               0.000000000               0.000156765               0.000556863               0.000164646              -0.000010821               0.000189226               0.000178405               0.000000000               0.000000000               0.000000000               0.000000000               0.000137703               0.000594318               0.000081245              -0.000022651               0.000205655               0.000183003               0.000000000               0.000000000               0.000000000               0.000000000               0.000134585               0.000634317               0.000047463              -0.000028820               0.000221044               0.000192224               0.000000000               0.000000000               0.000000000               0.000000000               0.000142052               0.000676693               0.000034852              -0.000031317               0.000236001               0.000204684               0.000000000               0.000000000               0.000000000               0.000000000               0.000163222               0.000723352               0.000034877              -0.000029211               0.000250852               0.000221641               0.000000000               0.000000000               0.000000000               0.000000000               0.000187226               0.000779681               0.000045449              -0.000027250               0.000268975               0.000241724               0.000000000               0.000000000               0.000000000               0.000000000               0.000196695               0.000843820               0.000052535              -0.000031717               0.000291843               0.000260126               0.000000000               0.000000000               0.000000000               0.000000000               0.000188378               0.000914562               0.000051196              -0.000043678               0.000319411               0.000275732               0.000000000               0.000000000               0.000000000               0.000000000               0.000168601               0.000982643               0.000051403              -0.000059605               0.000347413               0.000287808               0.000000000               0.000000000               0.000000000               0.000000000               0.000144392               0.001045139               0.000050580              -0.000076495               0.000373875               0.000297379               0.000000000               0.000000000               0.000000000               0.000000000               0.000118497               0.001105805               0.000045325              -0.000093789               0.000399861               0.000306072               0.000000000               0.000000000               0.000000000               0.000000000               0.000095427               0.001164501               0.000037573              -0.000109777               0.000424756               0.000314978               0.000000000               0.000000000               0.000000000               0.000000000               0.000073232               0.001218792               0.000028540              -0.000124887               0.000447889               0.000323002               0.000000000               0.000000000               0.000000000               0.000000000               0.000047817               0.001267083               0.000019730              -0.000140453               0.000469174               0.000328721               0.000000000               0.000000000               0.000000000               0.000000000               0.000022244               0.001309672               0.000010159              -0.000155367               0.000488342               0.000332975               0.000000000               0.000000000               0.000000000               0.000000000               0.000015164               0.001338091               0.000008153              -0.000161574               0.000499884               0.000338310               0.000000000               0.000000000               0.000000000               0.000000000               0.000214192               0.000501621               0.000236408               0.000017619               0.000161332               0.000178951               0.000000000               0.000000000               0.000000000               0.000000000               0.000156053               0.000518249               0.000163014              -0.000006261               0.000174835               0.000168574               0.000000000               0.000000000               0.000000000               0.000000000               0.000128024               0.000597165               0.000088645              -0.000026637               0.000207932               0.000181295               0.000000000               0.000000000               0.000000000               0.000000000               0.000131257               0.000666521               0.000058341              -0.000034094               0.000233536               0.000199442               0.000000000               0.000000000               0.000000000               0.000000000               0.000151893               0.000737299               0.000044749              -0.000035202               0.000257498               0.000222296               0.000000000               0.000000000               0.000000000               0.000000000               0.000183486               0.000811170               0.000043477              -0.000032589               0.000281250               0.000248661               0.000000000               0.000000000               0.000000000               0.000000000               0.000209961               0.000884600               0.000052038              -0.000031839               0.000305477               0.000273637               0.000000000               0.000000000               0.000000000               0.000000000               0.000215445               0.000964094               0.000056708              -0.000039720               0.000334601               0.000294882               0.000000000               0.000000000               0.000000000               0.000000000               0.000200700               0.001044304               0.000053502              -0.000055275               0.000366523               0.000311248               0.000000000               0.000000000               0.000000000               0.000000000               0.000175886               0.001115325               0.000052654              -0.000073458               0.000396257               0.000322799               0.000000000               0.000000000               0.000000000               0.000000000               0.000150263               0.001182288               0.000049617              -0.000091437               0.000424571               0.000333134               0.000000000               0.000000000               0.000000000               0.000000000               0.000125263               0.001247715               0.000040395              -0.000108990               0.000452231               0.000343240               0.000000000               0.000000000               0.000000000               0.000000000               0.000099783               0.001310718               0.000031016              -0.000126421               0.000479042               0.000352621               0.000000000               0.000000000               0.000000000               0.000000000               0.000072666               0.001369035               0.000022063              -0.000143879               0.000504300               0.000360421               0.000000000               0.000000000               0.000000000               0.000000000               0.000045741               0.001424232               0.000013227              -0.000160876               0.000528365               0.000367489               0.000000000               0.000000000               0.000000000               0.000000000               0.000021707               0.001476672               0.000006185              -0.000176443               0.000551034               0.000374590               0.000000000               0.000000000               0.000000000               0.000000000               0.000014172               0.001510610               0.000006190              -0.000183511               0.000564702               0.000381191               0.000000000               0.000000000               0.000000000               0.000000000               0.000216772               0.000434253               0.000219073               0.000027007               0.000135747               0.000162755               0.000000000               0.000000000               0.000000000               0.000000000               0.000155762               0.000485021               0.000160208              -0.000002217               0.000162411               0.000160194               0.000000000               0.000000000               0.000000000               0.000000000               0.000127114               0.000605306               0.000099527              -0.000027996               0.000211098               0.000183103               0.000000000               0.000000000               0.000000000               0.000000000               0.000137255               0.000703770               0.000071202              -0.000036501               0.000246755               0.000210254               0.000000000               0.000000000               0.000000000               0.000000000               0.000166500               0.000795997               0.000056018              -0.000037062               0.000277684               0.000240621               0.000000000               0.000000000               0.000000000               0.000000000               0.000205598               0.000883460               0.000052741              -0.000033333               0.000305595               0.000272262               0.000000000               0.000000000               0.000000000               0.000000000               0.000233484               0.000965264               0.000054180              -0.000033101               0.000332785               0.000299684               0.000000000               0.000000000               0.000000000               0.000000000               0.000235955               0.001052648               0.000054062              -0.000043098               0.000365245               0.000322147               0.000000000               0.000000000               0.000000000               0.000000000               0.000214775               0.001134235               0.000051487              -0.000061239               0.000398488               0.000337249               0.000000000               0.000000000               0.000000000               0.000000000               0.000188729               0.001206320               0.000049327              -0.000080017               0.000428775               0.000348758               0.000000000               0.000000000               0.000000000               0.000000000               0.000163162               0.001277854               0.000043087              -0.000098546               0.000458796               0.000360250               0.000000000               0.000000000               0.000000000               0.000000000               0.000138536               0.001350602               0.000032307              -0.000116874               0.000489154               0.000372280               0.000000000               0.000000000               0.000000000               0.000000000               0.000113847               0.001421542               0.000022146              -0.000135000               0.000518843               0.000383843               0.000000000               0.000000000               0.000000000               0.000000000               0.000088158               0.001491087               0.000013579              -0.000153326               0.000548133               0.000394807               0.000000000               0.000000000               0.000000000               0.000000000               0.000064783               0.001560142               0.000005626              -0.000170724               0.000576950               0.000406226               0.000000000               0.000000000               0.000000000               0.000000000               0.000045706               0.001625152               0.000000314              -0.000186004               0.000603713               0.000417709               0.000000000               0.000000000               0.000000000               0.000000000               0.000035457               0.001659172              -0.000000791              -0.000194100               0.000617752               0.000423652               0.000000000               0.000000000               0.000000000               0.000000000               0.000213995               0.000361817               0.000198951               0.000035020               0.000108931               0.000143951               0.000000000               0.000000000               0.000000000               0.000000000               0.000160478               0.000439139               0.000160748               0.000005286               0.000144616               0.000149902               0.000000000               0.000000000               0.000000000               0.000000000               0.000136262               0.000590852               0.000118408              -0.000022758               0.000204535               0.000181777               0.000000000               0.000000000               0.000000000               0.000000000               0.000150559               0.000710093               0.000091781              -0.000032302               0.000247462               0.000215161               0.000000000               0.000000000               0.000000000               0.000000000               0.000179891               0.000819448               0.000075226              -0.000034972               0.000284804               0.000249832               0.000000000               0.000000000               0.000000000               0.000000000               0.000215504               0.000917590               0.000065239              -0.000033885               0.000317155               0.000283270               0.000000000               0.000000000               0.000000000               0.000000000               0.000243725               0.000999264               0.000056798              -0.000033511               0.000344255               0.000310744               0.000000000               0.000000000               0.000000000               0.000000000               0.000252517               0.001077785               0.000050632              -0.000040029               0.000372601               0.000332572               0.000000000               0.000000000               0.000000000               0.000000000               0.000239859               0.001157963               0.000048871              -0.000054798               0.000404250               0.000349452               0.000000000               0.000000000               0.000000000               0.000000000               0.000218669               0.001233585               0.000047524              -0.000072197               0.000435257               0.000363060               0.000000000               0.000000000               0.000000000               0.000000000               0.000196538               0.001305527               0.000041455              -0.000089489               0.000465001               0.000375512               0.000000000               0.000000000               0.000000000               0.000000000               0.000174871               0.001379255               0.000034037              -0.000106830               0.000495357               0.000388527               0.000000000               0.000000000               0.000000000               0.000000000               0.000155911               0.001456949               0.000025647              -0.000123652               0.000526862               0.000403210               0.000000000               0.000000000               0.000000000               0.000000000               0.000136737               0.001535581               0.000016553              -0.000140671               0.000558746               0.000418075               0.000000000               0.000000000               0.000000000               0.000000000               0.000116941               0.001612356               0.000009585              -0.000157691               0.000590010               0.000432319               0.000000000               0.000000000               0.000000000               0.000000000               0.000099373               0.001686323               0.000003543              -0.000173525               0.000619944               0.000446419               0.000000000               0.000000000               0.000000000               0.000000000               0.000085099               0.001718531              -0.000001834              -0.000182904               0.000633806               0.000450902               0.000000000               0.000000000               0.000000000               0.000000000               0.000204691               0.000294339               0.000175862               0.000039966               0.000084790               0.000124756               0.000000000               0.000000000               0.000000000               0.000000000               0.000169203               0.000393184               0.000159835               0.000014303               0.000126293               0.000140595               0.000000000               0.000000000               0.000000000               0.000000000               0.000152719               0.000562780               0.000136779              -0.000013078               0.000191951               0.000178873               0.000000000               0.000000000               0.000000000               0.000000000               0.000165751               0.000697013               0.000112265              -0.000024970               0.000240659               0.000215689               0.000000000               0.000000000               0.000000000               0.000000000               0.000189218               0.000819871               0.000091429              -0.000031527               0.000283797               0.000252270               0.000000000               0.000000000               0.000000000               0.000000000               0.000215296               0.000921926               0.000074955              -0.000034505               0.000318807               0.000284302               0.000000000               0.000000000               0.000000000               0.000000000               0.000242377               0.001001712               0.000059278              -0.000034323               0.000345342               0.000311019               0.000000000               0.000000000               0.000000000               0.000000000               0.000262819               0.001078883               0.000047172              -0.000036303               0.000371725               0.000335422               0.000000000               0.000000000               0.000000000               0.000000000               0.000267580               0.001161687               0.000043755              -0.000044868               0.000402181               0.000357313               0.000000000               0.000000000               0.000000000               0.000000000               0.000257262               0.001241898               0.000043980              -0.000058764               0.000433550               0.000374786               0.000000000               0.000000000               0.000000000               0.000000000               0.000243505               0.001316590               0.000041991              -0.000073259               0.000463279               0.000390020               0.000000000               0.000000000               0.000000000               0.000000000               0.000229120               0.001389129               0.000038908              -0.000087721               0.000492279               0.000404558               0.000000000               0.000000000               0.000000000               0.000000000               0.000214268               0.001464648               0.000033108              -0.000102730               0.000522454               0.000419724               0.000000000               0.000000000               0.000000000               0.000000000               0.000200287               0.001543195               0.000023511              -0.000117792               0.000553657               0.000435865               0.000000000               0.000000000               0.000000000               0.000000000               0.000182525               0.001616783               0.000013928              -0.000133651               0.000583473               0.000449822               0.000000000               0.000000000               0.000000000               0.000000000               0.000163243               0.001689249               0.000006471              -0.000149940               0.000613057               0.000463118               0.000000000               0.000000000               0.000000000               0.000000000               0.000145639               0.001720606              -0.000000169              -0.000160461               0.000627016               0.000466556               0.000000000               0.000000000               0.000000000               0.000000000               0.000189242               0.000233336               0.000148668               0.000041798               0.000063845               0.000105643               0.000000000               0.000000000               0.000000000               0.000000000               0.000176558               0.000342789               0.000152744               0.000023360               0.000106475               0.000129835               0.000000000               0.000000000               0.000000000               0.000000000               0.000172739               0.000522514               0.000146592              -0.000000537               0.000174349               0.000173811               0.000000000               0.000000000               0.000000000               0.000000000               0.000184017               0.000671771               0.000124911              -0.000014965               0.000228910               0.000213945               0.000000000               0.000000000               0.000000000               0.000000000               0.000203010               0.000801232               0.000102827              -0.000024025               0.000275083               0.000251058               0.000000000               0.000000000               0.000000000               0.000000000               0.000222494               0.000903947               0.000082921              -0.000029558               0.000311165               0.000281607               0.000000000               0.000000000               0.000000000               0.000000000               0.000245340               0.000989490               0.000063563              -0.000031684               0.000340388               0.000308704               0.000000000               0.000000000               0.000000000               0.000000000               0.000272340               0.001075404               0.000048612              -0.000032298               0.000369230               0.000336932               0.000000000               0.000000000               0.000000000               0.000000000               0.000292682               0.001165544               0.000041549              -0.000035937               0.000400490               0.000364553               0.000000000               0.000000000               0.000000000               0.000000000               0.000297582               0.001252539               0.000040485              -0.000044974               0.000432500               0.000387526               0.000000000               0.000000000               0.000000000               0.000000000               0.000293063               0.001331633               0.000040567              -0.000056555               0.000462725               0.000406169               0.000000000               0.000000000               0.000000000               0.000000000               0.000284394               0.001403692               0.000039440              -0.000068814               0.000490831               0.000422017               0.000000000               0.000000000               0.000000000               0.000000000               0.000271893               0.001472173               0.000035748              -0.000082062               0.000518073               0.000436012               0.000000000               0.000000000               0.000000000               0.000000000               0.000259856               0.001543255               0.000028061              -0.000095461               0.000546234               0.000450773               0.000000000               0.000000000               0.000000000               0.000000000               0.000248422               0.001617721               0.000018359              -0.000109056               0.000575587               0.000466531               0.000000000               0.000000000               0.000000000               0.000000000               0.000234468               0.001694337               0.000009394              -0.000123866               0.000606062               0.000482196               0.000000000               0.000000000               0.000000000               0.000000000               0.000216498               0.001725858               0.000001257              -0.000134545               0.000620129               0.000485583               0.000000000               0.000000000               0.000000000               0.000000000               0.000169242               0.000176397               0.000119039               0.000041416               0.000044993               0.000086409               0.000000000               0.000000000               0.000000000               0.000000000               0.000182029               0.000290495               0.000136640               0.000031949               0.000086181               0.000118130               0.000000000               0.000000000               0.000000000               0.000000000               0.000193356               0.000475150               0.000142866               0.000013115               0.000154010               0.000167125               0.000000000               0.000000000               0.000000000               0.000000000               0.000207930               0.000629514               0.000126816              -0.000000715               0.000210074               0.000209359               0.000000000               0.000000000               0.000000000               0.000000000               0.000223866               0.000759365               0.000106746              -0.000010971               0.000256776               0.000245805               0.000000000               0.000000000               0.000000000               0.000000000               0.000237962               0.000869628               0.000086418              -0.000019468               0.000296362               0.000276895               0.000000000               0.000000000               0.000000000               0.000000000               0.000259407               0.000973282               0.000067623              -0.000024383               0.000332552               0.000308169               0.000000000               0.000000000               0.000000000               0.000000000               0.000288075               0.001073627               0.000052349              -0.000026175               0.000366597               0.000340422               0.000000000               0.000000000               0.000000000               0.000000000               0.000314409               0.001168909               0.000041335              -0.000028210               0.000399036               0.000370825               0.000000000               0.000000000               0.000000000               0.000000000               0.000329210               0.001257846               0.000035872              -0.000033777               0.000430537               0.000396760               0.000000000               0.000000000               0.000000000               0.000000000               0.000334336               0.001340825               0.000034633              -0.000042227               0.000461013               0.000418786               0.000000000               0.000000000               0.000000000               0.000000000               0.000333107               0.001414166               0.000033321              -0.000051855               0.000488669               0.000436814               0.000000000               0.000000000               0.000000000               0.000000000               0.000326972               0.001478611               0.000031213              -0.000062212               0.000513602               0.000451391               0.000000000               0.000000000               0.000000000               0.000000000               0.000321112               0.001546218               0.000027901              -0.000072860               0.000539688               0.000466827               0.000000000               0.000000000               0.000000000               0.000000000               0.000317841               0.001620924               0.000021107              -0.000083425               0.000568111               0.000484686               0.000000000               0.000000000               0.000000000               0.000000000               0.000311846               0.001694589               0.000010722              -0.000094881               0.000596485               0.000501603               0.000000000               0.000000000               0.000000000               0.000000000               0.000299832               0.001723974               0.000002176              -0.000103059               0.000609005               0.000505946               0.000000000               0.000000000               0.000000000               0.000000000               0.000144369               0.000128737               0.000087599               0.000038046               0.000030230               0.000068276               0.000000000               0.000000000               0.000000000               0.000000000               0.000184342               0.000242381               0.000111312               0.000038830               0.000067849               0.000106680               0.000000000               0.000000000               0.000000000               0.000000000               0.000214547               0.000421010               0.000124857               0.000027828               0.000131059               0.000158887               0.000000000               0.000000000               0.000000000               0.000000000               0.000234095               0.000575346               0.000114701               0.000015867               0.000186491               0.000202358               0.000000000               0.000000000               0.000000000               0.000000000               0.000247469               0.000711670               0.000097924               0.000003842               0.000235940               0.000239782               0.000000000               0.000000000               0.000000000               0.000000000               0.000260876               0.000835359               0.000081792              -0.000006592               0.000280647               0.000274056               0.000000000               0.000000000               0.000000000               0.000000000               0.000281184               0.000953842               0.000067489              -0.000013786               0.000322540               0.000308753               0.000000000               0.000000000               0.000000000               0.000000000               0.000305748               0.001062728               0.000052538              -0.000018185               0.000360301               0.000342116               0.000000000               0.000000000               0.000000000               0.000000000               0.000329562               0.001160227               0.000038097              -0.000021442               0.000393886               0.000372443               0.000000000               0.000000000               0.000000000               0.000000000               0.000349917               0.001252494               0.000028582              -0.000025343               0.000425941               0.000400599               0.000000000               0.000000000               0.000000000               0.000000000               0.000365025               0.001341214               0.000025630              -0.000030767               0.000457323               0.000426555               0.000000000               0.000000000               0.000000000               0.000000000               0.000374181               0.001419474               0.000024012              -0.000037116               0.000485525               0.000448409               0.000000000               0.000000000               0.000000000               0.000000000               0.000379223               0.001489523               0.000023048              -0.000043981               0.000511163               0.000467182               0.000000000               0.000000000               0.000000000               0.000000000               0.000382321               0.001556563               0.000022702              -0.000051200               0.000535916               0.000484716               0.000000000               0.000000000               0.000000000               0.000000000               0.000384915               0.001622906               0.000018393              -0.000058520               0.000560470               0.000501950               0.000000000               0.000000000               0.000000000               0.000000000               0.000388269               0.001690706               0.000010062              -0.000065737               0.000585476               0.000519738               0.000000000               0.000000000               0.000000000               0.000000000               0.000386224               0.001721659               0.000004294              -0.000070373               0.000597338               0.000526965               0.000000000               0.000000000               0.000000000               0.000000000               0.000118601               0.000093460               0.000055211               0.000032793               0.000020222               0.000053015               0.000000000               0.000000000               0.000000000               0.000000000               0.000183926               0.000200496               0.000078174               0.000043910               0.000052195               0.000096104               0.000000000               0.000000000               0.000000000               0.000000000               0.000233028               0.000369895               0.000092584               0.000041148               0.000109581               0.000150729               0.000000000               0.000000000               0.000000000               0.000000000               0.000255363               0.000525938               0.000086452               0.000030019               0.000165305               0.000195323               0.000000000               0.000000000               0.000000000               0.000000000               0.000271193               0.000668756               0.000075736               0.000018103               0.000216882               0.000234985               0.000000000               0.000000000               0.000000000               0.000000000               0.000287243               0.000802325               0.000065611               0.000007425               0.000264964               0.000272389               0.000000000               0.000000000               0.000000000               0.000000000               0.000303277               0.000928737               0.000054924              -0.000002363               0.000310364               0.000308000               0.000000000               0.000000000               0.000000000               0.000000000               0.000321078               0.001042133               0.000041895              -0.000009863               0.000350662               0.000340799               0.000000000               0.000000000               0.000000000               0.000000000               0.000342078               0.001144992               0.000029039              -0.000014845               0.000386609               0.000371764               0.000000000               0.000000000               0.000000000               0.000000000               0.000366236               0.001244205               0.000020508              -0.000018187               0.000420793               0.000402606               0.000000000               0.000000000               0.000000000               0.000000000               0.000388380               0.001337588               0.000016965              -0.000021556               0.000453043               0.000431488               0.000000000               0.000000000               0.000000000               0.000000000               0.000405831               0.001419921               0.000014759              -0.000025303               0.000481737               0.000456434               0.000000000               0.000000000               0.000000000               0.000000000               0.000421024               0.001496676               0.000013424              -0.000029200               0.000508620               0.000479420               0.000000000               0.000000000               0.000000000               0.000000000               0.000432218               0.001563949               0.000012967              -0.000033412               0.000532448               0.000499037               0.000000000               0.000000000               0.000000000               0.000000000               0.000440445               0.001622498               0.000010686              -0.000037645               0.000553376               0.000515730               0.000000000               0.000000000               0.000000000               0.000000000               0.000452912               0.001688420               0.000006501              -0.000041210               0.000576538               0.000535327               0.000000000               0.000000000               0.000000000               0.000000000               0.000459199               0.001723414               0.000003884              -0.000043227               0.000588875               0.000545648               0.000000000               0.000000000               0.000000000               0.000000000               0.000098820               0.000073681               0.000025693               0.000027847               0.000015278               0.000043125               0.000000000               0.000000000               0.000000000               0.000000000               0.000180272               0.000173153               0.000040070               0.000045957               0.000042398               0.000088355               0.000000000               0.000000000               0.000000000               0.000000000               0.000242362               0.000333744               0.000049151               0.000049167               0.000094858               0.000144025               0.000000000               0.000000000               0.000000000               0.000000000               0.000271647               0.000490853               0.000046381               0.000040511               0.000150112               0.000190623               0.000000000               0.000000000               0.000000000               0.000000000               0.000290814               0.000638978               0.000041954               0.000029183               0.000203263               0.000232446               0.000000000               0.000000000               0.000000000               0.000000000               0.000305388               0.000777190               0.000036644               0.000017372               0.000253270               0.000270642               0.000000000               0.000000000               0.000000000               0.000000000               0.000318034               0.000905944               0.000030295               0.000006020               0.000299972               0.000305991               0.000000000               0.000000000               0.000000000               0.000000000               0.000332952               0.001023468               0.000023399              -0.000003077               0.000342178               0.000339101               0.000000000               0.000000000               0.000000000               0.000000000               0.000353805               0.001134299               0.000016268              -0.000009111               0.000381133               0.000372022               0.000000000               0.000000000               0.000000000               0.000000000               0.000378935               0.001237770               0.000010798              -0.000012621               0.000416793               0.000404172               0.000000000               0.000000000               0.000000000               0.000000000               0.000403232               0.001330606               0.000007801              -0.000015114               0.000448569               0.000433455               0.000000000               0.000000000               0.000000000               0.000000000               0.000425505               0.001416173               0.000006185              -0.000017457               0.000477872               0.000460415               0.000000000               0.000000000               0.000000000               0.000000000               0.000446584               0.001497143               0.000005211              -0.000019674               0.000505601               0.000485927               0.000000000               0.000000000               0.000000000               0.000000000               0.000463147               0.001565098               0.000004378              -0.000021957               0.000529013               0.000507056               0.000000000               0.000000000               0.000000000               0.000000000               0.000476211               0.001622775               0.000003545              -0.000024268               0.000549009               0.000524741               0.000000000               0.000000000               0.000000000               0.000000000               0.000492900               0.001688813               0.000002404              -0.000026264               0.000571687               0.000545423               0.000000000               0.000000000               0.000000000               0.000000000               0.000501974               0.001725208               0.000001520              -0.000027411               0.000584200               0.000556790               0.000000000               0.000000000               0.000000000               0.000000000               0.000091255               0.000067937              -0.000000000               0.000025728               0.000014069               0.000039798               0.000000000               0.000000000               0.000000000               0.000000000               0.000177606               0.000164160               0.000000000               0.000046082               0.000039359               0.000085441               0.000000000               0.000000000               0.000000000               0.000000000               0.000244354               0.000320332              -0.000000000               0.000051591               0.000089579               0.000141170               0.000000000               0.000000000               0.000000000               0.000000000               0.000278929               0.000477958              -0.000000000               0.000044853               0.000144367               0.000189220               0.000000000               0.000000000               0.000000000               0.000000000               0.000298129               0.000628694              -0.000000000               0.000033211               0.000198492               0.000231703               0.000000000               0.000000000               0.000000000               0.000000000               0.000310579               0.000767650              -0.000000000               0.000020511               0.000249044               0.000269555               0.000000000               0.000000000               0.000000000               0.000000000               0.000323976               0.000897433              -0.000000000               0.000009312               0.000296037               0.000305349               0.000000000               0.000000000               0.000000000               0.000000000               0.000338643               0.001017277              -0.000000000              -0.000000169               0.000339145               0.000338977               0.000000000               0.000000000               0.000000000               0.000000000               0.000358001               0.001129622               0.000000000              -0.000006953               0.000378854               0.000371902               0.000000000               0.000000000               0.000000000               0.000000000               0.000382437               0.001233342               0.000000000              -0.000010754               0.000414694               0.000403941               0.000000000               0.000000000               0.000000000               0.000000000               0.000408115               0.001326899               0.000000000              -0.000012819               0.000446568               0.000433749               0.000000000               0.000000000               0.000000000               0.000000000               0.000432709               0.001414699               0.000000000              -0.000014572               0.000476419               0.000461847               0.000000000               0.000000000               0.000000000               0.000000000               0.000455328               0.001496666               0.000000000              -0.000016335               0.000504329               0.000487993               0.000000000               0.000000000               0.000000000               0.000000000               0.000473446               0.001565009              -0.000000000              -0.000018084               0.000527692               0.000509608               0.000000000               0.000000000               0.000000000               0.000000000               0.000488187               0.001623303               0.000000000              -0.000019843               0.000547710               0.000527867               0.000000000               0.000000000               0.000000000               0.000000000               0.000505189               0.001688986               0.000000000              -0.000021677               0.000570215               0.000548538               0.000000000               0.000000000               0.000000000               0.000000000               0.000514107               0.001725224               0.000000000              -0.000022863               0.000582690               0.000559827               0.000000000               0.000000000               0.000000000               0.000000000               0.000092167               0.000916780              -0.000000000              -0.000080035               0.000332269               0.000252234               0.000000000               0.000000000               0.000000000               0.000000000               0.000114093               0.000779973              -0.000000000              -0.000054712               0.000278226               0.000223514               0.000000000               0.000000000               0.000000000               0.000000000               0.000170299               0.000679730               0.000000000              -0.000021104               0.000233609               0.000212505               0.000000000               0.000000000               0.000000000               0.000000000               0.000193122               0.000629498               0.000000000              -0.000006267               0.000211919               0.000205653               0.000000000               0.000000000               0.000000000               0.000000000               0.000199108               0.000613267               0.000000000              -0.000001993               0.000205084               0.000203092               0.000000000               0.000000000               0.000000000               0.000000000               0.000195065               0.000606769               0.000000000              -0.000002697               0.000203153               0.000200457               0.000000000               0.000000000               0.000000000               0.000000000               0.000195052               0.000603148               0.000000000              -0.000002249               0.000201797               0.000199548               0.000000000               0.000000000               0.000000000               0.000000000               0.000198277               0.000588483              -0.000000000               0.000000793               0.000195895               0.000196688               0.000000000               0.000000000               0.000000000               0.000000000               0.000199354               0.000567789               0.000000000               0.000003784               0.000188000               0.000191784               0.000000000               0.000000000               0.000000000               0.000000000               0.000198131               0.000552926               0.000000000               0.000005183               0.000182579               0.000187762               0.000000000               0.000000000               0.000000000               0.000000000               0.000192287               0.000542285               0.000000000               0.000004322               0.000179319               0.000183641               0.000000000               0.000000000               0.000000000               0.000000000               0.000177861               0.000538777               0.000000000              -0.000000649               0.000179807               0.000179158               0.000000000               0.000000000               0.000000000               0.000000000               0.000155071               0.000544090              -0.000000000              -0.000009860               0.000184648               0.000174788               0.000000000               0.000000000               0.000000000               0.000000000               0.000125215               0.000557178               0.000000000              -0.000022691               0.000193288               0.000170596               0.000000000               0.000000000               0.000000000               0.000000000               0.000087758               0.000577032               0.000000000              -0.000039220               0.000205415               0.000166195               0.000000000               0.000000000               0.000000000               0.000000000               0.000044600               0.000602901               0.000000000              -0.000058637               0.000220511               0.000161873               0.000000000               0.000000000               0.000000000               0.000000000               0.000025686               0.000626653               0.000000000              -0.000068699               0.000231782               0.000163083               0.000000000               0.000000000               0.000000000               0.000000000               0.000095570               0.000900782              -0.000071363              -0.000076759               0.000325844               0.000249085               0.000000000               0.000000000               0.000000000               0.000000000               0.000114849               0.000769129              -0.000048286              -0.000053073               0.000274064               0.000220992               0.000000000               0.000000000               0.000000000               0.000000000               0.000168992               0.000672989              -0.000024212              -0.000020752               0.000231245               0.000210493               0.000000000               0.000000000               0.000000000               0.000000000               0.000191967               0.000627607              -0.000009866              -0.000006463               0.000211355               0.000204891               0.000000000               0.000000000               0.000000000               0.000000000               0.000197052               0.000610973              -0.000002192              -0.000002477               0.000204481               0.000202004               0.000000000               0.000000000               0.000000000               0.000000000               0.000192783               0.000606432              -0.000000490              -0.000003510               0.000203312               0.000199802               0.000000000               0.000000000               0.000000000               0.000000000               0.000191560               0.000602874              -0.000005514              -0.000003524               0.000202131               0.000198607               0.000000000               0.000000000               0.000000000               0.000000000               0.000195720               0.000589907              -0.000013716              -0.000000343               0.000196748               0.000196405               0.000000000               0.000000000               0.000000000               0.000000000               0.000196329               0.000573513              -0.000015822               0.000001934               0.000190524               0.000192459               0.000000000               0.000000000               0.000000000               0.000000000               0.000190470               0.000561455              -0.000016636               0.000001244               0.000186735               0.000187979               0.000000000               0.000000000               0.000000000               0.000000000               0.000181453               0.000554543              -0.000017625              -0.000001273               0.000185270               0.000183997               0.000000000               0.000000000               0.000000000               0.000000000               0.000165916               0.000554041              -0.000015911              -0.000007037               0.000187024               0.000179987               0.000000000               0.000000000               0.000000000               0.000000000               0.000142450               0.000560287              -0.000013863              -0.000016617               0.000192300               0.000175682               0.000000000               0.000000000               0.000000000               0.000000000               0.000114567               0.000573871              -0.000011412              -0.000028771               0.000200879               0.000172108               0.000000000               0.000000000               0.000000000               0.000000000               0.000080744               0.000593595              -0.000008075              -0.000043920               0.000212503               0.000168583               0.000000000               0.000000000               0.000000000               0.000000000               0.000040793               0.000618175              -0.000004263              -0.000061974               0.000226714               0.000164740               0.000000000               0.000000000               0.000000000               0.000000000               0.000023391               0.000640306              -0.000003230              -0.000071266               0.000237189               0.000165922               0.000000000               0.000000000               0.000000000               0.000000000               0.000112724               0.000863558              -0.000138382              -0.000065673               0.000309741               0.000244068               0.000000000               0.000000000               0.000000000               0.000000000               0.000123926               0.000742304              -0.000092779              -0.000046316               0.000262871               0.000216555               0.000000000               0.000000000               0.000000000               0.000000000               0.000168785               0.000658108              -0.000044625              -0.000018969               0.000225690               0.000206721               0.000000000               0.000000000               0.000000000               0.000000000               0.000185572               0.000621852              -0.000018971              -0.000008142               0.000209996               0.000201854               0.000000000               0.000000000               0.000000000               0.000000000               0.000189052               0.000608852              -0.000004835              -0.000005212               0.000204686               0.000199474               0.000000000               0.000000000               0.000000000               0.000000000               0.000188756               0.000606827              -0.000001895              -0.000005070               0.000203964               0.000198894               0.000000000               0.000000000               0.000000000               0.000000000               0.000187290               0.000602300              -0.000011983              -0.000005054               0.000202449               0.000197395               0.000000000               0.000000000               0.000000000               0.000000000               0.000186688               0.000593937              -0.000025408              -0.000004234               0.000199388               0.000195154               0.000000000               0.000000000               0.000000000               0.000000000               0.000182816               0.000589446              -0.000028505              -0.000005125               0.000198188               0.000193063               0.000000000               0.000000000               0.000000000               0.000000000               0.000173796               0.000589729              -0.000028976              -0.000008543               0.000199422               0.000190879               0.000000000               0.000000000               0.000000000               0.000000000               0.000161135               0.000593981              -0.000029670              -0.000013822               0.000202599               0.000188777               0.000000000               0.000000000               0.000000000               0.000000000               0.000142332               0.000602070              -0.000027167              -0.000021884               0.000207983               0.000186099               0.000000000               0.000000000               0.000000000               0.000000000               0.000118836               0.000613818              -0.000023626              -0.000032164               0.000215325               0.000183162               0.000000000               0.000000000               0.000000000               0.000000000               0.000094757               0.000630802              -0.000018973              -0.000043316               0.000224704               0.000181388               0.000000000               0.000000000               0.000000000               0.000000000               0.000066973               0.000651822              -0.000013088              -0.000056363               0.000236059               0.000179697               0.000000000               0.000000000               0.000000000               0.000000000               0.000033771               0.000676282              -0.000006583              -0.000071871               0.000249382               0.000177511               0.000000000               0.000000000               0.000000000               0.000000000               0.000020360               0.000697890              -0.000005285              -0.000079601               0.000259162               0.000179560               0.000000000               0.000000000               0.000000000               0.000000000               0.000138621               0.000810445              -0.000190623              -0.000049323               0.000286586               0.000237264               0.000000000               0.000000000               0.000000000               0.000000000               0.000135657               0.000702915              -0.000127062              -0.000036993               0.000246634               0.000209641               0.000000000               0.000000000               0.000000000               0.000000000               0.000165817               0.000638528              -0.000060317              -0.000017635               0.000218719               0.000201084               0.000000000               0.000000000               0.000000000               0.000000000               0.000176135               0.000614869              -0.000025694              -0.000010808               0.000208557               0.000197749               0.000000000               0.000000000               0.000000000               0.000000000               0.000177343               0.000610600              -0.000008390              -0.000009821               0.000206805               0.000196984               0.000000000               0.000000000               0.000000000               0.000000000               0.000178238               0.000609574              -0.000006877              -0.000009358               0.000206309               0.000196951               0.000000000               0.000000000               0.000000000               0.000000000               0.000180557               0.000608137              -0.000020194              -0.000008308               0.000205480               0.000197172               0.000000000               0.000000000               0.000000000               0.000000000               0.000181246               0.000609709              -0.000034622              -0.000008246               0.000205983               0.000197737               0.000000000               0.000000000               0.000000000               0.000000000               0.000176703               0.000621980              -0.000037097              -0.000011484               0.000211152               0.000199669               0.000000000               0.000000000               0.000000000               0.000000000               0.000161892               0.000638887              -0.000038326              -0.000019151               0.000219344               0.000200193               0.000000000               0.000000000               0.000000000               0.000000000               0.000140747               0.000659239              -0.000040055              -0.000029625               0.000229619               0.000199995               0.000000000               0.000000000               0.000000000               0.000000000               0.000117062               0.000682565              -0.000037796              -0.000041422               0.000241327               0.000199905               0.000000000               0.000000000               0.000000000               0.000000000               0.000092382               0.000707753              -0.000034140              -0.000053826               0.000253857               0.000200031               0.000000000               0.000000000               0.000000000               0.000000000               0.000070922               0.000735548              -0.000028524              -0.000065347               0.000266963               0.000201615               0.000000000               0.000000000               0.000000000               0.000000000               0.000049472               0.000765082              -0.000020795              -0.000077083               0.000280719               0.000203636               0.000000000               0.000000000               0.000000000               0.000000000               0.000024239               0.000795462              -0.000011221              -0.000090343               0.000295266               0.000204923               0.000000000               0.000000000               0.000000000               0.000000000               0.000015980               0.000819617              -0.000008774              -0.000096460               0.000305356               0.000208897               0.000000000               0.000000000               0.000000000               0.000000000               0.000165344               0.000736328              -0.000228310              -0.000030037               0.000255453               0.000225415               0.000000000               0.000000000               0.000000000               0.000000000               0.000145573               0.000652730              -0.000150315              -0.000027001               0.000226575               0.000199573               0.000000000               0.000000000               0.000000000               0.000000000               0.000158341               0.000618135              -0.000069674              -0.000017889               0.000212006               0.000194117               0.000000000               0.000000000               0.000000000               0.000000000               0.000162154               0.000612003              -0.000031238              -0.000015693               0.000209230               0.000193537               0.000000000               0.000000000               0.000000000               0.000000000               0.000161077               0.000616527              -0.000014303              -0.000016662               0.000211061               0.000194399               0.000000000               0.000000000               0.000000000               0.000000000               0.000167078               0.000624853              -0.000014666              -0.000015452               0.000213433               0.000197981               0.000000000               0.000000000               0.000000000               0.000000000               0.000176935               0.000632690              -0.000029946              -0.000012735               0.000215140               0.000202404               0.000000000               0.000000000               0.000000000               0.000000000               0.000180705               0.000650066              -0.000044248              -0.000013494               0.000221185               0.000207691               0.000000000               0.000000000               0.000000000               0.000000000               0.000174438               0.000681128              -0.000045614              -0.000019727               0.000233616               0.000213889               0.000000000               0.000000000               0.000000000               0.000000000               0.000157112               0.000717294              -0.000046305              -0.000030745               0.000249344               0.000218599               0.000000000               0.000000000               0.000000000               0.000000000               0.000135139               0.000758444              -0.000047333              -0.000044128               0.000267522               0.000223393               0.000000000               0.000000000               0.000000000               0.000000000               0.000109413               0.000800497              -0.000044758              -0.000059032               0.000286507               0.000227475               0.000000000               0.000000000               0.000000000               0.000000000               0.000083349               0.000843109              -0.000040437              -0.000074133               0.000305744               0.000231612               0.000000000               0.000000000               0.000000000               0.000000000               0.000062351               0.000886426              -0.000033616              -0.000087422               0.000324613               0.000237191               0.000000000               0.000000000               0.000000000               0.000000000               0.000041571               0.000928168              -0.000024292              -0.000100431               0.000342863               0.000242432               0.000000000               0.000000000               0.000000000               0.000000000               0.000019010               0.000966727              -0.000013040              -0.000113712               0.000360143               0.000246431               0.000000000               0.000000000               0.000000000               0.000000000               0.000013337               0.000993558              -0.000009902              -0.000119193               0.000370914               0.000251721               0.000000000               0.000000000               0.000000000               0.000000000               0.000190646               0.000654250              -0.000246015              -0.000010289               0.000221511               0.000211222               0.000000000               0.000000000               0.000000000               0.000000000               0.000154185               0.000602045              -0.000161111              -0.000017436               0.000206492               0.000189055               0.000000000               0.000000000               0.000000000               0.000000000               0.000148194               0.000601879              -0.000075319              -0.000019662               0.000207178               0.000187516               0.000000000               0.000000000               0.000000000               0.000000000               0.000145455               0.000617930              -0.000038769              -0.000022696               0.000213540               0.000190844               0.000000000               0.000000000               0.000000000               0.000000000               0.000148481               0.000637313              -0.000023069              -0.000023984               0.000220430               0.000196446               0.000000000               0.000000000               0.000000000               0.000000000               0.000160008               0.000658963              -0.000025067              -0.000022367               0.000227108               0.000204741               0.000000000               0.000000000               0.000000000               0.000000000               0.000174505               0.000686516              -0.000039948              -0.000020375               0.000235628               0.000215253               0.000000000               0.000000000               0.000000000               0.000000000               0.000184635               0.000730334              -0.000050225              -0.000022054               0.000250793               0.000228740               0.000000000               0.000000000               0.000000000               0.000000000               0.000179918               0.000784011              -0.000049565              -0.000030532               0.000271512               0.000240980               0.000000000               0.000000000               0.000000000               0.000000000               0.000161810               0.000839384              -0.000048911              -0.000044244               0.000294540               0.000250296               0.000000000               0.000000000               0.000000000               0.000000000               0.000138344               0.000894590              -0.000048762              -0.000059945               0.000318175               0.000258231               0.000000000               0.000000000               0.000000000               0.000000000               0.000112303               0.000949556              -0.000045841              -0.000076581               0.000342042               0.000265462               0.000000000               0.000000000               0.000000000               0.000000000               0.000088579               0.001003831              -0.000040260              -0.000092262               0.000365361               0.000273099               0.000000000               0.000000000               0.000000000               0.000000000               0.000067972               0.001057104              -0.000032636              -0.000106648               0.000387914               0.000281266               0.000000000               0.000000000               0.000000000               0.000000000               0.000044646               0.001104894              -0.000023057              -0.000121369               0.000408751               0.000287382               0.000000000               0.000000000               0.000000000               0.000000000               0.000020066               0.001146439              -0.000012162              -0.000135780               0.000427402               0.000291623               0.000000000               0.000000000               0.000000000               0.000000000               0.000013662               0.001174227              -0.000009474              -0.000141655               0.000438623               0.000296968               0.000000000               0.000000000               0.000000000               0.000000000               0.000206439               0.000575665              -0.000246436               0.000005456               0.000190068               0.000195524               0.000000000               0.000000000               0.000000000               0.000000000               0.000156765               0.000556863              -0.000164646              -0.000010821               0.000189226               0.000178405               0.000000000               0.000000000               0.000000000               0.000000000               0.000137703               0.000594318              -0.000081245              -0.000022651               0.000205655               0.000183003               0.000000000               0.000000000               0.000000000               0.000000000               0.000134585               0.000634317              -0.000047463              -0.000028820               0.000221044               0.000192224               0.000000000               0.000000000               0.000000000               0.000000000               0.000142052               0.000676693              -0.000034852              -0.000031317               0.000236001               0.000204684               0.000000000               0.000000000               0.000000000               0.000000000               0.000163222               0.000723352              -0.000034877              -0.000029211               0.000250852               0.000221641               0.000000000               0.000000000               0.000000000               0.000000000               0.000187226               0.000779681              -0.000045449              -0.000027250               0.000268975               0.000241724               0.000000000               0.000000000               0.000000000               0.000000000               0.000196695               0.000843820              -0.000052535              -0.000031717               0.000291843               0.000260126               0.000000000               0.000000000               0.000000000               0.000000000               0.000188378               0.000914562              -0.000051196              -0.000043678               0.000319411               0.000275732               0.000000000               0.000000000               0.000000000               0.000000000               0.000168601               0.000982643              -0.000051403              -0.000059605               0.000347413               0.000287808               0.000000000               0.000000000               0.000000000               0.000000000               0.000144392               0.001045139              -0.000050580              -0.000076495               0.000373875               0.000297379               0.000000000               0.000000000               0.000000000               0.000000000               0.000118497               0.001105805              -0.000045325              -0.000093789               0.000399861               0.000306072               0.000000000               0.000000000               0.000000000               0.000000000               0.000095427               0.001164501              -0.000037573              -0.000109777               0.000424756               0.000314978               0.000000000               0.000000000               0.000000000               0.000000000               0.000073232               0.001218792              -0.000028540              -0.000124887               0.000447889               0.000323002               0.000000000               0.000000000               0.000000000               0.000000000               0.000047817               0.001267083              -0.000019730              -0.000140453               0.000469174               0.000328721               0.000000000               0.000000000               0.000000000               0.000000000               0.000022244               0.001309672              -0.000010159              -0.000155367               0.000488342               0.000332975               0.000000000               0.000000000               0.000000000               0.000000000               0.000015164               0.001338091              -0.000008153              -0.000161574               0.000499884               0.000338310               0.000000000               0.000000000               0.000000000               0.000000000               0.000214192               0.000501621              -0.000236408               0.000017619               0.000161332               0.000178951               0.000000000               0.000000000               0.000000000               0.000000000               0.000156053               0.000518249              -0.000163014              -0.000006261               0.000174835               0.000168574               0.000000000               0.000000000               0.000000000               0.000000000               0.000128024               0.000597165              -0.000088645              -0.000026637               0.000207932               0.000181295               0.000000000               0.000000000               0.000000000               0.000000000               0.000131257               0.000666521              -0.000058341              -0.000034094               0.000233536               0.000199442               0.000000000               0.000000000               0.000000000               0.000000000               0.000151893               0.000737299              -0.000044749              -0.000035202               0.000257498               0.000222296               0.000000000               0.000000000               0.000000000               0.000000000               0.000183486               0.000811170              -0.000043477              -0.000032589               0.000281250               0.000248661               0.000000000               0.000000000               0.000000000               0.000000000               0.000209961               0.000884600              -0.000052038              -0.000031839               0.000305477               0.000273637               0.000000000               0.000000000               0.000000000               0.000000000               0.000215445               0.000964094              -0.000056708              -0.000039720               0.000334601               0.000294882               0.000000000               0.000000000               0.000000000               0.000000000               0.000200700               0.001044304              -0.000053502              -0.000055275               0.000366523               0.000311248               0.000000000               0.000000000               0.000000000               0.000000000               0.000175886               0.001115325              -0.000052654              -0.000073458               0.000396257               0.000322799               0.000000000               0.000000000               0.000000000               0.000000000               0.000150263               0.001182288              -0.000049617              -0.000091437               0.000424571               0.000333134               0.000000000               0.000000000               0.000000000               0.000000000               0.000125263               0.001247715              -0.000040395              -0.000108990               0.000452231               0.000343240               0.000000000               0.000000000               0.000000000               0.000000000               0.000099783               0.001310718              -0.000031016              -0.000126421               0.000479042               0.000352621               0.000000000               0.000000000               0.000000000               0.000000000               0.000072666               0.001369035              -0.000022063              -0.000143879               0.000504300               0.000360421               0.000000000               0.000000000               0.000000000               0.000000000               0.000045741               0.001424232              -0.000013227              -0.000160876               0.000528365               0.000367489               0.000000000               0.000000000               0.000000000               0.000000000               0.000021707               0.001476672              -0.000006185              -0.000176443               0.000551034               0.000374590               0.000000000               0.000000000               0.000000000               0.000000000               0.000014172               0.001510610              -0.000006190              -0.000183511               0.000564702               0.000381191               0.000000000               0.000000000               0.000000000               0.000000000               0.000216772               0.000434253              -0.000219073               0.000027007               0.000135747               0.000162755               0.000000000               0.000000000               0.000000000               0.000000000               0.000155762               0.000485021              -0.000160208              -0.000002217               0.000162411               0.000160194               0.000000000               0.000000000               0.000000000               0.000000000               0.000127114               0.000605306              -0.000099527              -0.000027996               0.000211098               0.000183103               0.000000000               0.000000000               0.000000000               0.000000000               0.000137255               0.000703770              -0.000071202              -0.000036501               0.000246755               0.000210254               0.000000000               0.000000000               0.000000000               0.000000000               0.000166500               0.000795997              -0.000056018              -0.000037062               0.000277684               0.000240621               0.000000000               0.000000000               0.000000000               0.000000000               0.000205598               0.000883460              -0.000052741              -0.000033333               0.000305595               0.000272262               0.000000000               0.000000000               0.000000000               0.000000000               0.000233484               0.000965264              -0.000054180              -0.000033101               0.000332785               0.000299684               0.000000000               0.000000000               0.000000000               0.000000000               0.000235955               0.001052648              -0.000054062              -0.000043098               0.000365245               0.000322147               0.000000000               0.000000000               0.000000000               0.000000000               0.000214775               0.001134235              -0.000051487              -0.000061239               0.000398488               0.000337249               0.000000000               0.000000000               0.000000000               0.000000000               0.000188729               0.001206320              -0.000049327              -0.000080017               0.000428775               0.000348758               0.000000000               0.000000000               0.000000000               0.000000000               0.000163162               0.001277854              -0.000043087              -0.000098546               0.000458796               0.000360250               0.000000000               0.000000000               0.000000000               0.000000000               0.000138536               0.001350602              -0.000032307              -0.000116874               0.000489154               0.000372280               0.000000000               0.000000000               0.000000000               0.000000000               0.000113847               0.001421542              -0.000022146              -0.000135000               0.000518843               0.000383843               0.000000000               0.000000000               0.000000000               0.000000000               0.000088158               0.001491087              -0.000013579              -0.000153326               0.000548133               0.000394807               0.000000000               0.000000000               0.000000000               0.000000000               0.000064783               0.001560142              -0.000005626              -0.000170724               0.000576950               0.000406226               0.000000000               0.000000000               0.000000000               0.000000000               0.000045706               0.001625152              -0.000000314              -0.000186004               0.000603713               0.000417709               0.000000000               0.000000000               0.000000000               0.000000000               0.000035457               0.001659172               0.000000791              -0.000194100               0.000617752               0.000423652               0.000000000               0.000000000               0.000000000               0.000000000               0.000213995               0.000361817              -0.000198951               0.000035020               0.000108931               0.000143951               0.000000000               0.000000000               0.000000000               0.000000000               0.000160478               0.000439139              -0.000160748               0.000005286               0.000144616               0.000149902               0.000000000               0.000000000               0.000000000               0.000000000               0.000136262               0.000590852              -0.000118408              -0.000022758               0.000204535               0.000181777               0.000000000               0.000000000               0.000000000               0.000000000               0.000150559               0.000710093              -0.000091781              -0.000032302               0.000247462               0.000215161               0.000000000               0.000000000               0.000000000               0.000000000               0.000179891               0.000819448              -0.000075226              -0.000034972               0.000284804               0.000249832               0.000000000               0.000000000               0.000000000               0.000000000               0.000215504               0.000917590              -0.000065239              -0.000033885               0.000317155               0.000283270               0.000000000               0.000000000               0.000000000               0.000000000               0.000243725               0.000999264              -0.000056798              -0.000033511               0.000344255               0.000310744               0.000000000               0.000000000               0.000000000               0.000000000               0.000252517               0.001077785              -0.000050632              -0.000040029               0.000372601               0.000332572               0.000000000               0.000000000               0.000000000               0.000000000               0.000239859               0.001157963              -0.000048871              -0.000054798               0.000404250               0.000349452               0.000000000               0.000000000               0.000000000               0.000000000               0.000218669               0.001233585              -0.000047524              -0.000072197               0.000435257               0.000363060               0.000000000               0.000000000               0.000000000               0.000000000               0.000196538               0.001305527              -0.000041455              -0.000089489               0.000465001               0.000375512               0.000000000               0.000000000               0.000000000               0.000000000               0.000174871               0.001379255              -0.000034037              -0.000106830               0.000495357               0.000388527               0.000000000               0.000000000               0.000000000               0.000000000               0.000155911               0.001456949              -0.000025647              -0.000123652               0.000526862               0.000403210               0.000000000               0.000000000               0.000000000               0.000000000               0.000136737               0.001535581              -0.000016553              -0.000140671               0.000558746               0.000418075               0.000000000               0.000000000               0.000000000               0.000000000               0.000116941               0.001612356              -0.000009585              -0.000157691               0.000590010               0.000432319               0.000000000               0.000000000               0.000000000               0.000000000               0.000099373               0.001686323              -0.000003543              -0.000173525               0.000619944               0.000446419               0.000000000               0.000000000               0.000000000               0.000000000               0.000085099               0.001718531               0.000001834              -0.000182904               0.000633806               0.000450902               0.000000000               0.000000000               0.000000000               0.000000000               0.000204691               0.000294339              -0.000175862               0.000039966               0.000084790               0.000124756               0.000000000               0.000000000               0.000000000               0.000000000               0.000169203               0.000393184              -0.000159835               0.000014303               0.000126293               0.000140595               0.000000000               0.000000000               0.000000000               0.000000000               0.000152719               0.000562780              -0.000136779              -0.000013078               0.000191951               0.000178873               0.000000000               0.000000000               0.000000000               0.000000000               0.000165751               0.000697013              -0.000112265              -0.000024970               0.000240659               0.000215689               0.000000000               0.000000000               0.000000000               0.000000000               0.000189218               0.000819871              -0.000091429              -0.000031527               0.000283797               0.000252270               0.000000000               0.000000000               0.000000000               0.000000000               0.000215296               0.000921926              -0.000074955              -0.000034505               0.000318807               0.000284302               0.000000000               0.000000000               0.000000000               0.000000000               0.000242377               0.001001712              -0.000059278              -0.000034323               0.000345342               0.000311019               0.000000000               0.000000000               0.000000000               0.000000000               0.000262819               0.001078883              -0.000047172              -0.000036303               0.000371725               0.000335422               0.000000000               0.000000000               0.000000000               0.000000000               0.000267580               0.001161687              -0.000043755              -0.000044868               0.000402181               0.000357313               0.000000000               0.000000000               0.000000000               0.000000000               0.000257262               0.001241898              -0.000043980              -0.000058764               0.000433550               0.000374786               0.000000000               0.000000000               0.000000000               0.000000000               0.000243505               0.001316590              -0.000041991              -0.000073259               0.000463279               0.000390020               0.000000000               0.000000000               0.000000000               0.000000000               0.000229120               0.001389129              -0.000038908              -0.000087721               0.000492279               0.000404558               0.000000000               0.000000000               0.000000000               0.000000000               0.000214268               0.001464648              -0.000033108              -0.000102730               0.000522454               0.000419724               0.000000000               0.000000000               0.000000000               0.000000000               0.000200287               0.001543195              -0.000023511              -0.000117792               0.000553657               0.000435865               0.000000000               0.000000000               0.000000000               0.000000000               0.000182525               0.001616783              -0.000013928              -0.000133651               0.000583473               0.000449822               0.000000000               0.000000000               0.000000000               0.000000000               0.000163243               0.001689249              -0.000006471              -0.000149940               0.000613057               0.000463118               0.000000000               0.000000000               0.000000000               0.000000000               0.000145639               0.001720606               0.000000169              -0.000160461               0.000627016               0.000466556               0.000000000               0.000000000               0.000000000               0.000000000               0.000189242               0.000233336              -0.000148668               0.000041798               0.000063845               0.000105643               0.000000000               0.000000000               0.000000000               0.000000000               0.000176558               0.000342789              -0.000152744               0.000023360               0.000106475               0.000129835               0.000000000               0.000000000               0.000000000               0.000000000               0.000172739               0.000522514              -0.000146592              -0.000000537               0.000174349               0.000173811               0.000000000               0.000000000               0.000000000               0.000000000               0.000184017               0.000671771              -0.000124911              -0.000014965               0.000228910               0.000213945               0.000000000               0.000000000               0.000000000               0.000000000               0.000203010               0.000801232              -0.000102827              -0.000024025               0.000275083               0.000251058               0.000000000               0.000000000               0.000000000               0.000000000               0.000222494               0.000903947              -0.000082921              -0.000029558               0.000311165               0.000281607               0.000000000               0.000000000               0.000000000               0.000000000               0.000245340               0.000989490              -0.000063563              -0.000031684               0.000340388               0.000308704               0.000000000               0.000000000               0.000000000               0.000000000               0.000272340               0.001075404              -0.000048612              -0.000032298               0.000369230               0.000336932               0.000000000               0.000000000               0.000000000               0.000000000               0.000292682               0.001165544              -0.000041549              -0.000035937               0.000400490               0.000364553               0.000000000               0.000000000               0.000000000               0.000000000               0.000297582               0.001252539              -0.000040485              -0.000044974               0.000432500               0.000387526               0.000000000               0.000000000               0.000000000               0.000000000               0.000293063               0.001331633              -0.000040567              -0.000056555               0.000462725               0.000406169               0.000000000               0.000000000               0.000000000               0.000000000               0.000284394               0.001403692              -0.000039440              -0.000068814               0.000490831               0.000422017               0.000000000               0.000000000               0.000000000               0.000000000               0.000271893               0.001472173              -0.000035748              -0.000082062               0.000518073               0.000436012               0.000000000               0.000000000               0.000000000               0.000000000               0.000259856               0.001543255              -0.000028061              -0.000095461               0.000546234               0.000450773               0.000000000               0.000000000               0.000000000               0.000000000               0.000248422               0.001617721              -0.000018359              -0.000109056               0.000575587               0.000466531               0.000000000               0.000000000               0.000000000               0.000000000               0.000234468               0.001694337              -0.000009394              -0.000123866               0.000606062               0.000482196               0.000000000               0.000000000               0.000000000               0.000000000               0.000216498               0.001725858              -0.000001257              -0.000134545               0.000620129               0.000485583               0.000000000               0.000000000               0.000000000               0.000000000               0.000169242               0.000176397              -0.000119039               0.000041416               0.000044993               0.000086409               0.000000000               0.000000000               0.000000000               0.000000000               0.000182029               0.000290495              -0.000136640               0.000031949               0.000086181               0.000118130               0.000000000               0.000000000               0.000000000               0.000000000               0.000193356               0.000475150              -0.000142866               0.000013115               0.000154010               0.000167125               0.000000000               0.000000000               0.000000000               0.000000000               0.000207930               0.000629514              -0.000126816              -0.000000715               0.000210074               0.000209359               0.000000000               0.000000000               0.000000000               0.000000000               0.000223866               0.000759365              -0.000106746              -0.000010971               0.000256776               0.000245805               0.000000000               0.000000000               0.000000000               0.000000000               0.000237962               0.000869628              -0.000086418              -0.000019468               0.000296362               0.000276895               0.000000000               0.000000000               0.000000000               0.000000000               0.000259407               0.000973282              -0.000067623              -0.000024383               0.000332552               0.000308169               0.000000000               0.000000000               0.000000000               0.000000000               0.000288075               0.001073627              -0.000052349              -0.000026175               0.000366597               0.000340422               0.000000000               0.000000000               0.000000000               0.000000000               0.000314409               0.001168909              -0.000041335              -0.000028210               0.000399036               0.000370825               0.000000000               0.000000000               0.000000000               0.000000000               0.000329210               0.001257846              -0.000035872              -0.000033777               0.000430537               0.000396760               0.000000000               0.000000000               0.000000000               0.000000000               0.000334336               0.001340825              -0.000034633              -0.000042227               0.000461013               0.000418786               0.000000000               0.000000000               0.000000000               0.000000000               0.000333107               0.001414166              -0.000033321              -0.000051855               0.000488669               0.000436814               0.000000000               0.000000000               0.000000000               0.000000000               0.000326972               0.001478611              -0.000031213              -0.000062212               0.000513602               0.000451391               0.000000000               0.000000000               0.000000000               0.000000000               0.000321112               0.001546218              -0.000027901              -0.000072860               0.000539688               0.000466827               0.000000000               0.000000000               0.000000000               0.000000000               0.000317841               0.001620924              -0.000021107              -0.000083425               0.000568111               0.000484686               0.000000000               0.000000000               0.000000000               0.000000000               0.000311846               0.001694589              -0.000010722              -0.000094881               0.000596485               0.000501603               0.000000000               0.000000000               0.000000000               0.000000000               0.000299832               0.001723974              -0.000002176              -0.000103059               0.000609005               0.000505946               0.000000000               0.000000000               0.000000000               0.000000000               0.000144369               0.000128737              -0.000087599               0.000038046               0.000030230               0.000068276               0.000000000               0.000000000               0.000000000               0.000000000               0.000184342               0.000242381              -0.000111312               0.000038830               0.000067849               0.000106680               0.000000000               0.000000000               0.000000000               0.000000000               0.000214547               0.000421010              -0.000124857               0.000027828               0.000131059               0.000158887               0.000000000               0.000000000               0.000000000               0.000000000               0.000234095               0.000575346              -0.000114701               0.000015867               0.000186491               0.000202358               0.000000000               0.000000000               0.000000000               0.000000000               0.000247469               0.000711670              -0.000097924               0.000003842               0.000235940               0.000239782               0.000000000               0.000000000               0.000000000               0.000000000               0.000260876               0.000835359              -0.000081792              -0.000006592               0.000280647               0.000274056               0.000000000               0.000000000               0.000000000               0.000000000               0.000281184               0.000953842              -0.000067489              -0.000013786               0.000322540               0.000308753               0.000000000               0.000000000               0.000000000               0.000000000               0.000305748               0.001062728              -0.000052538              -0.000018185               0.000360301               0.000342116               0.000000000               0.000000000               0.000000000               0.000000000               0.000329562               0.001160227              -0.000038097              -0.000021442               0.000393886               0.000372443               0.000000000               0.000000000               0.000000000               0.000000000               0.000349917               0.001252494              -0.000028582              -0.000025343               0.000425941               0.000400599               0.000000000               0.000000000               0.000000000               0.000000000               0.000365025               0.001341214              -0.000025630              -0.000030767               0.000457323               0.000426555               0.000000000               0.000000000               0.000000000               0.000000000               0.000374181               0.001419474              -0.000024012              -0.000037116               0.000485525               0.000448409               0.000000000               0.000000000               0.000000000               0.000000000               0.000379223               0.001489523              -0.000023048              -0.000043981               0.000511163               0.000467182               0.000000000               0.000000000               0.000000000               0.000000000               0.000382321               0.001556563              -0.000022702              -0.000051200               0.000535916               0.000484716               0.000000000               0.000000000               0.000000000               0.000000000               0.000384915               0.001622906              -0.000018393              -0.000058520               0.000560470               0.000501950               0.000000000               0.000000000               0.000000000               0.000000000               0.000388269               0.001690706              -0.000010062              -0.000065737               0.000585476               0.000519738               0.000000000               0.000000000               0.000000000               0.000000000               0.000386224               0.001721659              -0.000004294              -0.000070373               0.000597338               0.000526965               0.000000000               0.000000000               0.000000000               0.000000000               0.000118601               0.000093460              -0.000055211               0.000032793               0.000020222               0.000053015               0.000000000               0.000000000               0.000000000               0.000000000               0.000183926               0.000200496              -0.000078174               0.000043910               0.000052195               0.000096104               0.000000000               0.000000000               0.000000000               0.000000000               0.000233028               0.000369895              -0.000092584               0.000041148               0.000109581               0.000150729               0.000000000               0.000000000               0.000000000               0.000000000               0.000255363               0.000525938              -0.000086452               0.000030019               0.000165305               0.000195323               0.000000000               0.000000000               0.000000000               0.000000000               0.000271193               0.000668756              -0.000075736               0.000018103               0.000216882               0.000234985               0.000000000               0.000000000               0.000000000               0.000000000               0.000287243               0.000802325              -0.000065611               0.000007425               0.000264964               0.000272389               0.000000000               0.000000000               0.000000000               0.000000000               0.000303277               0.000928737              -0.000054924              -0.000002363               0.000310364               0.000308000               0.000000000               0.000000000               0.000000000               0.000000000               0.000321078               0.001042133              -0.000041895              -0.000009863               0.000350662               0.000340799               0.000000000               0.000000000               0.000000000               0.000000000               0.000342078               0.001144992              -0.000029039              -0.000014845               0.000386609               0.000371764               0.000000000               0.000000000               0.000000000               0.000000000               0.000366236               0.001244205              -0.000020508              -0.000018187               0.000420793               0.000402606               0.000000000               0.000000000               0.000000000               0.000000000               0.000388380               0.001337588              -0.000016965              -0.000021556               0.000453043               0.000431488               0.000000000               0.000000000               0.000000000               0.000000000               0.000405831               0.001419921              -0.000014759              -0.000025303               0.000481737               0.000456434               0.000000000               0.000000000               0.000000000               0.000000000               0.000421024               0.001496676              -0.000013424              -0.000029200               0.000508620               0.000479420               0.000000000               0.000000000               0.000000000               0.000000000               0.000432218               0.001563949              -0.000012967              -0.000033412               0.000532448               0.000499037               0.000000000               0.000000000               0.000000000               0.000000000               0.000440445               0.001622498              -0.000010686              -0.000037645               0.000553376               0.000515730               0.000000000               0.000000000               0.000000000               0.000000000               0.000452912               0.001688420              -0.000006501              -0.000041210               0.000576538               0.000535327               0.000000000               0.000000000               0.000000000               0.000000000               0.000459199               0.001723414              -0.000003884              -0.000043227               0.000588875               0.000545648               0.000000000               0.000000000               0.000000000               0.000000000               0.000098820               0.000073681              -0.000025693               0.000027847               0.000015278               0.000043125               0.000000000               0.000000000               0.000000000               0.000000000               0.000180272               0.000173153              -0.000040070               0.000045957               0.000042398               0.000088355               0.000000000               0.000000000               0.000000000               0.000000000               0.000242362               0.000333744              -0.000049151               0.000049167               0.000094858               0.000144025               0.000000000               0.000000000               0.000000000               0.000000000               0.000271647               0.000490853              -0.000046381               0.000040511               0.000150112               0.000190623               0.000000000               0.000000000               0.000000000               0.000000000               0.000290814               0.000638978              -0.000041954               0.000029183               0.000203263               0.000232446               0.000000000               0.000000000               0.000000000               0.000000000               0.000305388               0.000777190              -0.000036644               0.000017372               0.000253270               0.000270642               0.000000000               0.000000000               0.000000000               0.000000000               0.000318034               0.000905944              -0.000030295               0.000006020               0.000299972               0.000305991               0.000000000               0.000000000               0.000000000               0.000000000               0.000332952               0.001023468              -0.000023399              -0.000003077               0.000342178               0.000339101               0.000000000               0.000000000               0.000000000               0.000000000               0.000353805               0.001134299              -0.000016268              -0.000009111               0.000381133               0.000372022               0.000000000               0.000000000               0.000000000               0.000000000               0.000378935               0.001237770              -0.000010798              -0.000012621               0.000416793               0.000404172               0.000000000               0.000000000               0.000000000               0.000000000               0.000403232               0.001330606              -0.000007801              -0.000015114               0.000448569               0.000433455               0.000000000               0.000000000               0.000000000               0.000000000               0.000425505               0.001416173              -0.000006185              -0.000017457               0.000477872               0.000460415               0.000000000               0.000000000               0.000000000               0.000000000               0.000446584               0.001497143              -0.000005211              -0.000019674               0.000505601               0.000485927               0.000000000               0.000000000               0.000000000               0.000000000               0.000463147               0.001565098              -0.000004378              -0.000021957               0.000529013               0.000507056               0.000000000               0.000000000               0.000000000               0.000000000               0.000476211               0.001622775              -0.000003545              -0.000024268               0.000549009               0.000524741               0.000000000               0.000000000               0.000000000               0.000000000               0.000492900               0.001688813              -0.000002404              -0.000026264               0.000571687               0.000545423               0.000000000               0.000000000               0.000000000               0.000000000               0.000501974               0.001725208              -0.000001520              -0.000027411               0.000584200               0.000556790               0.000000000               0.000000000               0.000000000               0.000000000               0.000000000               0.000000000               0.000000000               0.000000000               0.000000000               0.000000000               0.000000000               0.000000000               0.000000000               0.000000000               0.000000000               0.000000000               0.000000000               0.000000000               0.000000000               0.000000000               0.000000000               0.000000000               0.000000000               0.000000000               0.000000000               0.000000000               0.000000000               0.000000000               0.000000000               0.000000000               0.000000000               0.000000000               0.000000000               0.000000000               0.000000000               0.000000000               0.000000000               0.000000000               0.000000000               0.000000000               0.000000000               0.000000000               0.000000000               0.000000000               0.000000000               0.000000000               0.000000000               0.000000000               0.000000000               0.000000000               0.000000000               0.000000000               0.000000000               0.000000000               0.000000000               0.000000000               0.000000000               0.000000000               0.000000000               0.000000000               0.000000000               0.000000000               0.000000000               0.000000000               0.000000000               0.000000000               0.000000000               0.000000000               0.000000000               0.000000000               0.000000000               0.000000000               0.000000000               0.000000000               0.000000000               0.000000000               0.000000000               0.000000000               0.000000000               0.000000000               0.000000000               0.000000000               0.000000000               0.000000000               0.000000000               0.000000000               0.000000000               0.000000000               0.000000000               0.000000000               0.000000000               0.000000000               0.000000000               0.000000000               0.000000000               0.000000000               0.000000000               0.000000000               0.000000000               0.000000000               0.000000000               0.000000000               0.000000000               0.000000000               0.000000000               0.000000000               0.000000000               0.000000000               0.000000000               0.000000000               0.000000000               0.000000000               0.000000000               0.000000000               0.000000000               0.000000000               0.000000000               0.000000000               0.000000000               0.000000000               0.000000000               0.000000000               0.000000000               0.000000000               0.000000000               0.000000000               0.000000000               0.000000000               0.000000000               0.000000000               0.000000000               0.000000000               0.000000000               0.000000000               0.000000000               0.000000000               0.000000000               0.000000000               0.000000000               0.000000000               0.000000000               0.000000000               0.000000000               0.000000000               0.000000000               0.000000000               0.000000000               0.000000000               0.000000000               0.000000000               0.000000000               0.000000000               0.000000000               0.000000000               0.000000000               0.000000000               0.000000000               0.000000000               0.000000000               0.000000000               0.000000000               0.000000000               0.000000000               0.000000000               0.000000000               0.000000000               0.000000000               0.000000000               0.000000000               0.000000000               0.000000000               0.000000000               0.000000000               0.000000000               0.000000000               0.000000000               0.000000000               0.000000000               0.000000000               0.000000000               0.000000000               0.000000000               0.000000000               0.000000000               0.000000000               0.000000000               0.000000000               0.000000000               0.000000000               0.000000000               0.000000000               0.000000000               0.000000000               0.000000000               0.000000000               0.000000000               0.000000000               0.000000000               0.000000000               0.000000000               0.000000000               0.000000000               0.000000000               0.000000000               0.000000000               0.000000000               0.000000000               0.000000000               0.000000000               0.000000000               0.000000000               0.000000000               0.000000000               0.000000000               0.000000000               0.000000000               0.000000000               0.000000000               0.000000000               0.000000000               0.000000000               0.000000000               0.000000000               0.000000000               0.000000000               0.000000000               0.000000000               0.000000000               0.000000000               0.000000000               0.000000000               0.000000000               0.000000000               0.000000000               0.000000000               0.000000000               0.000000000               0.000000000               0.000000000               0.000000000               0.000000000               0.000000000               0.000000000               0.000000000               0.000000000               0.000000000               0.000000000               0.000000000               0.000000000               0.000000000               0.000000000               0.000000000               0.000000000               0.000000000               0.000000000               0.000000000               0.000000000               0.000000000               0.000000000               0.000000000               0.000000000               0.000000000               0.000000000               0.000000000               0.000000000               0.000000000               0.000000000               0.000000000               0.000000000               0.000000000               0.000000000               0.000000000               0.000000000               0.000000000               0.000000000               0.000000000               0.000000000               0.000000000               0.000000000               0.000000000               0.000000000               0.000000000               0.000000000               0.000000000               0.000000000               0.000000000               0.000000000               0.000000000               0.000000000               0.000000000               0.000000000               0.000000000               0.000000000               0.000000000               0.000000000               0.000000000               0.000000000               0.000000000               0.000000000               0.000000000               0.000000000               0.000000000               0.000000000               0.000000000               0.000000000               0.000000000               0.000000000               0.000000000               0.000000000               0.000000000               0.000000000               0.000000000               0.000000000               0.000000000               0.000000000               0.000000000               0.000000000               0.000000000               0.000000000               0.000000000               0.000000000               0.000000000               0.000000000               0.000000000               0.000000000               0.000000000               0.000000000               0.000000000               0.000000000               0.000000000               0.000000000               0.000000000               0.000000000               0.000000000               0.000000000               0.000000000               0.000000000               0.000000000               0.000000000               0.000000000               0.000000000               0.000000000               0.000000000               0.000000000               0.000095570               0.000900782               0.000071363              -0.000076759               0.000325844               0.000249085               0.000000000               0.000000000               0.000000000               0.000000000               0.000114849               0.000769129               0.000048286              -0.000053073               0.000274064               0.000220992               0.000000000               0.000000000               0.000000000               0.000000000               0.000168992               0.000672989               0.000024212              -0.000020752               0.000231245               0.000210493               0.000000000               0.000000000               0.000000000               0.000000000               0.000191967               0.000627607               0.000009866              -0.000006463               0.000211355               0.000204891               0.000000000               0.000000000               0.000000000               0.000000000               0.000197052               0.000610973               0.000002192              -0.000002477               0.000204481               0.000202004               0.000000000               0.000000000               0.000000000               0.000000000               0.000192783               0.000606432               0.000000490              -0.000003510               0.000203312               0.000199802               0.000000000               0.000000000               0.000000000               0.000000000               0.000191560               0.000602874               0.000005514              -0.000003524               0.000202131               0.000198607               0.000000000               0.000000000               0.000000000               0.000000000               0.000195720               0.000589907               0.000013716              -0.000000343               0.000196748               0.000196405               0.000000000               0.000000000               0.000000000               0.000000000               0.000196329               0.000573513               0.000015822               0.000001934               0.000190524               0.000192459               0.000000000               0.000000000               0.000000000               0.000000000               0.000190470               0.000561455               0.000016636               0.000001244               0.000186735               0.000187979               0.000000000               0.000000000               0.000000000               0.000000000               0.000181453               0.000554543               0.000017625              -0.000001273               0.000185270               0.000183997               0.000000000               0.000000000               0.000000000               0.000000000               0.000165916               0.000554041               0.000015911              -0.000007037               0.000187024               0.000179987               0.000000000               0.000000000               0.000000000               0.000000000               0.000142450               0.000560287               0.000013863              -0.000016617               0.000192300               0.000175682               0.000000000               0.000000000               0.000000000               0.000000000               0.000114567               0.000573871               0.000011412              -0.000028771               0.000200879               0.000172108               0.000000000               0.000000000               0.000000000               0.000000000               0.000080744               0.000593595               0.000008075              -0.000043920               0.000212503               0.000168583               0.000000000               0.000000000               0.000000000               0.000000000               0.000040793               0.000618175               0.000004263              -0.000061974               0.000226714               0.000164740               0.000000000               0.000000000               0.000000000               0.000000000               0.000023391               0.000640306               0.000003230              -0.000071266               0.000237189               0.000165922               0.000000000               0.000000000               0.000000000               0.000000000               0.000112724               0.000863558               0.000138382              -0.000065673               0.000309741               0.000244068               0.000000000               0.000000000               0.000000000               0.000000000               0.000123926               0.000742304               0.000092779              -0.000046316               0.000262871               0.000216555               0.000000000               0.000000000               0.000000000               0.000000000               0.000168785               0.000658108               0.000044625              -0.000018969               0.000225690               0.000206721               0.000000000               0.000000000               0.000000000               0.000000000               0.000185572               0.000621852               0.000018971              -0.000008142               0.000209996               0.000201854               0.000000000               0.000000000               0.000000000               0.000000000               0.000189052               0.000608852               0.000004835              -0.000005212               0.000204686               0.000199474               0.000000000               0.000000000               0.000000000               0.000000000               0.000188756               0.000606827               0.000001895              -0.000005070               0.000203964               0.000198894               0.000000000               0.000000000               0.000000000               0.000000000               0.000187290               0.000602300               0.000011983              -0.000005054               0.000202449               0.000197395               0.000000000               0.000000000               0.000000000               0.000000000               0.000186688               0.000593937               0.000025408              -0.000004234               0.000199388               0.000195154               0.000000000               0.000000000               0.000000000               0.000000000               0.000182816               0.000589446               0.000028505              -0.000005125               0.000198188               0.000193063               0.000000000               0.000000000               0.000000000               0.000000000               0.000173796               0.000589729               0.000028976              -0.000008543               0.000199422               0.000190879               0.000000000               0.000000000               0.000000000               0.000000000               0.000161135               0.000593981               0.000029670              -0.000013822               0.000202599               0.000188777               0.000000000               0.000000000               0.000000000               0.000000000               0.000142332               0.000602070               0.000027167              -0.000021884               0.000207983               0.000186099               0.000000000               0.000000000               0.000000000               0.000000000               0.000118836               0.000613818               0.000023626              -0.000032164               0.000215325               0.000183162               0.000000000               0.000000000               0.000000000               0.000000000               0.000094757               0.000630802               0.000018973              -0.000043316               0.000224704               0.000181388               0.000000000               0.000000000               0.000000000               0.000000000               0.000066973               0.000651822               0.000013088              -0.000056363               0.000236059               0.000179697               0.000000000               0.000000000               0.000000000               0.000000000               0.000033771               0.000676282               0.000006583              -0.000071871               0.000249382               0.000177511               0.000000000               0.000000000               0.000000000               0.000000000               0.000020360               0.000697890               0.000005285              -0.000079601               0.000259162               0.000179560               0.000000000               0.000000000               0.000000000               0.000000000               0.000138621               0.000810445               0.000190623              -0.000049323               0.000286586               0.000237264               0.000000000               0.000000000               0.000000000               0.000000000               0.000135657               0.000702915               0.000127062              -0.000036993               0.000246634               0.000209641               0.000000000               0.000000000               0.000000000               0.000000000               0.000165817               0.000638528               0.000060317              -0.000017635               0.000218719               0.000201084               0.000000000               0.000000000               0.000000000               0.000000000               0.000176135               0.000614869               0.000025694              -0.000010808               0.000208557               0.000197749               0.000000000               0.000000000               0.000000000               0.000000000               0.000177343               0.000610600               0.000008390              -0.000009821               0.000206805               0.000196984               0.000000000               0.000000000               0.000000000               0.000000000               0.000178238               0.000609574               0.000006877              -0.000009358               0.000206309               0.000196951               0.000000000               0.000000000               0.000000000               0.000000000               0.000180557               0.000608137               0.000020194              -0.000008308               0.000205480               0.000197172               0.000000000               0.000000000               0.000000000               0.000000000               0.000181246               0.000609709               0.000034622              -0.000008246               0.000205983               0.000197737               0.000000000               0.000000000               0.000000000               0.000000000               0.000176703               0.000621980               0.000037097              -0.000011484               0.000211152               0.000199669               0.000000000               0.000000000               0.000000000               0.000000000               0.000161892               0.000638887               0.000038326              -0.000019151               0.000219344               0.000200193               0.000000000               0.000000000               0.000000000               0.000000000               0.000140747               0.000659239               0.000040055              -0.000029625               0.000229619               0.000199995               0.000000000               0.000000000               0.000000000               0.000000000               0.000117062               0.000682565               0.000037796              -0.000041422               0.000241327               0.000199905               0.000000000               0.000000000               0.000000000               0.000000000               0.000092382               0.000707753               0.000034140              -0.000053826               0.000253857               0.000200031               0.000000000               0.000000000               0.000000000               0.000000000               0.000070922               0.000735548               0.000028524              -0.000065347               0.000266963               0.000201615               0.000000000               0.000000000               0.000000000               0.000000000               0.000049472               0.000765082               0.000020795              -0.000077083               0.000280719               0.000203636               0.000000000               0.000000000               0.000000000               0.000000000               0.000024239               0.000795462               0.000011221              -0.000090343               0.000295266               0.000204923               0.000000000               0.000000000               0.000000000               0.000000000               0.000015980               0.000819617               0.000008774              -0.000096460               0.000305356               0.000208897               0.000000000               0.000000000               0.000000000               0.000000000               0.000165344               0.000736328               0.000228310              -0.000030037               0.000255453               0.000225415               0.000000000               0.000000000               0.000000000               0.000000000               0.000145573               0.000652730               0.000150315              -0.000027001               0.000226575               0.000199573               0.000000000               0.000000000               0.000000000               0.000000000               0.000158341               0.000618135               0.000069674              -0.000017889               0.000212006               0.000194117               0.000000000               0.000000000               0.000000000               0.000000000               0.000162154               0.000612003               0.000031238              -0.000015693               0.000209230               0.000193537               0.000000000               0.000000000               0.000000000               0.000000000               0.000161077               0.000616527               0.000014303              -0.000016662               0.000211061               0.000194399               0.000000000               0.000000000               0.000000000               0.000000000               0.000167078               0.000624853               0.000014666              -0.000015452               0.000213433               0.000197981               0.000000000               0.000000000               0.000000000               0.000000000               0.000176935               0.000632690               0.000029946              -0.000012735               0.000215140               0.000202404               0.000000000               0.000000000               0.000000000               0.000000000               0.000180705               0.000650066               0.000044248              -0.000013494               0.000221185               0.000207691               0.000000000               0.000000000               0.000000000               0.000000000               0.000174438               0.000681128               0.000045614              -0.000019727               0.000233616               0.000213889               0.000000000               0.000000000               0.000000000               0.000000000               0.000157112               0.000717294               0.000046305              -0.000030745               0.000249344               0.000218599               0.000000000               0.000000000               0.000000000               0.000000000               0.000135139               0.000758444               0.000047333              -0.000044128               0.000267522               0.000223393               0.000000000               0.000000000               0.000000000               0.000000000               0.000109413               0.000800497               0.000044758              -0.000059032               0.000286507               0.000227475               0.000000000               0.000000000               0.000000000               0.000000000               0.000083349               0.000843109               0.000040437              -0.000074133               0.000305744               0.000231612               0.000000000               0.000000000               0.000000000               0.000000000               0.000062351               0.000886426               0.000033616              -0.000087422               0.000324613               0.000237191               0.000000000               0.000000000               0.000000000               0.000000000               0.000041571               0.000928168               0.000024292              -0.000100431               0.000342863               0.000242432               0.000000000               0.000000000               0.000000000               0.000000000               0.000019010               0.000966727               0.000013040              -0.000113712               0.000360143               0.000246431               0.000000000               0.000000000               0.000000000               0.000000000               0.000013337               0.000993558               0.000009902              -0.000119193               0.000370914               0.000251721               0.000000000               0.000000000               0.000000000               0.000000000               0.000190646               0.000654250               0.000246015              -0.000010289               0.000221511               0.000211222               0.000000000               0.000000000               0.000000000               0.000000000               0.000154185               0.000602045               0.000161111              -0.000017436               0.000206492               0.000189055               0.000000000               0.000000000               0.000000000               0.000000000               0.000148194               0.000601879               0.000075319              -0.000019662               0.000207178               0.000187516               0.000000000               0.000000000               0.000000000               0.000000000               0.000145455               0.000617930               0.000038769              -0.000022696               0.000213540               0.000190844               0.000000000               0.000000000               0.000000000               0.000000000               0.000148481               0.000637313               0.000023069              -0.000023984               0.000220430               0.000196446               0.000000000               0.000000000               0.000000000               0.000000000               0.000160008               0.000658963               0.000025067              -0.000022367               0.000227108               0.000204741               0.000000000               0.000000000               0.000000000               0.000000000               0.000174505               0.000686516               0.000039948              -0.000020375               0.000235628               0.000215253               0.000000000               0.000000000               0.000000000               0.000000000               0.000184635               0.000730334               0.000050225              -0.000022054               0.000250793               0.000228740               0.000000000               0.000000000               0.000000000               0.000000000               0.000179918               0.000784011               0.000049565              -0.000030532               0.000271512               0.000240980               0.000000000               0.000000000               0.000000000               0.000000000               0.000161810               0.000839384               0.000048911              -0.000044244               0.000294540               0.000250296               0.000000000               0.000000000               0.000000000               0.000000000               0.000138344               0.000894590               0.000048762              -0.000059945               0.000318175               0.000258231               0.000000000               0.000000000               0.000000000               0.000000000               0.000112303               0.000949556               0.000045841              -0.000076581               0.000342042               0.000265462               0.000000000               0.000000000               0.000000000               0.000000000               0.000088579               0.001003831               0.000040260              -0.000092262               0.000365361               0.000273099               0.000000000               0.000000000               0.000000000               0.000000000               0.000067972               0.001057104               0.000032636              -0.000106648               0.000387914               0.000281266               0.000000000               0.000000000               0.000000000               0.000000000               0.000044646               0.001104894               0.000023057              -0.000121369               0.000408751               0.000287382               0.000000000               0.000000000               0.000000000               0.000000000               0.000020066               0.001146439               0.000012162              -0.000135780               0.000427402               0.000291623               0.000000000               0.000000000               0.000000000               0.000000000               0.000013662               0.001174227               0.000009474              -0.000141655               0.000438623               0.000296968               0.000000000               0.000000000               0.000000000               0.000000000               0.000206439               0.000575665               0.000246436               0.000005456               0.000190068               0.000195524               0.000000000               0.000000000               0.000000000               0.000000000               0.000156765               0.000556863               0.000164646              -0.000010821               0.000189226               0.000178405               0.000000000               0.000000000               0.000000000               0.000000000               0.000137703               0.000594318               0.000081245              -0.000022651               0.000205655               0.000183003               0.000000000               0.000000000               0.000000000               0.000000000               0.000134585               0.000634317               0.000047463              -0.000028820               0.000221044               0.000192224               0.000000000               0.000000000               0.000000000               0.000000000               0.000142052               0.000676693               0.000034852              -0.000031317               0.000236001               0.000204684               0.000000000               0.000000000               0.000000000               0.000000000               0.000163222               0.000723352               0.000034877              -0.000029211               0.000250852               0.000221641               0.000000000               0.000000000               0.000000000               0.000000000               0.000187226               0.000779681               0.000045449              -0.000027250               0.000268975               0.000241724               0.000000000               0.000000000               0.000000000               0.000000000               0.000196695               0.000843820               0.000052535              -0.000031717               0.000291843               0.000260126               0.000000000               0.000000000               0.000000000               0.000000000               0.000188378               0.000914562               0.000051196              -0.000043678               0.000319411               0.000275732               0.000000000               0.000000000               0.000000000               0.000000000               0.000168601               0.000982643               0.000051403              -0.000059605               0.000347413               0.000287808               0.000000000               0.000000000               0.000000000               0.000000000               0.000144392               0.001045139               0.000050580              -0.000076495               0.000373875               0.000297379               0.000000000               0.000000000               0.000000000               0.000000000               0.000118497               0.001105805               0.000045325              -0.000093789               0.000399861               0.000306072               0.000000000               0.000000000               0.000000000               0.000000000               0.000095427               0.001164501               0.000037573              -0.000109777               0.000424756               0.000314978               0.000000000               0.000000000               0.000000000               0.000000000               0.000073232               0.001218792               0.000028540              -0.000124887               0.000447889               0.000323002               0.000000000               0.000000000               0.000000000               0.000000000               0.000047817               0.001267083               0.000019730              -0.000140453               0.000469174               0.000328721               0.000000000               0.000000000               0.000000000               0.000000000               0.000022244               0.001309672               0.000010159              -0.000155367               0.000488342               0.000332975               0.000000000               0.000000000               0.000000000               0.000000000               0.000015164               0.001338091               0.000008153              -0.000161574               0.000499884               0.000338310               0.000000000               0.000000000               0.000000000               0.000000000               0.000214192               0.000501621               0.000236408               0.000017619               0.000161332               0.000178951               0.000000000               0.000000000               0.000000000               0.000000000               0.000156053               0.000518249               0.000163014              -0.000006261               0.000174835               0.000168574               0.000000000               0.000000000               0.000000000               0.000000000               0.000128024               0.000597165               0.000088645              -0.000026637               0.000207932               0.000181295               0.000000000               0.000000000               0.000000000               0.000000000               0.000131257               0.000666521               0.000058341              -0.000034094               0.000233536               0.000199442               0.000000000               0.000000000               0.000000000               0.000000000               0.000151893               0.000737299               0.000044749              -0.000035202               0.000257498               0.000222296               0.000000000               0.000000000               0.000000000               0.000000000               0.000183486               0.000811170               0.000043477              -0.000032589               0.000281250               0.000248661               0.000000000               0.000000000               0.000000000               0.000000000               0.000209961               0.000884600               0.000052038              -0.000031839               0.000305477               0.000273637               0.000000000               0.000000000               0.000000000               0.000000000               0.000215445               0.000964094               0.000056708              -0.000039720               0.000334601               0.000294882               0.000000000               0.000000000               0.000000000               0.000000000               0.000200700               0.001044304               0.000053502              -0.000055275               0.000366523               0.000311248               0.000000000               0.000000000               0.000000000               0.000000000               0.000175886               0.001115325               0.000052654              -0.000073458               0.000396257               0.000322799               0.000000000               0.000000000               0.000000000               0.000000000               0.000150263               0.001182288               0.000049617              -0.000091437               0.000424571               0.000333134               0.000000000               0.000000000               0.000000000               0.000000000               0.000125263               0.001247715               0.000040395              -0.000108990               0.000452231               0.000343240               0.000000000               0.000000000               0.000000000               0.000000000               0.000099783               0.001310718               0.000031016              -0.000126421               0.000479042               0.000352621               0.000000000               0.000000000               0.000000000               0.000000000               0.000072666               0.001369035               0.000022063              -0.000143879               0.000504300               0.000360421               0.000000000               0.000000000               0.000000000               0.000000000               0.000045741               0.001424232               0.000013227              -0.000160876               0.000528365               0.000367489               0.000000000               0.000000000               0.000000000               0.000000000               0.000021707               0.001476672               0.000006185              -0.000176443               0.000551034               0.000374590               0.000000000               0.000000000               0.000000000               0.000000000               0.000014172               0.001510610               0.000006190              -0.000183511               0.000564702               0.000381191               0.000000000               0.000000000               0.000000000               0.000000000               0.000216772               0.000434253               0.000219073               0.000027007               0.000135747               0.000162755               0.000000000               0.000000000               0.000000000               0.000000000               0.000155762               0.000485021               0.000160208              -0.000002217               0.000162411               0.000160194               0.000000000               0.000000000               0.000000000               0.000000000               0.000127114               0.000605306               0.000099527              -0.000027996               0.000211098               0.000183103               0.000000000               0.000000000               0.000000000               0.000000000               0.000137255               0.000703770               0.000071202              -0.000036501               0.000246755               0.000210254               0.000000000               0.000000000               0.000000000               0.000000000               0.000166500               0.000795997               0.000056018              -0.000037062               0.000277684               0.000240621               0.000000000               0.000000000               0.000000000               0.000000000               0.000205598               0.000883460               0.000052741              -0.000033333               0.000305595               0.000272262               0.000000000               0.000000000               0.000000000               0.000000000               0.000233484               0.000965264               0.000054180              -0.000033101               0.000332785               0.000299684               0.000000000               0.000000000               0.000000000               0.000000000               0.000235955               0.001052648               0.000054062              -0.000043098               0.000365245               0.000322147               0.000000000               0.000000000               0.000000000               0.000000000               0.000214775               0.001134235               0.000051487              -0.000061239               0.000398488               0.000337249               0.000000000               0.000000000               0.000000000               0.000000000               0.000188729               0.001206320               0.000049327              -0.000080017               0.000428775               0.000348758               0.000000000               0.000000000               0.000000000               0.000000000               0.000163162               0.001277854               0.000043087              -0.000098546               0.000458796               0.000360250               0.000000000               0.000000000               0.000000000               0.000000000               0.000138536               0.001350602               0.000032307              -0.000116874               0.000489154               0.000372280               0.000000000               0.000000000               0.000000000               0.000000000               0.000113847               0.001421542               0.000022146              -0.000135000               0.000518843               0.000383843               0.000000000               0.000000000               0.000000000               0.000000000               0.000088158               0.001491087               0.000013579              -0.000153326               0.000548133               0.000394807               0.000000000               0.000000000               0.000000000               0.000000000               0.000064783               0.001560142               0.000005626              -0.000170724               0.000576950               0.000406226               0.000000000               0.000000000               0.000000000               0.000000000               0.000045706               0.001625152               0.000000314              -0.000186004               0.000603713               0.000417709               0.000000000               0.000000000               0.000000000               0.000000000               0.000035457               0.001659172              -0.000000791              -0.000194100               0.000617752               0.000423652               0.000000000               0.000000000               0.000000000               0.000000000               0.000213995               0.000361817               0.000198951               0.000035020               0.000108931               0.000143951               0.000000000               0.000000000               0.000000000               0.000000000               0.000160478               0.000439139               0.000160748               0.000005286               0.000144616               0.000149902               0.000000000               0.000000000               0.000000000               0.000000000               0.000136262               0.000590852               0.000118408              -0.000022758               0.000204535               0.000181777               0.000000000               0.000000000               0.000000000               0.000000000               0.000150559               0.000710093               0.000091781              -0.000032302               0.000247462               0.000215161               0.000000000               0.000000000               0.000000000               0.000000000               0.000179891               0.000819448               0.000075226              -0.000034972               0.000284804               0.000249832               0.000000000               0.000000000               0.000000000               0.000000000               0.000215504               0.000917590               0.000065239              -0.000033885               0.000317155               0.000283270               0.000000000               0.000000000               0.000000000               0.000000000               0.000243725               0.000999264               0.000056798              -0.000033511               0.000344255               0.000310744               0.000000000               0.000000000               0.000000000               0.000000000               0.000252517               0.001077785               0.000050632              -0.000040029               0.000372601               0.000332572               0.000000000               0.000000000               0.000000000               0.000000000               0.000239859               0.001157963               0.000048871              -0.000054798               0.000404250               0.000349452               0.000000000               0.000000000               0.000000000               0.000000000               0.000218669               0.001233585               0.000047524              -0.000072197               0.000435257               0.000363060               0.000000000               0.000000000               0.000000000               0.000000000               0.000196538               0.001305527               0.000041455              -0.000089489               0.000465001               0.000375512               0.000000000               0.000000000               0.000000000               0.000000000               0.000174871               0.001379255               0.000034037              -0.000106830               0.000495357               0.000388527               0.000000000               0.000000000               0.000000000               0.000000000               0.000155911               0.001456949               0.000025647              -0.000123652               0.000526862               0.000403210               0.000000000               0.000000000               0.000000000               0.000000000               0.000136737               0.001535581               0.000016553              -0.000140671               0.000558746               0.000418075               0.000000000               0.000000000               0.000000000               0.000000000               0.000116941               0.001612356               0.000009585              -0.000157691               0.000590010               0.000432319               0.000000000               0.000000000               0.000000000               0.000000000               0.000099373               0.001686323               0.000003543              -0.000173525               0.000619944               0.000446419               0.000000000               0.000000000               0.000000000               0.000000000               0.000085099               0.001718531              -0.000001834              -0.000182904               0.000633806               0.000450902               0.000000000               0.000000000               0.000000000               0.000000000               0.000204691               0.000294339               0.000175862               0.000039966               0.000084790               0.000124756               0.000000000               0.000000000               0.000000000               0.000000000               0.000169203               0.000393184               0.000159835               0.000014303               0.000126293               0.000140595               0.000000000               0.000000000               0.000000000               0.000000000               0.000152719               0.000562780               0.000136779              -0.000013078               0.000191951               0.000178873               0.000000000               0.000000000               0.000000000               0.000000000               0.000165751               0.000697013               0.000112265              -0.000024970               0.000240659               0.000215689               0.000000000               0.000000000               0.000000000               0.000000000               0.000189218               0.000819871               0.000091429              -0.000031527               0.000283797               0.000252270               0.000000000               0.000000000               0.000000000               0.000000000               0.000215296               0.000921926               0.000074955              -0.000034505               0.000318807               0.000284302               0.000000000               0.000000000               0.000000000               0.000000000               0.000242377               0.001001712               0.000059278              -0.000034323               0.000345342               0.000311019               0.000000000               0.000000000               0.000000000               0.000000000               0.000262819               0.001078883               0.000047172              -0.000036303               0.000371725               0.000335422               0.000000000               0.000000000               0.000000000               0.000000000               0.000267580               0.001161687               0.000043755              -0.000044868               0.000402181               0.000357313               0.000000000               0.000000000               0.000000000               0.000000000               0.000257262               0.001241898               0.000043980              -0.000058764               0.000433550               0.000374786               0.000000000               0.000000000               0.000000000               0.000000000               0.000243505               0.001316590               0.000041991              -0.000073259               0.000463279               0.000390020               0.000000000               0.000000000               0.000000000               0.000000000               0.000229120               0.001389129               0.000038908              -0.000087721               0.000492279               0.000404558               0.000000000               0.000000000               0.000000000               0.000000000               0.000214268               0.001464648               0.000033108              -0.000102730               0.000522454               0.000419724               0.000000000               0.000000000               0.000000000               0.000000000               0.000200287               0.001543195               0.000023511              -0.000117792               0.000553657               0.000435865               0.000000000               0.000000000               0.000000000               0.000000000               0.000182525               0.001616783               0.000013928              -0.000133651               0.000583473               0.000449822               0.000000000               0.000000000               0.000000000               0.000000000               0.000163243               0.001689249               0.000006471              -0.000149940               0.000613057               0.000463118               0.000000000               0.000000000               0.000000000               0.000000000               0.000145639               0.001720606              -0.000000169              -0.000160461               0.000627016               0.000466556               0.000000000               0.000000000               0.000000000               0.000000000               0.000189242               0.000233336               0.000148668               0.000041798               0.000063845               0.000105643               0.000000000               0.000000000               0.000000000               0.000000000               0.000176558               0.000342789               0.000152744               0.000023360               0.000106475               0.000129835               0.000000000               0.000000000               0.000000000               0.000000000               0.000172739               0.000522514               0.000146592              -0.000000537               0.000174349               0.000173811               0.000000000               0.000000000               0.000000000               0.000000000               0.000184017               0.000671771               0.000124911              -0.000014965               0.000228910               0.000213945               0.000000000               0.000000000               0.000000000               0.000000000               0.000203010               0.000801232               0.000102827              -0.000024025               0.000275083               0.000251058               0.000000000               0.000000000               0.000000000               0.000000000               0.000222494               0.000903947               0.000082921              -0.000029558               0.000311165               0.000281607               0.000000000               0.000000000               0.000000000               0.000000000               0.000245340               0.000989490               0.000063563              -0.000031684               0.000340388               0.000308704               0.000000000               0.000000000               0.000000000               0.000000000               0.000272340               0.001075404               0.000048612              -0.000032298               0.000369230               0.000336932               0.000000000               0.000000000               0.000000000               0.000000000               0.000292682               0.001165544               0.000041549              -0.000035937               0.000400490               0.000364553               0.000000000               0.000000000               0.000000000               0.000000000               0.000297582               0.001252539               0.000040485              -0.000044974               0.000432500               0.000387526               0.000000000               0.000000000               0.000000000               0.000000000               0.000293063               0.001331633               0.000040567              -0.000056555               0.000462725               0.000406169               0.000000000               0.000000000               0.000000000               0.000000000               0.000284394               0.001403692               0.000039440              -0.000068814               0.000490831               0.000422017               0.000000000               0.000000000               0.000000000               0.000000000               0.000271893               0.001472173               0.000035748              -0.000082062               0.000518073               0.000436012               0.000000000               0.000000000               0.000000000               0.000000000               0.000259856               0.001543255               0.000028061              -0.000095461               0.000546234               0.000450773               0.000000000               0.000000000               0.000000000               0.000000000               0.000248422               0.001617721               0.000018359              -0.000109056               0.000575587               0.000466531               0.000000000               0.000000000               0.000000000               0.000000000               0.000234468               0.001694337               0.000009394              -0.000123866               0.000606062               0.000482196               0.000000000               0.000000000               0.000000000               0.000000000               0.000216498               0.001725858               0.000001257              -0.000134545               0.000620129               0.000485583               0.000000000               0.000000000               0.000000000               0.000000000               0.000169242               0.000176397               0.000119039               0.000041416               0.000044993               0.000086409               0.000000000               0.000000000               0.000000000               0.000000000               0.000182029               0.000290495               0.000136640               0.000031949               0.000086181               0.000118130               0.000000000               0.000000000               0.000000000               0.000000000               0.000193356               0.000475150               0.000142866               0.000013115               0.000154010               0.000167125               0.000000000               0.000000000               0.000000000               0.000000000               0.000207930               0.000629514               0.000126816              -0.000000715               0.000210074               0.000209359               0.000000000               0.000000000               0.000000000               0.000000000               0.000223866               0.000759365               0.000106746              -0.000010971               0.000256776               0.000245805               0.000000000               0.000000000               0.000000000               0.000000000               0.000237962               0.000869628               0.000086418              -0.000019468               0.000296362               0.000276895               0.000000000               0.000000000               0.000000000               0.000000000               0.000259407               0.000973282               0.000067623              -0.000024383               0.000332552               0.000308169               0.000000000               0.000000000               0.000000000               0.000000000               0.000288075               0.001073627               0.000052349              -0.000026175               0.000366597               0.000340422               0.000000000               0.000000000               0.000000000               0.000000000               0.000314409               0.001168909               0.000041335              -0.000028210               0.000399036               0.000370825               0.000000000               0.000000000               0.000000000               0.000000000               0.000329210               0.001257846               0.000035872              -0.000033777               0.000430537               0.000396760               0.000000000               0.000000000               0.000000000               0.000000000               0.000334336               0.001340825               0.000034633              -0.000042227               0.000461013               0.000418786               0.000000000               0.000000000               0.000000000               0.000000000               0.000333107               0.001414166               0.000033321              -0.000051855               0.000488669               0.000436814               0.000000000               0.000000000               0.000000000               0.000000000               0.000326972               0.001478611               0.000031213              -0.000062212               0.000513602               0.000451391               0.000000000               0.000000000               0.000000000               0.000000000               0.000321112               0.001546218               0.000027901              -0.000072860               0.000539688               0.000466827               0.000000000               0.000000000               0.000000000               0.000000000               0.000317841               0.001620924               0.000021107              -0.000083425               0.000568111               0.000484686               0.000000000               0.000000000               0.000000000               0.000000000               0.000311846               0.001694589               0.000010722              -0.000094881               0.000596485               0.000501603               0.000000000               0.000000000               0.000000000               0.000000000               0.000299832               0.001723974               0.000002176              -0.000103059               0.000609005               0.000505946               0.000000000               0.000000000               0.000000000               0.000000000               0.000144369               0.000128737               0.000087599               0.000038046               0.000030230               0.000068276               0.000000000               0.000000000               0.000000000               0.000000000               0.000184342               0.000242381               0.000111312               0.000038830               0.000067849               0.000106680               0.000000000               0.000000000               0.000000000               0.000000000               0.000214547               0.000421010               0.000124857               0.000027828               0.000131059               0.000158887               0.000000000               0.000000000               0.000000000               0.000000000               0.000234095               0.000575346               0.000114701               0.000015867               0.000186491               0.000202358               0.000000000               0.000000000               0.000000000               0.000000000               0.000247469               0.000711670               0.000097924               0.000003842               0.000235940               0.000239782               0.000000000               0.000000000               0.000000000               0.000000000               0.000260876               0.000835359               0.000081792              -0.000006592               0.000280647               0.000274056               0.000000000               0.000000000               0.000000000               0.000000000               0.000281184               0.000953842               0.000067489              -0.000013786               0.000322540               0.000308753               0.000000000               0.000000000               0.000000000               0.000000000               0.000305748               0.001062728               0.000052538              -0.000018185               0.000360301               0.000342116               0.000000000               0.000000000               0.000000000               0.000000000               0.000329562               0.001160227               0.000038097              -0.000021442               0.000393886               0.000372443               0.000000000               0.000000000               0.000000000               0.000000000               0.000349917               0.001252494               0.000028582              -0.000025343               0.000425941               0.000400599               0.000000000               0.000000000               0.000000000               0.000000000               0.000365025               0.001341214               0.000025630              -0.000030767               0.000457323               0.000426555               0.000000000               0.000000000               0.000000000               0.000000000               0.000374181               0.001419474               0.000024012              -0.000037116               0.000485525               0.000448409               0.000000000               0.000000000               0.000000000               0.000000000               0.000379223               0.001489523               0.000023048              -0.000043981               0.000511163               0.000467182               0.000000000               0.000000000               0.000000000               0.000000000               0.000382321               0.001556563               0.000022702              -0.000051200               0.000535916               0.000484716               0.000000000               0.000000000               0.000000000               0.000000000               0.000384915               0.001622906               0.000018393              -0.000058520               0.000560470               0.000501950               0.000000000               0.000000000               0.000000000               0.000000000               0.000388269               0.001690706               0.000010062              -0.000065737               0.000585476               0.000519738               0.000000000               0.000000000               0.000000000               0.000000000               0.000386224               0.001721659               0.000004294              -0.000070373               0.000597338               0.000526965               0.000000000               0.000000000               0.000000000               0.000000000               0.000118601               0.000093460               0.000055211               0.000032793               0.000020222               0.000053015               0.000000000               0.000000000               0.000000000               0.000000000               0.000183926               0.000200496               0.000078174               0.000043910               0.000052195               0.000096104               0.000000000               0.000000000               0.000000000               0.000000000               0.000233028               0.000369895               0.000092584               0.000041148               0.000109581               0.000150729               0.000000000               0.000000000               0.000000000               0.000000000               0.000255363               0.000525938               0.000086452               0.000030019               0.000165305               0.000195323               0.000000000               0.000000000               0.000000000               0.000000000               0.000271193               0.000668756               0.000075736               0.000018103               0.000216882               0.000234985               0.000000000               0.000000000               0.000000000               0.000000000               0.000287243               0.000802325               0.000065611               0.000007425               0.000264964               0.000272389               0.000000000               0.000000000               0.000000000               0.000000000               0.000303277               0.000928737               0.000054924              -0.000002363               0.000310364               0.000308000               0.000000000               0.000000000               0.000000000               0.000000000               0.000321078               0.001042133               0.000041895              -0.000009863               0.000350662               0.000340799               0.000000000               0.000000000               0.000000000               0.000000000               0.000342078               0.001144992               0.000029039              -0.000014845               0.000386609               0.000371764               0.000000000               0.000000000               0.000000000               0.000000000               0.000366236               0.001244205               0.000020508              -0.000018187               0.000420793               0.000402606               0.000000000               0.000000000               0.000000000               0.000000000               0.000388380               0.001337588               0.000016965              -0.000021556               0.000453043               0.000431488               0.000000000               0.000000000               0.000000000               0.000000000               0.000405831               0.001419921               0.000014759              -0.000025303               0.000481737               0.000456434               0.000000000               0.000000000               0.000000000               0.000000000               0.000421024               0.001496676               0.000013424              -0.000029200               0.000508620               0.000479420               0.000000000               0.000000000               0.000000000               0.000000000               0.000432218               0.001563949               0.000012967              -0.000033412               0.000532448               0.000499037               0.000000000               0.000000000               0.000000000               0.000000000               0.000440445               0.001622498               0.000010686              -0.000037645               0.000553376               0.000515730               0.000000000               0.000000000               0.000000000               0.000000000               0.000452912               0.001688420               0.000006501              -0.000041210               0.000576538               0.000535327               0.000000000               0.000000000               0.000000000               0.000000000               0.000459199               0.001723414               0.000003884              -0.000043227               0.000588875               0.000545648               0.000000000               0.000000000               0.000000000               0.000000000               0.000098820               0.000073681               0.000025693               0.000027847               0.000015278               0.000043125               0.000000000               0.000000000               0.000000000               0.000000000               0.000180272               0.000173153               0.000040070               0.000045957               0.000042398               0.000088355               0.000000000               0.000000000               0.000000000               0.000000000               0.000242362               0.000333744               0.000049151               0.000049167               0.000094858               0.000144025               0.000000000               0.000000000               0.000000000               0.000000000               0.000271647               0.000490853               0.000046381               0.000040511               0.000150112               0.000190623               0.000000000               0.000000000               0.000000000               0.000000000               0.000290814               0.000638978               0.000041954               0.000029183               0.000203263               0.000232446               0.000000000               0.000000000               0.000000000               0.000000000               0.000305388               0.000777190               0.000036644               0.000017372               0.000253270               0.000270642               0.000000000               0.000000000               0.000000000               0.000000000               0.000318034               0.000905944               0.000030295               0.000006020               0.000299972               0.000305991               0.000000000               0.000000000               0.000000000               0.000000000               0.000332952               0.001023468               0.000023399              -0.000003077               0.000342178               0.000339101               0.000000000               0.000000000               0.000000000               0.000000000               0.000353805               0.001134299               0.000016268              -0.000009111               0.000381133               0.000372022               0.000000000               0.000000000               0.000000000               0.000000000               0.000378935               0.001237770               0.000010798              -0.000012621               0.000416793               0.000404172               0.000000000               0.000000000               0.000000000               0.000000000               0.000403232               0.001330606               0.000007801              -0.000015114               0.000448569               0.000433455               0.000000000               0.000000000               0.000000000               0.000000000               0.000425505               0.001416173               0.000006185              -0.000017457               0.000477872               0.000460415               0.000000000               0.000000000               0.000000000               0.000000000               0.000446584               0.001497143               0.000005211              -0.000019674               0.000505601               0.000485927               0.000000000               0.000000000               0.000000000               0.000000000               0.000463147               0.001565098               0.000004378              -0.000021957               0.000529013               0.000507056               0.000000000               0.000000000               0.000000000               0.000000000               0.000476211               0.001622775               0.000003545              -0.000024268               0.000549009               0.000524741               0.000000000               0.000000000               0.000000000               0.000000000               0.000492900               0.001688813               0.000002404              -0.000026264               0.000571687               0.000545423               0.000000000               0.000000000               0.000000000               0.000000000               0.000501974               0.001725208               0.000001520              -0.000027411               0.000584200               0.000556790               0.000000000               0.000000000               0.000000000               0.000000000               0.000000000               0.000000000               0.000000000               0.000000000               0.000000000               0.000000000               0.000000000               0.000000000               0.000000000               0.000000000               0.000000000               0.000000000               0.000000000               0.000000000               0.000000000               0.000000000               0.000000000               0.000000000               0.000000000               0.000000000               0.000000000               0.000000000               0.000000000               0.000000000               0.000000000               0.000000000               0.000000000               0.000000000               0.000000000               0.000000000               0.000000000               0.000000000               0.000000000               0.000000000               0.000000000               0.000000000               0.000000000               0.000000000               0.000000000               0.000000000               0.000000000               0.000000000               0.000000000               0.000000000               0.000000000               0.000000000               0.000000000               0.000000000               0.000000000               0.000000000               0.000000000               0.000000000               0.000000000               0.000000000               0.000000000               0.000000000               0.000000000               0.000000000               0.000000000               0.000000000               0.000000000               0.000000000               0.000000000               0.000000000               0.000000000               0.000000000               0.000000000               0.000000000               0.000000000               0.000000000               0.000000000               0.000000000               0.000000000               0.000000000               0.000000000               0.000000000               0.000000000               0.000000000               0.000000000               0.000000000               0.000000000               0.000000000               0.000000000               0.000000000               0.000000000               0.000000000               0.000000000               0.000000000               0.000000000               0.000000000               0.000000000               0.000000000               0.000000000               0.000000000               0.000000000               0.000000000               0.000000000               0.000000000               0.000000000               0.000000000               0.000000000               0.000000000               0.000000000               0.000000000               0.000000000               0.000000000               0.000000000               0.000000000               0.000000000               0.000000000               0.000000000               0.000000000               0.000000000               0.000000000               0.000000000               0.000000000               0.000000000               0.000000000               0.000000000               0.000000000               0.000000000               0.000000000               0.000000000               0.000000000               0.000000000               0.000000000               0.000000000               0.000000000               0.000000000               0.000000000               0.000000000               0.000000000               0.000000000               0.000000000               0.000000000               0.000000000               0.000000000               0.000000000               0.000000000               0.000000000               0.000000000               0.000000000               0.000000000               0.000000000               0.000000000               0.000000000               0.000000000               0.000000000               0.000000000               0.000000000               0.000000000               0.000000000               0.000000000               0.000000000               0.000000000               0.000000000               0.000000000               0.000000000               0.000000000               0.000000000               0.000000000               0.000000000               0.000000000               0.000000000               0.000000000               0.000000000               0.000000000               0.000000000               0.000000000               0.000000000 </DataArray>
</PointData>
</Piece>
</UnstructuredGrid> </VTKFile>
