<?xml version="1.0"?>
<VTKFile type="UnstructuredGrid" version="0.1">
<UnstructuredGrid>
<Piece NumberOfPoints="      1156" NumberOfCells="      1024">
<Points>
<DataArray type="Float64"                                    Name="coordinates"                                                      NumberOfComponents=" 3" format="ascii">
              0.133000000               0.000000000               0.000000000               0.155937500               0.000000000               0.000000000               0.178875000               0.000000000               0.000000000               0.201812500               0.000000000               0.000000000               0.224750000               0.000000000               0.000000000               0.247687500               0.000000000               0.000000000               0.270625000               0.000000000               0.000000000               0.293562500               0.000000000               0.000000000               0.316500000               0.000000000               0.000000000               0.339437500               0.000000000               0.000000000               0.362375000               0.000000000               0.000000000               0.385312500               0.000000000               0.000000000               0.408250000               0.000000000               0.000000000               0.431187500               0.000000000               0.000000000               0.454125000               0.000000000               0.000000000               0.477062500               0.000000000               0.000000000               0.500000000               0.000000000               0.000000000               0.132359569               0.013036280               0.000000000               0.155337096               0.016127762               0.000000000               0.178314623               0.019219245               0.000000000               0.201292150               0.022310727               0.000000000               0.224269676               0.025402210               0.000000000               0.247247203               0.028493692               0.000000000               0.270224730               0.031585175               0.000000000               0.293202257               0.034676657               0.000000000               0.316179784               0.037768140               0.000000000               0.339157311               0.040859622               0.000000000               0.362134838               0.043951105               0.000000000               0.385112365               0.047042587               0.000000000               0.408089892               0.050134070               0.000000000               0.431067419               0.053225552               0.000000000               0.454044946               0.056317035               0.000000000               0.477022473               0.059408517               0.000000000               0.500000000               0.062500000               0.000000000               0.130444442               0.025947013               0.000000000               0.153541665               0.032137825               0.000000000               0.176638887               0.038328636               0.000000000               0.199736109               0.044519448               0.000000000               0.222833332               0.050710260               0.000000000               0.245930554               0.056901071               0.000000000               0.269027776               0.063091883               0.000000000               0.292124999               0.069282695               0.000000000               0.315222221               0.075473506               0.000000000               0.338319444               0.081664318               0.000000000               0.361416666               0.087855130               0.000000000               0.384513888               0.094045942               0.000000000               0.407611111               0.100236753               0.000000000               0.430708333               0.106427565               0.000000000               0.453805555               0.112618377               0.000000000               0.476902778               0.118809188               0.000000000               0.500000000               0.125000000               0.000000000               0.127273065               0.038607862               0.000000000               0.150568498               0.047913621               0.000000000               0.173863932               0.057219379               0.000000000               0.197159365               0.066525138               0.000000000               0.220454798               0.075830897               0.000000000               0.243750232               0.085136655               0.000000000               0.267045665               0.094442414               0.000000000               0.290341099               0.103748172               0.000000000               0.313636532               0.113053931               0.000000000               0.336931966               0.122359690               0.000000000               0.360227399               0.131665448               0.000000000               0.383522833               0.140971207               0.000000000               0.406818266               0.150276966               0.000000000               0.430113700               0.159582724               0.000000000               0.453409133               0.168888483               0.000000000               0.476704567               0.178194241               0.000000000               0.500000000               0.187500000               0.000000000               0.122875978               0.050896897               0.000000000               0.146446229               0.063340840               0.000000000               0.170016481               0.075784784               0.000000000               0.193586732               0.088228728               0.000000000               0.217156983               0.100672672               0.000000000               0.240727235               0.113116616               0.000000000               0.264297486               0.125560560               0.000000000               0.287867738               0.138004504               0.000000000               0.311437989               0.150448448               0.000000000               0.335008240               0.162892392               0.000000000               0.358578492               0.175336336               0.000000000               0.382148743               0.187780280               0.000000000               0.405718994               0.200224224               0.000000000               0.429289246               0.212668168               0.000000000               0.452859497               0.225112112               0.000000000               0.476429749               0.237556056               0.000000000               0.500000000               0.250000000               0.000000000               0.117295528               0.062695766               0.000000000               0.141214558               0.078308531               0.000000000               0.165133587               0.093921295               0.000000000               0.189052617               0.109534060               0.000000000               0.212971646               0.125146824               0.000000000               0.236890676               0.140759589               0.000000000               0.260809705               0.156372354               0.000000000               0.284728735               0.171985118               0.000000000               0.308647764               0.187597883               0.000000000               0.332566794               0.203210648               0.000000000               0.356485823               0.218823412               0.000000000               0.380404853               0.234436177               0.000000000               0.404323882               0.250048941               0.000000000               0.428242912               0.265661706               0.000000000               0.452161941               0.281274471               0.000000000               0.476080971               0.296887235               0.000000000               0.500000000               0.312500000               0.000000000               0.110585458               0.073890841               0.000000000               0.134923867               0.092710163               0.000000000               0.159262276               0.111529486               0.000000000               0.183600685               0.130348808               0.000000000               0.207939094               0.149168131               0.000000000               0.232277503               0.167987453               0.000000000               0.256615912               0.186806776               0.000000000               0.280954320               0.205626098               0.000000000               0.305292729               0.224445420               0.000000000               0.329631138               0.243264743               0.000000000               0.353969547               0.262084065               0.000000000               0.378307956               0.280903388               0.000000000               0.402646365               0.299722710               0.000000000               0.426984773               0.318542033               0.000000000               0.451323182               0.337361355               0.000000000               0.475661591               0.356180678               0.000000000               0.500000000               0.375000000               0.000000000               0.102810390               0.084374307               0.000000000               0.127634741               0.106444663               0.000000000               0.152459092               0.128515018               0.000000000               0.177283442               0.150585374               0.000000000               0.202107793               0.172655730               0.000000000               0.226932143               0.194726086               0.000000000               0.251756494               0.216796442               0.000000000               0.276580845               0.238866798               0.000000000               0.301405195               0.260937153               0.000000000               0.326229546               0.283007509               0.000000000               0.351053896               0.305077865               0.000000000               0.375878247               0.327148221               0.000000000               0.400702598               0.349218577               0.000000000               0.425526948               0.371288933               0.000000000               0.450351299               0.393359288               0.000000000               0.475175649               0.415429644               0.000000000               0.500000000               0.437500000               0.000000000               0.094045202               0.094045202               0.000000000               0.119417377               0.119417377               0.000000000               0.144789552               0.144789552               0.000000000               0.170161727               0.170161727               0.000000000               0.195533901               0.195533901               0.000000000               0.220906076               0.220906076               0.000000000               0.246278251               0.246278251               0.000000000               0.271650426               0.271650426               0.000000000               0.297022601               0.297022601               0.000000000               0.322394776               0.322394776               0.000000000               0.347766951               0.347766951               0.000000000               0.373139126               0.373139126               0.000000000               0.398511300               0.398511300               0.000000000               0.423883475               0.423883475               0.000000000               0.449255650               0.449255650               0.000000000               0.474627825               0.474627825               0.000000000               0.500000000               0.500000000               0.000000000               0.084374307               0.102810390               0.000000000               0.106444663               0.127634741               0.000000000               0.128515018               0.152459092               0.000000000               0.150585374               0.177283442               0.000000000               0.172655730               0.202107793               0.000000000               0.194726086               0.226932143               0.000000000               0.216796442               0.251756494               0.000000000               0.238866798               0.276580845               0.000000000               0.260937153               0.301405195               0.000000000               0.283007509               0.326229546               0.000000000               0.305077865               0.351053896               0.000000000               0.327148221               0.375878247               0.000000000               0.349218577               0.400702598               0.000000000               0.371288933               0.425526948               0.000000000               0.393359288               0.450351299               0.000000000               0.415429644               0.475175649               0.000000000               0.437500000               0.500000000               0.000000000               0.073890841               0.110585458               0.000000000               0.092710163               0.134923867               0.000000000               0.111529486               0.159262276               0.000000000               0.130348808               0.183600685               0.000000000               0.149168131               0.207939094               0.000000000               0.167987453               0.232277503               0.000000000               0.186806776               0.256615912               0.000000000               0.205626098               0.280954320               0.000000000               0.224445420               0.305292729               0.000000000               0.243264743               0.329631138               0.000000000               0.262084065               0.353969547               0.000000000               0.280903388               0.378307956               0.000000000               0.299722710               0.402646365               0.000000000               0.318542033               0.426984773               0.000000000               0.337361355               0.451323182               0.000000000               0.356180678               0.475661591               0.000000000               0.375000000               0.500000000               0.000000000               0.062695766               0.117295528               0.000000000               0.078308531               0.141214558               0.000000000               0.093921295               0.165133587               0.000000000               0.109534060               0.189052617               0.000000000               0.125146824               0.212971646               0.000000000               0.140759589               0.236890676               0.000000000               0.156372354               0.260809705               0.000000000               0.171985118               0.284728735               0.000000000               0.187597883               0.308647764               0.000000000               0.203210648               0.332566794               0.000000000               0.218823412               0.356485823               0.000000000               0.234436177               0.380404853               0.000000000               0.250048941               0.404323882               0.000000000               0.265661706               0.428242912               0.000000000               0.281274471               0.452161941               0.000000000               0.296887235               0.476080971               0.000000000               0.312500000               0.500000000               0.000000000               0.050896897               0.122875978               0.000000000               0.063340840               0.146446229               0.000000000               0.075784784               0.170016481               0.000000000               0.088228728               0.193586732               0.000000000               0.100672672               0.217156983               0.000000000               0.113116616               0.240727235               0.000000000               0.125560560               0.264297486               0.000000000               0.138004504               0.287867738               0.000000000               0.150448448               0.311437989               0.000000000               0.162892392               0.335008240               0.000000000               0.175336336               0.358578492               0.000000000               0.187780280               0.382148743               0.000000000               0.200224224               0.405718994               0.000000000               0.212668168               0.429289246               0.000000000               0.225112112               0.452859497               0.000000000               0.237556056               0.476429749               0.000000000               0.250000000               0.500000000               0.000000000               0.038607862               0.127273065               0.000000000               0.047913621               0.150568498               0.000000000               0.057219379               0.173863932               0.000000000               0.066525138               0.197159365               0.000000000               0.075830897               0.220454798               0.000000000               0.085136655               0.243750232               0.000000000               0.094442414               0.267045665               0.000000000               0.103748172               0.290341099               0.000000000               0.113053931               0.313636532               0.000000000               0.122359690               0.336931966               0.000000000               0.131665448               0.360227399               0.000000000               0.140971207               0.383522833               0.000000000               0.150276966               0.406818266               0.000000000               0.159582724               0.430113700               0.000000000               0.168888483               0.453409133               0.000000000               0.178194241               0.476704567               0.000000000               0.187500000               0.500000000               0.000000000               0.025947013               0.130444442               0.000000000               0.032137825               0.153541665               0.000000000               0.038328636               0.176638887               0.000000000               0.044519448               0.199736109               0.000000000               0.050710260               0.222833332               0.000000000               0.056901071               0.245930554               0.000000000               0.063091883               0.269027776               0.000000000               0.069282695               0.292124999               0.000000000               0.075473506               0.315222221               0.000000000               0.081664318               0.338319444               0.000000000               0.087855130               0.361416666               0.000000000               0.094045942               0.384513888               0.000000000               0.100236753               0.407611111               0.000000000               0.106427565               0.430708333               0.000000000               0.112618377               0.453805555               0.000000000               0.118809188               0.476902778               0.000000000               0.125000000               0.500000000               0.000000000               0.013036280               0.132359569               0.000000000               0.016127762               0.155337096               0.000000000               0.019219245               0.178314623               0.000000000               0.022310727               0.201292150               0.000000000               0.025402210               0.224269676               0.000000000               0.028493692               0.247247203               0.000000000               0.031585175               0.270224730               0.000000000               0.034676657               0.293202257               0.000000000               0.037768140               0.316179784               0.000000000               0.040859622               0.339157311               0.000000000               0.043951105               0.362134838               0.000000000               0.047042587               0.385112365               0.000000000               0.050134070               0.408089892               0.000000000               0.053225552               0.431067419               0.000000000               0.056317035               0.454044946               0.000000000               0.059408517               0.477022473               0.000000000               0.062500000               0.500000000               0.000000000               0.000000000               0.133000000               0.000000000               0.000000000               0.155937500               0.000000000               0.000000000               0.178875000               0.000000000               0.000000000               0.201812500               0.000000000               0.000000000               0.224750000               0.000000000               0.000000000               0.247687500               0.000000000               0.000000000               0.270625000               0.000000000               0.000000000               0.293562500               0.000000000               0.000000000               0.316500000               0.000000000               0.000000000               0.339437500               0.000000000               0.000000000               0.362375000               0.000000000               0.000000000               0.385312500               0.000000000               0.000000000               0.408250000               0.000000000               0.000000000               0.431187500               0.000000000               0.000000000               0.454125000               0.000000000               0.000000000               0.477062500               0.000000000               0.000000000               0.500000000               0.000000000               0.133000000               0.000000000               0.000000000               0.155937500               0.000000000               0.000000000               0.178875000               0.000000000               0.000000000               0.201812500               0.000000000               0.000000000               0.224750000               0.000000000               0.000000000               0.247687500               0.000000000               0.000000000               0.270625000               0.000000000               0.000000000               0.293562500               0.000000000               0.000000000               0.316500000               0.000000000               0.000000000               0.339437500               0.000000000               0.000000000               0.362375000               0.000000000               0.000000000               0.385312500               0.000000000               0.000000000               0.408250000               0.000000000               0.000000000               0.431187500               0.000000000               0.000000000               0.454125000               0.000000000               0.000000000               0.477062500               0.000000000               0.000000000               0.500000000               0.000000000               0.000000000               0.132359569              -0.013036280               0.000000000               0.155337096              -0.016127762               0.000000000               0.178314623              -0.019219245               0.000000000               0.201292150              -0.022310727               0.000000000               0.224269676              -0.025402210               0.000000000               0.247247203              -0.028493692               0.000000000               0.270224730              -0.031585175               0.000000000               0.293202257              -0.034676657               0.000000000               0.316179784              -0.037768140               0.000000000               0.339157311              -0.040859622               0.000000000               0.362134838              -0.043951105               0.000000000               0.385112365              -0.047042587               0.000000000               0.408089892              -0.050134070               0.000000000               0.431067419              -0.053225552               0.000000000               0.454044946              -0.056317035               0.000000000               0.477022473              -0.059408517               0.000000000               0.500000000              -0.062500000               0.000000000               0.130444442              -0.025947013               0.000000000               0.153541665              -0.032137825               0.000000000               0.176638887              -0.038328636               0.000000000               0.199736109              -0.044519448               0.000000000               0.222833332              -0.050710260               0.000000000               0.245930554              -0.056901071               0.000000000               0.269027776              -0.063091883               0.000000000               0.292124999              -0.069282695               0.000000000               0.315222221              -0.075473506               0.000000000               0.338319444              -0.081664318               0.000000000               0.361416666              -0.087855130               0.000000000               0.384513888              -0.094045942               0.000000000               0.407611111              -0.100236753               0.000000000               0.430708333              -0.106427565               0.000000000               0.453805555              -0.112618377               0.000000000               0.476902778              -0.118809188               0.000000000               0.500000000              -0.125000000               0.000000000               0.127273065              -0.038607862               0.000000000               0.150568498              -0.047913621               0.000000000               0.173863932              -0.057219379               0.000000000               0.197159365              -0.066525138               0.000000000               0.220454798              -0.075830897               0.000000000               0.243750232              -0.085136655               0.000000000               0.267045665              -0.094442414               0.000000000               0.290341099              -0.103748172               0.000000000               0.313636532              -0.113053931               0.000000000               0.336931966              -0.122359690               0.000000000               0.360227399              -0.131665448               0.000000000               0.383522833              -0.140971207               0.000000000               0.406818266              -0.150276966               0.000000000               0.430113700              -0.159582724               0.000000000               0.453409133              -0.168888483               0.000000000               0.476704567              -0.178194241               0.000000000               0.500000000              -0.187500000               0.000000000               0.122875978              -0.050896897               0.000000000               0.146446229              -0.063340840               0.000000000               0.170016481              -0.075784784               0.000000000               0.193586732              -0.088228728               0.000000000               0.217156983              -0.100672672               0.000000000               0.240727235              -0.113116616               0.000000000               0.264297486              -0.125560560               0.000000000               0.287867738              -0.138004504               0.000000000               0.311437989              -0.150448448               0.000000000               0.335008240              -0.162892392               0.000000000               0.358578492              -0.175336336               0.000000000               0.382148743              -0.187780280               0.000000000               0.405718994              -0.200224224               0.000000000               0.429289246              -0.212668168               0.000000000               0.452859497              -0.225112112               0.000000000               0.476429749              -0.237556056               0.000000000               0.500000000              -0.250000000               0.000000000               0.117295528              -0.062695766               0.000000000               0.141214558              -0.078308531               0.000000000               0.165133587              -0.093921295               0.000000000               0.189052617              -0.109534060               0.000000000               0.212971646              -0.125146824               0.000000000               0.236890676              -0.140759589               0.000000000               0.260809705              -0.156372354               0.000000000               0.284728735              -0.171985118               0.000000000               0.308647764              -0.187597883               0.000000000               0.332566794              -0.203210648               0.000000000               0.356485823              -0.218823412               0.000000000               0.380404853              -0.234436177               0.000000000               0.404323882              -0.250048941               0.000000000               0.428242912              -0.265661706               0.000000000               0.452161941              -0.281274471               0.000000000               0.476080971              -0.296887235               0.000000000               0.500000000              -0.312500000               0.000000000               0.110585458              -0.073890841               0.000000000               0.134923867              -0.092710163               0.000000000               0.159262276              -0.111529486               0.000000000               0.183600685              -0.130348808               0.000000000               0.207939094              -0.149168131               0.000000000               0.232277503              -0.167987453               0.000000000               0.256615912              -0.186806776               0.000000000               0.280954320              -0.205626098               0.000000000               0.305292729              -0.224445420               0.000000000               0.329631138              -0.243264743               0.000000000               0.353969547              -0.262084065               0.000000000               0.378307956              -0.280903388               0.000000000               0.402646365              -0.299722710               0.000000000               0.426984773              -0.318542033               0.000000000               0.451323182              -0.337361355               0.000000000               0.475661591              -0.356180678               0.000000000               0.500000000              -0.375000000               0.000000000               0.102810390              -0.084374307               0.000000000               0.127634741              -0.106444663               0.000000000               0.152459092              -0.128515018               0.000000000               0.177283442              -0.150585374               0.000000000               0.202107793              -0.172655730               0.000000000               0.226932143              -0.194726086               0.000000000               0.251756494              -0.216796442               0.000000000               0.276580845              -0.238866798               0.000000000               0.301405195              -0.260937153               0.000000000               0.326229546              -0.283007509               0.000000000               0.351053896              -0.305077865               0.000000000               0.375878247              -0.327148221               0.000000000               0.400702598              -0.349218577               0.000000000               0.425526948              -0.371288933               0.000000000               0.450351299              -0.393359288               0.000000000               0.475175649              -0.415429644               0.000000000               0.500000000              -0.437500000               0.000000000               0.094045202              -0.094045202               0.000000000               0.119417377              -0.119417377               0.000000000               0.144789552              -0.144789552               0.000000000               0.170161727              -0.170161727               0.000000000               0.195533901              -0.195533901               0.000000000               0.220906076              -0.220906076               0.000000000               0.246278251              -0.246278251               0.000000000               0.271650426              -0.271650426               0.000000000               0.297022601              -0.297022601               0.000000000               0.322394776              -0.322394776               0.000000000               0.347766951              -0.347766951               0.000000000               0.373139126              -0.373139126               0.000000000               0.398511300              -0.398511300               0.000000000               0.423883475              -0.423883475               0.000000000               0.449255650              -0.449255650               0.000000000               0.474627825              -0.474627825               0.000000000               0.500000000              -0.500000000               0.000000000               0.084374307              -0.102810390               0.000000000               0.106444663              -0.127634741               0.000000000               0.128515018              -0.152459092               0.000000000               0.150585374              -0.177283442               0.000000000               0.172655730              -0.202107793               0.000000000               0.194726086              -0.226932143               0.000000000               0.216796442              -0.251756494               0.000000000               0.238866798              -0.276580845               0.000000000               0.260937153              -0.301405195               0.000000000               0.283007509              -0.326229546               0.000000000               0.305077865              -0.351053896               0.000000000               0.327148221              -0.375878247               0.000000000               0.349218577              -0.400702598               0.000000000               0.371288933              -0.425526948               0.000000000               0.393359288              -0.450351299               0.000000000               0.415429644              -0.475175649               0.000000000               0.437500000              -0.500000000               0.000000000               0.073890841              -0.110585458               0.000000000               0.092710163              -0.134923867               0.000000000               0.111529486              -0.159262276               0.000000000               0.130348808              -0.183600685               0.000000000               0.149168131              -0.207939094               0.000000000               0.167987453              -0.232277503               0.000000000               0.186806776              -0.256615912               0.000000000               0.205626098              -0.280954320               0.000000000               0.224445420              -0.305292729               0.000000000               0.243264743              -0.329631138               0.000000000               0.262084065              -0.353969547               0.000000000               0.280903388              -0.378307956               0.000000000               0.299722710              -0.402646365               0.000000000               0.318542033              -0.426984773               0.000000000               0.337361355              -0.451323182               0.000000000               0.356180678              -0.475661591               0.000000000               0.375000000              -0.500000000               0.000000000               0.062695766              -0.117295528               0.000000000               0.078308531              -0.141214558               0.000000000               0.093921295              -0.165133587               0.000000000               0.109534060              -0.189052617               0.000000000               0.125146824              -0.212971646               0.000000000               0.140759589              -0.236890676               0.000000000               0.156372354              -0.260809705               0.000000000               0.171985118              -0.284728735               0.000000000               0.187597883              -0.308647764               0.000000000               0.203210648              -0.332566794               0.000000000               0.218823412              -0.356485823               0.000000000               0.234436177              -0.380404853               0.000000000               0.250048941              -0.404323882               0.000000000               0.265661706              -0.428242912               0.000000000               0.281274471              -0.452161941               0.000000000               0.296887235              -0.476080971               0.000000000               0.312500000              -0.500000000               0.000000000               0.050896897              -0.122875978               0.000000000               0.063340840              -0.146446229               0.000000000               0.075784784              -0.170016481               0.000000000               0.088228728              -0.193586732               0.000000000               0.100672672              -0.217156983               0.000000000               0.113116616              -0.240727235               0.000000000               0.125560560              -0.264297486               0.000000000               0.138004504              -0.287867738               0.000000000               0.150448448              -0.311437989               0.000000000               0.162892392              -0.335008240               0.000000000               0.175336336              -0.358578492               0.000000000               0.187780280              -0.382148743               0.000000000               0.200224224              -0.405718994               0.000000000               0.212668168              -0.429289246               0.000000000               0.225112112              -0.452859497               0.000000000               0.237556056              -0.476429749               0.000000000               0.250000000              -0.500000000               0.000000000               0.038607862              -0.127273065               0.000000000               0.047913621              -0.150568498               0.000000000               0.057219379              -0.173863932               0.000000000               0.066525138              -0.197159365               0.000000000               0.075830897              -0.220454798               0.000000000               0.085136655              -0.243750232               0.000000000               0.094442414              -0.267045665               0.000000000               0.103748172              -0.290341099               0.000000000               0.113053931              -0.313636532               0.000000000               0.122359690              -0.336931966               0.000000000               0.131665448              -0.360227399               0.000000000               0.140971207              -0.383522833               0.000000000               0.150276966              -0.406818266               0.000000000               0.159582724              -0.430113700               0.000000000               0.168888483              -0.453409133               0.000000000               0.178194241              -0.476704567               0.000000000               0.187500000              -0.500000000               0.000000000               0.025947013              -0.130444442               0.000000000               0.032137825              -0.153541665               0.000000000               0.038328636              -0.176638887               0.000000000               0.044519448              -0.199736109               0.000000000               0.050710260              -0.222833332               0.000000000               0.056901071              -0.245930554               0.000000000               0.063091883              -0.269027776               0.000000000               0.069282695              -0.292124999               0.000000000               0.075473506              -0.315222221               0.000000000               0.081664318              -0.338319444               0.000000000               0.087855130              -0.361416666               0.000000000               0.094045942              -0.384513888               0.000000000               0.100236753              -0.407611111               0.000000000               0.106427565              -0.430708333               0.000000000               0.112618377              -0.453805555               0.000000000               0.118809188              -0.476902778               0.000000000               0.125000000              -0.500000000               0.000000000               0.013036280              -0.132359569               0.000000000               0.016127762              -0.155337096               0.000000000               0.019219245              -0.178314623               0.000000000               0.022310727              -0.201292150               0.000000000               0.025402210              -0.224269676               0.000000000               0.028493692              -0.247247203               0.000000000               0.031585175              -0.270224730               0.000000000               0.034676657              -0.293202257               0.000000000               0.037768140              -0.316179784               0.000000000               0.040859622              -0.339157311               0.000000000               0.043951105              -0.362134838               0.000000000               0.047042587              -0.385112365               0.000000000               0.050134070              -0.408089892               0.000000000               0.053225552              -0.431067419               0.000000000               0.056317035              -0.454044946               0.000000000               0.059408517              -0.477022473               0.000000000               0.062500000              -0.500000000               0.000000000               0.000000000              -0.133000000               0.000000000               0.000000000              -0.155937500               0.000000000               0.000000000              -0.178875000               0.000000000               0.000000000              -0.201812500               0.000000000               0.000000000              -0.224750000               0.000000000               0.000000000              -0.247687500               0.000000000               0.000000000              -0.270625000               0.000000000               0.000000000              -0.293562500               0.000000000               0.000000000              -0.316500000               0.000000000               0.000000000              -0.339437500               0.000000000               0.000000000              -0.362375000               0.000000000               0.000000000              -0.385312500               0.000000000               0.000000000              -0.408250000               0.000000000               0.000000000              -0.431187500               0.000000000               0.000000000              -0.454125000               0.000000000               0.000000000              -0.477062500               0.000000000               0.000000000              -0.500000000               0.000000000              -0.133000000               0.000000000               0.000000000              -0.155937500               0.000000000               0.000000000              -0.178875000               0.000000000               0.000000000              -0.201812500               0.000000000               0.000000000              -0.224750000               0.000000000               0.000000000              -0.247687500               0.000000000               0.000000000              -0.270625000               0.000000000               0.000000000              -0.293562500               0.000000000               0.000000000              -0.316500000               0.000000000               0.000000000              -0.339437500               0.000000000               0.000000000              -0.362375000               0.000000000               0.000000000              -0.385312500               0.000000000               0.000000000              -0.408250000               0.000000000               0.000000000              -0.431187500               0.000000000               0.000000000              -0.454125000               0.000000000               0.000000000              -0.477062500               0.000000000               0.000000000              -0.500000000               0.000000000               0.000000000              -0.132359569              -0.013036280               0.000000000              -0.155337096              -0.016127762               0.000000000              -0.178314623              -0.019219245               0.000000000              -0.201292150              -0.022310727               0.000000000              -0.224269676              -0.025402210               0.000000000              -0.247247203              -0.028493692               0.000000000              -0.270224730              -0.031585175               0.000000000              -0.293202257              -0.034676657               0.000000000              -0.316179784              -0.037768140               0.000000000              -0.339157311              -0.040859622               0.000000000              -0.362134838              -0.043951105               0.000000000              -0.385112365              -0.047042587               0.000000000              -0.408089892              -0.050134070               0.000000000              -0.431067419              -0.053225552               0.000000000              -0.454044946              -0.056317035               0.000000000              -0.477022473              -0.059408517               0.000000000              -0.500000000              -0.062500000               0.000000000              -0.130444442              -0.025947013               0.000000000              -0.153541665              -0.032137825               0.000000000              -0.176638887              -0.038328636               0.000000000              -0.199736109              -0.044519448               0.000000000              -0.222833332              -0.050710260               0.000000000              -0.245930554              -0.056901071               0.000000000              -0.269027776              -0.063091883               0.000000000              -0.292124999              -0.069282695               0.000000000              -0.315222221              -0.075473506               0.000000000              -0.338319444              -0.081664318               0.000000000              -0.361416666              -0.087855130               0.000000000              -0.384513888              -0.094045942               0.000000000              -0.407611111              -0.100236753               0.000000000              -0.430708333              -0.106427565               0.000000000              -0.453805555              -0.112618377               0.000000000              -0.476902778              -0.118809188               0.000000000              -0.500000000              -0.125000000               0.000000000              -0.127273065              -0.038607862               0.000000000              -0.150568498              -0.047913621               0.000000000              -0.173863932              -0.057219379               0.000000000              -0.197159365              -0.066525138               0.000000000              -0.220454798              -0.075830897               0.000000000              -0.243750232              -0.085136655               0.000000000              -0.267045665              -0.094442414               0.000000000              -0.290341099              -0.103748172               0.000000000              -0.313636532              -0.113053931               0.000000000              -0.336931966              -0.122359690               0.000000000              -0.360227399              -0.131665448               0.000000000              -0.383522833              -0.140971207               0.000000000              -0.406818266              -0.150276966               0.000000000              -0.430113700              -0.159582724               0.000000000              -0.453409133              -0.168888483               0.000000000              -0.476704567              -0.178194241               0.000000000              -0.500000000              -0.187500000               0.000000000              -0.122875978              -0.050896897               0.000000000              -0.146446229              -0.063340840               0.000000000              -0.170016481              -0.075784784               0.000000000              -0.193586732              -0.088228728               0.000000000              -0.217156983              -0.100672672               0.000000000              -0.240727235              -0.113116616               0.000000000              -0.264297486              -0.125560560               0.000000000              -0.287867738              -0.138004504               0.000000000              -0.311437989              -0.150448448               0.000000000              -0.335008240              -0.162892392               0.000000000              -0.358578492              -0.175336336               0.000000000              -0.382148743              -0.187780280               0.000000000              -0.405718994              -0.200224224               0.000000000              -0.429289246              -0.212668168               0.000000000              -0.452859497              -0.225112112               0.000000000              -0.476429749              -0.237556056               0.000000000              -0.500000000              -0.250000000               0.000000000              -0.117295528              -0.062695766               0.000000000              -0.141214558              -0.078308531               0.000000000              -0.165133587              -0.093921295               0.000000000              -0.189052617              -0.109534060               0.000000000              -0.212971646              -0.125146824               0.000000000              -0.236890676              -0.140759589               0.000000000              -0.260809705              -0.156372354               0.000000000              -0.284728735              -0.171985118               0.000000000              -0.308647764              -0.187597883               0.000000000              -0.332566794              -0.203210648               0.000000000              -0.356485823              -0.218823412               0.000000000              -0.380404853              -0.234436177               0.000000000              -0.404323882              -0.250048941               0.000000000              -0.428242912              -0.265661706               0.000000000              -0.452161941              -0.281274471               0.000000000              -0.476080971              -0.296887235               0.000000000              -0.500000000              -0.312500000               0.000000000              -0.110585458              -0.073890841               0.000000000              -0.134923867              -0.092710163               0.000000000              -0.159262276              -0.111529486               0.000000000              -0.183600685              -0.130348808               0.000000000              -0.207939094              -0.149168131               0.000000000              -0.232277503              -0.167987453               0.000000000              -0.256615912              -0.186806776               0.000000000              -0.280954320              -0.205626098               0.000000000              -0.305292729              -0.224445420               0.000000000              -0.329631138              -0.243264743               0.000000000              -0.353969547              -0.262084065               0.000000000              -0.378307956              -0.280903388               0.000000000              -0.402646365              -0.299722710               0.000000000              -0.426984773              -0.318542033               0.000000000              -0.451323182              -0.337361355               0.000000000              -0.475661591              -0.356180678               0.000000000              -0.500000000              -0.375000000               0.000000000              -0.102810390              -0.084374307               0.000000000              -0.127634741              -0.106444663               0.000000000              -0.152459092              -0.128515018               0.000000000              -0.177283442              -0.150585374               0.000000000              -0.202107793              -0.172655730               0.000000000              -0.226932143              -0.194726086               0.000000000              -0.251756494              -0.216796442               0.000000000              -0.276580845              -0.238866798               0.000000000              -0.301405195              -0.260937153               0.000000000              -0.326229546              -0.283007509               0.000000000              -0.351053896              -0.305077865               0.000000000              -0.375878247              -0.327148221               0.000000000              -0.400702598              -0.349218577               0.000000000              -0.425526948              -0.371288933               0.000000000              -0.450351299              -0.393359288               0.000000000              -0.475175649              -0.415429644               0.000000000              -0.500000000              -0.437500000               0.000000000              -0.094045202              -0.094045202               0.000000000              -0.119417377              -0.119417377               0.000000000              -0.144789552              -0.144789552               0.000000000              -0.170161727              -0.170161727               0.000000000              -0.195533901              -0.195533901               0.000000000              -0.220906076              -0.220906076               0.000000000              -0.246278251              -0.246278251               0.000000000              -0.271650426              -0.271650426               0.000000000              -0.297022601              -0.297022601               0.000000000              -0.322394776              -0.322394776               0.000000000              -0.347766951              -0.347766951               0.000000000              -0.373139126              -0.373139126               0.000000000              -0.398511300              -0.398511300               0.000000000              -0.423883475              -0.423883475               0.000000000              -0.449255650              -0.449255650               0.000000000              -0.474627825              -0.474627825               0.000000000              -0.500000000              -0.500000000               0.000000000              -0.084374307              -0.102810390               0.000000000              -0.106444663              -0.127634741               0.000000000              -0.128515018              -0.152459092               0.000000000              -0.150585374              -0.177283442               0.000000000              -0.172655730              -0.202107793               0.000000000              -0.194726086              -0.226932143               0.000000000              -0.216796442              -0.251756494               0.000000000              -0.238866798              -0.276580845               0.000000000              -0.260937153              -0.301405195               0.000000000              -0.283007509              -0.326229546               0.000000000              -0.305077865              -0.351053896               0.000000000              -0.327148221              -0.375878247               0.000000000              -0.349218577              -0.400702598               0.000000000              -0.371288933              -0.425526948               0.000000000              -0.393359288              -0.450351299               0.000000000              -0.415429644              -0.475175649               0.000000000              -0.437500000              -0.500000000               0.000000000              -0.073890841              -0.110585458               0.000000000              -0.092710163              -0.134923867               0.000000000              -0.111529486              -0.159262276               0.000000000              -0.130348808              -0.183600685               0.000000000              -0.149168131              -0.207939094               0.000000000              -0.167987453              -0.232277503               0.000000000              -0.186806776              -0.256615912               0.000000000              -0.205626098              -0.280954320               0.000000000              -0.224445420              -0.305292729               0.000000000              -0.243264743              -0.329631138               0.000000000              -0.262084065              -0.353969547               0.000000000              -0.280903388              -0.378307956               0.000000000              -0.299722710              -0.402646365               0.000000000              -0.318542033              -0.426984773               0.000000000              -0.337361355              -0.451323182               0.000000000              -0.356180678              -0.475661591               0.000000000              -0.375000000              -0.500000000               0.000000000              -0.062695766              -0.117295528               0.000000000              -0.078308531              -0.141214558               0.000000000              -0.093921295              -0.165133587               0.000000000              -0.109534060              -0.189052617               0.000000000              -0.125146824              -0.212971646               0.000000000              -0.140759589              -0.236890676               0.000000000              -0.156372354              -0.260809705               0.000000000              -0.171985118              -0.284728735               0.000000000              -0.187597883              -0.308647764               0.000000000              -0.203210648              -0.332566794               0.000000000              -0.218823412              -0.356485823               0.000000000              -0.234436177              -0.380404853               0.000000000              -0.250048941              -0.404323882               0.000000000              -0.265661706              -0.428242912               0.000000000              -0.281274471              -0.452161941               0.000000000              -0.296887235              -0.476080971               0.000000000              -0.312500000              -0.500000000               0.000000000              -0.050896897              -0.122875978               0.000000000              -0.063340840              -0.146446229               0.000000000              -0.075784784              -0.170016481               0.000000000              -0.088228728              -0.193586732               0.000000000              -0.100672672              -0.217156983               0.000000000              -0.113116616              -0.240727235               0.000000000              -0.125560560              -0.264297486               0.000000000              -0.138004504              -0.287867738               0.000000000              -0.150448448              -0.311437989               0.000000000              -0.162892392              -0.335008240               0.000000000              -0.175336336              -0.358578492               0.000000000              -0.187780280              -0.382148743               0.000000000              -0.200224224              -0.405718994               0.000000000              -0.212668168              -0.429289246               0.000000000              -0.225112112              -0.452859497               0.000000000              -0.237556056              -0.476429749               0.000000000              -0.250000000              -0.500000000               0.000000000              -0.038607862              -0.127273065               0.000000000              -0.047913621              -0.150568498               0.000000000              -0.057219379              -0.173863932               0.000000000              -0.066525138              -0.197159365               0.000000000              -0.075830897              -0.220454798               0.000000000              -0.085136655              -0.243750232               0.000000000              -0.094442414              -0.267045665               0.000000000              -0.103748172              -0.290341099               0.000000000              -0.113053931              -0.313636532               0.000000000              -0.122359690              -0.336931966               0.000000000              -0.131665448              -0.360227399               0.000000000              -0.140971207              -0.383522833               0.000000000              -0.150276966              -0.406818266               0.000000000              -0.159582724              -0.430113700               0.000000000              -0.168888483              -0.453409133               0.000000000              -0.178194241              -0.476704567               0.000000000              -0.187500000              -0.500000000               0.000000000              -0.025947013              -0.130444442               0.000000000              -0.032137825              -0.153541665               0.000000000              -0.038328636              -0.176638887               0.000000000              -0.044519448              -0.199736109               0.000000000              -0.050710260              -0.222833332               0.000000000              -0.056901071              -0.245930554               0.000000000              -0.063091883              -0.269027776               0.000000000              -0.069282695              -0.292124999               0.000000000              -0.075473506              -0.315222221               0.000000000              -0.081664318              -0.338319444               0.000000000              -0.087855130              -0.361416666               0.000000000              -0.094045942              -0.384513888               0.000000000              -0.100236753              -0.407611111               0.000000000              -0.106427565              -0.430708333               0.000000000              -0.112618377              -0.453805555               0.000000000              -0.118809188              -0.476902778               0.000000000              -0.125000000              -0.500000000               0.000000000              -0.013036280              -0.132359569               0.000000000              -0.016127762              -0.155337096               0.000000000              -0.019219245              -0.178314623               0.000000000              -0.022310727              -0.201292150               0.000000000              -0.025402210              -0.224269676               0.000000000              -0.028493692              -0.247247203               0.000000000              -0.031585175              -0.270224730               0.000000000              -0.034676657              -0.293202257               0.000000000              -0.037768140              -0.316179784               0.000000000              -0.040859622              -0.339157311               0.000000000              -0.043951105              -0.362134838               0.000000000              -0.047042587              -0.385112365               0.000000000              -0.050134070              -0.408089892               0.000000000              -0.053225552              -0.431067419               0.000000000              -0.056317035              -0.454044946               0.000000000              -0.059408517              -0.477022473               0.000000000              -0.062500000              -0.500000000               0.000000000               0.000000000              -0.133000000               0.000000000               0.000000000              -0.155937500               0.000000000               0.000000000              -0.178875000               0.000000000               0.000000000              -0.201812500               0.000000000               0.000000000              -0.224750000               0.000000000               0.000000000              -0.247687500               0.000000000               0.000000000              -0.270625000               0.000000000               0.000000000              -0.293562500               0.000000000               0.000000000              -0.316500000               0.000000000               0.000000000              -0.339437500               0.000000000               0.000000000              -0.362375000               0.000000000               0.000000000              -0.385312500               0.000000000               0.000000000              -0.408250000               0.000000000               0.000000000              -0.431187500               0.000000000               0.000000000              -0.454125000               0.000000000               0.000000000              -0.477062500               0.000000000               0.000000000              -0.500000000               0.000000000              -0.133000000               0.000000000               0.000000000              -0.155937500               0.000000000               0.000000000              -0.178875000               0.000000000               0.000000000              -0.201812500               0.000000000               0.000000000              -0.224750000               0.000000000               0.000000000              -0.247687500               0.000000000               0.000000000              -0.270625000               0.000000000               0.000000000              -0.293562500               0.000000000               0.000000000              -0.316500000               0.000000000               0.000000000              -0.339437500               0.000000000               0.000000000              -0.362375000               0.000000000               0.000000000              -0.385312500               0.000000000               0.000000000              -0.408250000               0.000000000               0.000000000              -0.431187500               0.000000000               0.000000000              -0.454125000               0.000000000               0.000000000              -0.477062500               0.000000000               0.000000000              -0.500000000               0.000000000               0.000000000              -0.132359569               0.013036280               0.000000000              -0.155337096               0.016127762               0.000000000              -0.178314623               0.019219245               0.000000000              -0.201292150               0.022310727               0.000000000              -0.224269676               0.025402210               0.000000000              -0.247247203               0.028493692               0.000000000              -0.270224730               0.031585175               0.000000000              -0.293202257               0.034676657               0.000000000              -0.316179784               0.037768140               0.000000000              -0.339157311               0.040859622               0.000000000              -0.362134838               0.043951105               0.000000000              -0.385112365               0.047042587               0.000000000              -0.408089892               0.050134070               0.000000000              -0.431067419               0.053225552               0.000000000              -0.454044946               0.056317035               0.000000000              -0.477022473               0.059408517               0.000000000              -0.500000000               0.062500000               0.000000000              -0.130444442               0.025947013               0.000000000              -0.153541665               0.032137825               0.000000000              -0.176638887               0.038328636               0.000000000              -0.199736109               0.044519448               0.000000000              -0.222833332               0.050710260               0.000000000              -0.245930554               0.056901071               0.000000000              -0.269027776               0.063091883               0.000000000              -0.292124999               0.069282695               0.000000000              -0.315222221               0.075473506               0.000000000              -0.338319444               0.081664318               0.000000000              -0.361416666               0.087855130               0.000000000              -0.384513888               0.094045942               0.000000000              -0.407611111               0.100236753               0.000000000              -0.430708333               0.106427565               0.000000000              -0.453805555               0.112618377               0.000000000              -0.476902778               0.118809188               0.000000000              -0.500000000               0.125000000               0.000000000              -0.127273065               0.038607862               0.000000000              -0.150568498               0.047913621               0.000000000              -0.173863932               0.057219379               0.000000000              -0.197159365               0.066525138               0.000000000              -0.220454798               0.075830897               0.000000000              -0.243750232               0.085136655               0.000000000              -0.267045665               0.094442414               0.000000000              -0.290341099               0.103748172               0.000000000              -0.313636532               0.113053931               0.000000000              -0.336931966               0.122359690               0.000000000              -0.360227399               0.131665448               0.000000000              -0.383522833               0.140971207               0.000000000              -0.406818266               0.150276966               0.000000000              -0.430113700               0.159582724               0.000000000              -0.453409133               0.168888483               0.000000000              -0.476704567               0.178194241               0.000000000              -0.500000000               0.187500000               0.000000000              -0.122875978               0.050896897               0.000000000              -0.146446229               0.063340840               0.000000000              -0.170016481               0.075784784               0.000000000              -0.193586732               0.088228728               0.000000000              -0.217156983               0.100672672               0.000000000              -0.240727235               0.113116616               0.000000000              -0.264297486               0.125560560               0.000000000              -0.287867738               0.138004504               0.000000000              -0.311437989               0.150448448               0.000000000              -0.335008240               0.162892392               0.000000000              -0.358578492               0.175336336               0.000000000              -0.382148743               0.187780280               0.000000000              -0.405718994               0.200224224               0.000000000              -0.429289246               0.212668168               0.000000000              -0.452859497               0.225112112               0.000000000              -0.476429749               0.237556056               0.000000000              -0.500000000               0.250000000               0.000000000              -0.117295528               0.062695766               0.000000000              -0.141214558               0.078308531               0.000000000              -0.165133587               0.093921295               0.000000000              -0.189052617               0.109534060               0.000000000              -0.212971646               0.125146824               0.000000000              -0.236890676               0.140759589               0.000000000              -0.260809705               0.156372354               0.000000000              -0.284728735               0.171985118               0.000000000              -0.308647764               0.187597883               0.000000000              -0.332566794               0.203210648               0.000000000              -0.356485823               0.218823412               0.000000000              -0.380404853               0.234436177               0.000000000              -0.404323882               0.250048941               0.000000000              -0.428242912               0.265661706               0.000000000              -0.452161941               0.281274471               0.000000000              -0.476080971               0.296887235               0.000000000              -0.500000000               0.312500000               0.000000000              -0.110585458               0.073890841               0.000000000              -0.134923867               0.092710163               0.000000000              -0.159262276               0.111529486               0.000000000              -0.183600685               0.130348808               0.000000000              -0.207939094               0.149168131               0.000000000              -0.232277503               0.167987453               0.000000000              -0.256615912               0.186806776               0.000000000              -0.280954320               0.205626098               0.000000000              -0.305292729               0.224445420               0.000000000              -0.329631138               0.243264743               0.000000000              -0.353969547               0.262084065               0.000000000              -0.378307956               0.280903388               0.000000000              -0.402646365               0.299722710               0.000000000              -0.426984773               0.318542033               0.000000000              -0.451323182               0.337361355               0.000000000              -0.475661591               0.356180678               0.000000000              -0.500000000               0.375000000               0.000000000              -0.102810390               0.084374307               0.000000000              -0.127634741               0.106444663               0.000000000              -0.152459092               0.128515018               0.000000000              -0.177283442               0.150585374               0.000000000              -0.202107793               0.172655730               0.000000000              -0.226932143               0.194726086               0.000000000              -0.251756494               0.216796442               0.000000000              -0.276580845               0.238866798               0.000000000              -0.301405195               0.260937153               0.000000000              -0.326229546               0.283007509               0.000000000              -0.351053896               0.305077865               0.000000000              -0.375878247               0.327148221               0.000000000              -0.400702598               0.349218577               0.000000000              -0.425526948               0.371288933               0.000000000              -0.450351299               0.393359288               0.000000000              -0.475175649               0.415429644               0.000000000              -0.500000000               0.437500000               0.000000000              -0.094045202               0.094045202               0.000000000              -0.119417377               0.119417377               0.000000000              -0.144789552               0.144789552               0.000000000              -0.170161727               0.170161727               0.000000000              -0.195533901               0.195533901               0.000000000              -0.220906076               0.220906076               0.000000000              -0.246278251               0.246278251               0.000000000              -0.271650426               0.271650426               0.000000000              -0.297022601               0.297022601               0.000000000              -0.322394776               0.322394776               0.000000000              -0.347766951               0.347766951               0.000000000              -0.373139126               0.373139126               0.000000000              -0.398511300               0.398511300               0.000000000              -0.423883475               0.423883475               0.000000000              -0.449255650               0.449255650               0.000000000              -0.474627825               0.474627825               0.000000000              -0.500000000               0.500000000               0.000000000              -0.084374307               0.102810390               0.000000000              -0.106444663               0.127634741               0.000000000              -0.128515018               0.152459092               0.000000000              -0.150585374               0.177283442               0.000000000              -0.172655730               0.202107793               0.000000000              -0.194726086               0.226932143               0.000000000              -0.216796442               0.251756494               0.000000000              -0.238866798               0.276580845               0.000000000              -0.260937153               0.301405195               0.000000000              -0.283007509               0.326229546               0.000000000              -0.305077865               0.351053896               0.000000000              -0.327148221               0.375878247               0.000000000              -0.349218577               0.400702598               0.000000000              -0.371288933               0.425526948               0.000000000              -0.393359288               0.450351299               0.000000000              -0.415429644               0.475175649               0.000000000              -0.437500000               0.500000000               0.000000000              -0.073890841               0.110585458               0.000000000              -0.092710163               0.134923867               0.000000000              -0.111529486               0.159262276               0.000000000              -0.130348808               0.183600685               0.000000000              -0.149168131               0.207939094               0.000000000              -0.167987453               0.232277503               0.000000000              -0.186806776               0.256615912               0.000000000              -0.205626098               0.280954320               0.000000000              -0.224445420               0.305292729               0.000000000              -0.243264743               0.329631138               0.000000000              -0.262084065               0.353969547               0.000000000              -0.280903388               0.378307956               0.000000000              -0.299722710               0.402646365               0.000000000              -0.318542033               0.426984773               0.000000000              -0.337361355               0.451323182               0.000000000              -0.356180678               0.475661591               0.000000000              -0.375000000               0.500000000               0.000000000              -0.062695766               0.117295528               0.000000000              -0.078308531               0.141214558               0.000000000              -0.093921295               0.165133587               0.000000000              -0.109534060               0.189052617               0.000000000              -0.125146824               0.212971646               0.000000000              -0.140759589               0.236890676               0.000000000              -0.156372354               0.260809705               0.000000000              -0.171985118               0.284728735               0.000000000              -0.187597883               0.308647764               0.000000000              -0.203210648               0.332566794               0.000000000              -0.218823412               0.356485823               0.000000000              -0.234436177               0.380404853               0.000000000              -0.250048941               0.404323882               0.000000000              -0.265661706               0.428242912               0.000000000              -0.281274471               0.452161941               0.000000000              -0.296887235               0.476080971               0.000000000              -0.312500000               0.500000000               0.000000000              -0.050896897               0.122875978               0.000000000              -0.063340840               0.146446229               0.000000000              -0.075784784               0.170016481               0.000000000              -0.088228728               0.193586732               0.000000000              -0.100672672               0.217156983               0.000000000              -0.113116616               0.240727235               0.000000000              -0.125560560               0.264297486               0.000000000              -0.138004504               0.287867738               0.000000000              -0.150448448               0.311437989               0.000000000              -0.162892392               0.335008240               0.000000000              -0.175336336               0.358578492               0.000000000              -0.187780280               0.382148743               0.000000000              -0.200224224               0.405718994               0.000000000              -0.212668168               0.429289246               0.000000000              -0.225112112               0.452859497               0.000000000              -0.237556056               0.476429749               0.000000000              -0.250000000               0.500000000               0.000000000              -0.038607862               0.127273065               0.000000000              -0.047913621               0.150568498               0.000000000              -0.057219379               0.173863932               0.000000000              -0.066525138               0.197159365               0.000000000              -0.075830897               0.220454798               0.000000000              -0.085136655               0.243750232               0.000000000              -0.094442414               0.267045665               0.000000000              -0.103748172               0.290341099               0.000000000              -0.113053931               0.313636532               0.000000000              -0.122359690               0.336931966               0.000000000              -0.131665448               0.360227399               0.000000000              -0.140971207               0.383522833               0.000000000              -0.150276966               0.406818266               0.000000000              -0.159582724               0.430113700               0.000000000              -0.168888483               0.453409133               0.000000000              -0.178194241               0.476704567               0.000000000              -0.187500000               0.500000000               0.000000000              -0.025947013               0.130444442               0.000000000              -0.032137825               0.153541665               0.000000000              -0.038328636               0.176638887               0.000000000              -0.044519448               0.199736109               0.000000000              -0.050710260               0.222833332               0.000000000              -0.056901071               0.245930554               0.000000000              -0.063091883               0.269027776               0.000000000              -0.069282695               0.292124999               0.000000000              -0.075473506               0.315222221               0.000000000              -0.081664318               0.338319444               0.000000000              -0.087855130               0.361416666               0.000000000              -0.094045942               0.384513888               0.000000000              -0.100236753               0.407611111               0.000000000              -0.106427565               0.430708333               0.000000000              -0.112618377               0.453805555               0.000000000              -0.118809188               0.476902778               0.000000000              -0.125000000               0.500000000               0.000000000              -0.013036280               0.132359569               0.000000000              -0.016127762               0.155337096               0.000000000              -0.019219245               0.178314623               0.000000000              -0.022310727               0.201292150               0.000000000              -0.025402210               0.224269676               0.000000000              -0.028493692               0.247247203               0.000000000              -0.031585175               0.270224730               0.000000000              -0.034676657               0.293202257               0.000000000              -0.037768140               0.316179784               0.000000000              -0.040859622               0.339157311               0.000000000              -0.043951105               0.362134838               0.000000000              -0.047042587               0.385112365               0.000000000              -0.050134070               0.408089892               0.000000000              -0.053225552               0.431067419               0.000000000              -0.056317035               0.454044946               0.000000000              -0.059408517               0.477022473               0.000000000              -0.062500000               0.500000000               0.000000000               0.000000000               0.133000000               0.000000000               0.000000000               0.155937500               0.000000000               0.000000000               0.178875000               0.000000000               0.000000000               0.201812500               0.000000000               0.000000000               0.224750000               0.000000000               0.000000000               0.247687500               0.000000000               0.000000000               0.270625000               0.000000000               0.000000000               0.293562500               0.000000000               0.000000000               0.316500000               0.000000000               0.000000000               0.339437500               0.000000000               0.000000000               0.362375000               0.000000000               0.000000000               0.385312500               0.000000000               0.000000000               0.408250000               0.000000000               0.000000000               0.431187500               0.000000000               0.000000000               0.454125000               0.000000000               0.000000000               0.477062500               0.000000000               0.000000000               0.500000000               0.000000000 </DataArray>
</Points>
<Cells>
<DataArray type="Int32"                                    Name="connectivity"                                                      NumberOfComponents=" 1" format="ascii">
         0          1         18         17          1          2         19         18          2          3         20         19          3          4         21         20          4          5         22         21          5          6         23         22          6          7         24         23          7          8         25         24          8          9         26         25          9         10         27         26         10         11         28         27         11         12         29         28         12         13         30         29         13         14         31         30         14         15         32         31         15         16         33         32         17         18         35         34         18         19         36         35         19         20         37         36         20         21         38         37         21         22         39         38         22         23         40         39         23         24         41         40         24         25         42         41         25         26         43         42         26         27         44         43         27         28         45         44         28         29         46         45         29         30         47         46         30         31         48         47         31         32         49         48         32         33         50         49         34         35         52         51         35         36         53         52         36         37         54         53         37         38         55         54         38         39         56         55         39         40         57         56         40         41         58         57         41         42         59         58         42         43         60         59         43         44         61         60         44         45         62         61         45         46         63         62         46         47         64         63         47         48         65         64         48         49         66         65         49         50         67         66         51         52         69         68         52         53         70         69         53         54         71         70         54         55         72         71         55         56         73         72         56         57         74         73         57         58         75         74         58         59         76         75         59         60         77         76         60         61         78         77         61         62         79         78         62         63         80         79         63         64         81         80         64         65         82         81         65         66         83         82         66         67         84         83         68         69         86         85         69         70         87         86         70         71         88         87         71         72         89         88         72         73         90         89         73         74         91         90         74         75         92         91         75         76         93         92         76         77         94         93         77         78         95         94         78         79         96         95         79         80         97         96         80         81         98         97         81         82         99         98         82         83        100         99         83         84        101        100         85         86        103        102         86         87        104        103         87         88        105        104         88         89        106        105         89         90        107        106         90         91        108        107         91         92        109        108         92         93        110        109         93         94        111        110         94         95        112        111         95         96        113        112         96         97        114        113         97         98        115        114         98         99        116        115         99        100        117        116        100        101        118        117        102        103        120        119        103        104        121        120        104        105        122        121        105        106        123        122        106        107        124        123        107        108        125        124        108        109        126        125        109        110        127        126        110        111        128        127        111        112        129        128        112        113        130        129        113        114        131        130        114        115        132        131        115        116        133        132        116        117        134        133        117        118        135        134        119        120        137        136        120        121        138        137        121        122        139        138        122        123        140        139        123        124        141        140        124        125        142        141        125        126        143        142        126        127        144        143        127        128        145        144        128        129        146        145        129        130        147        146        130        131        148        147        131        132        149        148        132        133        150        149        133        134        151        150        134        135        152        151        136        137        154        153        137        138        155        154        138        139        156        155        139        140        157        156        140        141        158        157        141        142        159        158        142        143        160        159        143        144        161        160        144        145        162        161        145        146        163        162        146        147        164        163        147        148        165        164        148        149        166        165        149        150        167        166        150        151        168        167        151        152        169        168        153        154        171        170        154        155        172        171        155        156        173        172        156        157        174        173        157        158        175        174        158        159        176        175        159        160        177        176        160        161        178        177        161        162        179        178        162        163        180        179        163        164        181        180        164        165        182        181        165        166        183        182        166        167        184        183        167        168        185        184        168        169        186        185        170        171        188        187        171        172        189        188        172        173        190        189        173        174        191        190        174        175        192        191        175        176        193        192        176        177        194        193        177        178        195        194        178        179        196        195        179        180        197        196        180        181        198        197        181        182        199        198        182        183        200        199        183        184        201        200        184        185        202        201        185        186        203        202        187        188        205        204        188        189        206        205        189        190        207        206        190        191        208        207        191        192        209        208        192        193        210        209        193        194        211        210        194        195        212        211        195        196        213        212        196        197        214        213        197        198        215        214        198        199        216        215        199        200        217        216        200        201        218        217        201        202        219        218        202        203        220        219        204        205        222        221        205        206        223        222        206        207        224        223        207        208        225        224        208        209        226        225        209        210        227        226        210        211        228        227        211        212        229        228        212        213        230        229        213        214        231        230        214        215        232        231        215        216        233        232        216        217        234        233        217        218        235        234        218        219        236        235        219        220        237        236        221        222        239        238        222        223        240        239        223        224        241        240        224        225        242        241        225        226        243        242        226        227        244        243        227        228        245        244        228        229        246        245        229        230        247        246        230        231        248        247        231        232        249        248        232        233        250        249        233        234        251        250        234        235        252        251        235        236        253        252        236        237        254        253        238        239        256        255        239        240        257        256        240        241        258        257        241        242        259        258        242        243        260        259        243        244        261        260        244        245        262        261        245        246        263        262        246        247        264        263        247        248        265        264        248        249        266        265        249        250        267        266        250        251        268        267        251        252        269        268        252        253        270        269        253        254        271        270        255        256        273        272        256        257        274        273        257        258        275        274        258        259        276        275        259        260        277        276        260        261        278        277        261        262        279        278        262        263        280        279        263        264        281        280        264        265        282        281        265        266        283        282        266        267        284        283        267        268        285        284        268        269        286        285        269        270        287        286        270        271        288        287        306        307          1          0        307        308          2          1        308        309          3          2        309        310          4          3        310        311          5          4        311        312          6          5        312        313          7          6        313        314          8          7        314        315          9          8        315        316         10          9        316        317         11         10        317        318         12         11        318        319         13         12        319        320         14         13        320        321         15         14        321        322         16         15        323        324        307        306        324        325        308        307        325        326        309        308        326        327        310        309        327        328        311        310        328        329        312        311        329        330        313        312        330        331        314        313        331        332        315        314        332        333        316        315        333        334        317        316        334        335        318        317        335        336        319        318        336        337        320        319        337        338        321        320        338        339        322        321        340        341        324        323        341        342        325        324        342        343        326        325        343        344        327        326        344        345        328        327        345        346        329        328        346        347        330        329        347        348        331        330        348        349        332        331        349        350        333        332        350        351        334        333        351        352        335        334        352        353        336        335        353        354        337        336        354        355        338        337        355        356        339        338        357        358        341        340        358        359        342        341        359        360        343        342        360        361        344        343        361        362        345        344        362        363        346        345        363        364        347        346        364        365        348        347        365        366        349        348        366        367        350        349        367        368        351        350        368        369        352        351        369        370        353        352        370        371        354        353        371        372        355        354        372        373        356        355        374        375        358        357        375        376        359        358        376        377        360        359        377        378        361        360        378        379        362        361        379        380        363        362        380        381        364        363        381        382        365        364        382        383        366        365        383        384        367        366        384        385        368        367        385        386        369        368        386        387        370        369        387        388        371        370        388        389        372        371        389        390        373        372        391        392        375        374        392        393        376        375        393        394        377        376        394        395        378        377        395        396        379        378        396        397        380        379        397        398        381        380        398        399        382        381        399        400        383        382        400        401        384        383        401        402        385        384        402        403        386        385        403        404        387        386        404        405        388        387        405        406        389        388        406        407        390        389        408        409        392        391        409        410        393        392        410        411        394        393        411        412        395        394        412        413        396        395        413        414        397        396        414        415        398        397        415        416        399        398        416        417        400        399        417        418        401        400        418        419        402        401        419        420        403        402        420        421        404        403        421        422        405        404        422        423        406        405        423        424        407        406        425        426        409        408        426        427        410        409        427        428        411        410        428        429        412        411        429        430        413        412        430        431        414        413        431        432        415        414        432        433        416        415        433        434        417        416        434        435        418        417        435        436        419        418        436        437        420        419        437        438        421        420        438        439        422        421        439        440        423        422        440        441        424        423        442        443        426        425        443        444        427        426        444        445        428        427        445        446        429        428        446        447        430        429        447        448        431        430        448        449        432        431        449        450        433        432        450        451        434        433        451        452        435        434        452        453        436        435        453        454        437        436        454        455        438        437        455        456        439        438        456        457        440        439        457        458        441        440        459        460        443        442        460        461        444        443        461        462        445        444        462        463        446        445        463        464        447        446        464        465        448        447        465        466        449        448        466        467        450        449        467        468        451        450        468        469        452        451        469        470        453        452        470        471        454        453        471        472        455        454        472        473        456        455        473        474        457        456        474        475        458        457        476        477        460        459        477        478        461        460        478        479        462        461        479        480        463        462        480        481        464        463        481        482        465        464        482        483        466        465        483        484        467        466        484        485        468        467        485        486        469        468        486        487        470        469        487        488        471        470        488        489        472        471        489        490        473        472        490        491        474        473        491        492        475        474        493        494        477        476        494        495        478        477        495        496        479        478        496        497        480        479        497        498        481        480        498        499        482        481        499        500        483        482        500        501        484        483        501        502        485        484        502        503        486        485        503        504        487        486        504        505        488        487        505        506        489        488        506        507        490        489        507        508        491        490        508        509        492        491        510        511        494        493        511        512        495        494        512        513        496        495        513        514        497        496        514        515        498        497        515        516        499        498        516        517        500        499        517        518        501        500        518        519        502        501        519        520        503        502        520        521        504        503        521        522        505        504        522        523        506        505        523        524        507        506        524        525        508        507        525        526        509        508        527        528        511        510        528        529        512        511        529        530        513        512        530        531        514        513        531        532        515        514        532        533        516        515        533        534        517        516        534        535        518        517        535        536        519        518        536        537        520        519        537        538        521        520        538        539        522        521        539        540        523        522        540        541        524        523        541        542        525        524        542        543        526        525        544        545        528        527        545        546        529        528        546        547        530        529        547        548        531        530        548        549        532        531        549        550        533        532        550        551        534        533        551        552        535        534        552        553        536        535        553        554        537        536        554        555        538        537        555        556        539        538        556        557        540        539        557        558        541        540        558        559        542        541        559        560        543        542        561        562        545        544        562        563        546        545        563        564        547        546        564        565        548        547        565        566        549        548        566        567        550        549        567        568        551        550        568        569        552        551        569        570        553        552        570        571        554        553        571        572        555        554        572        573        556        555        573        574        557        556        574        575        558        557        575        576        559        558        576        577        560        559        578        579        596        595        579        580        597        596        580        581        598        597        581        582        599        598        582        583        600        599        583        584        601        600        584        585        602        601        585        586        603        602        586        587        604        603        587        588        605        604        588        589        606        605        589        590        607        606        590        591        608        607        591        592        609        608        592        593        610        609        593        594        611        610        595        596        613        612        596        597        614        613        597        598        615        614        598        599        616        615        599        600        617        616        600        601        618        617        601        602        619        618        602        603        620        619        603        604        621        620        604        605        622        621        605        606        623        622        606        607        624        623        607        608        625        624        608        609        626        625        609        610        627        626        610        611        628        627        612        613        630        629        613        614        631        630        614        615        632        631        615        616        633        632        616        617        634        633        617        618        635        634        618        619        636        635        619        620        637        636        620        621        638        637        621        622        639        638        622        623        640        639        623        624        641        640        624        625        642        641        625        626        643        642        626        627        644        643        627        628        645        644        629        630        647        646        630        631        648        647        631        632        649        648        632        633        650        649        633        634        651        650        634        635        652        651        635        636        653        652        636        637        654        653        637        638        655        654        638        639        656        655        639        640        657        656        640        641        658        657        641        642        659        658        642        643        660        659        643        644        661        660        644        645        662        661        646        647        664        663        647        648        665        664        648        649        666        665        649        650        667        666        650        651        668        667        651        652        669        668        652        653        670        669        653        654        671        670        654        655        672        671        655        656        673        672        656        657        674        673        657        658        675        674        658        659        676        675        659        660        677        676        660        661        678        677        661        662        679        678        663        664        681        680        664        665        682        681        665        666        683        682        666        667        684        683        667        668        685        684        668        669        686        685        669        670        687        686        670        671        688        687        671        672        689        688        672        673        690        689        673        674        691        690        674        675        692        691        675        676        693        692        676        677        694        693        677        678        695        694        678        679        696        695        680        681        698        697        681        682        699        698        682        683        700        699        683        684        701        700        684        685        702        701        685        686        703        702        686        687        704        703        687        688        705        704        688        689        706        705        689        690        707        706        690        691        708        707        691        692        709        708        692        693        710        709        693        694        711        710        694        695        712        711        695        696        713        712        697        698        715        714        698        699        716        715        699        700        717        716        700        701        718        717        701        702        719        718        702        703        720        719        703        704        721        720        704        705        722        721        705        706        723        722        706        707        724        723        707        708        725        724        708        709        726        725        709        710        727        726        710        711        728        727        711        712        729        728        712        713        730        729        714        715        732        731        715        716        733        732        716        717        734        733        717        718        735        734        718        719        736        735        719        720        737        736        720        721        738        737        721        722        739        738        722        723        740        739        723        724        741        740        724        725        742        741        725        726        743        742        726        727        744        743        727        728        745        744        728        729        746        745        729        730        747        746        731        732        749        748        732        733        750        749        733        734        751        750        734        735        752        751        735        736        753        752        736        737        754        753        737        738        755        754        738        739        756        755        739        740        757        756        740        741        758        757        741        742        759        758        742        743        760        759        743        744        761        760        744        745        762        761        745        746        763        762        746        747        764        763        748        749        766        765        749        750        767        766        750        751        768        767        751        752        769        768        752        753        770        769        753        754        771        770        754        755        772        771        755        756        773        772        756        757        774        773        757        758        775        774        758        759        776        775        759        760        777        776        760        761        778        777        761        762        779        778        762        763        780        779        763        764        781        780        765        766        783        782        766        767        784        783        767        768        785        784        768        769        786        785        769        770        787        786        770        771        788        787        771        772        789        788        772        773        790        789        773        774        791        790        774        775        792        791        775        776        793        792        776        777        794        793        777        778        795        794        778        779        796        795        779        780        797        796        780        781        798        797        782        783        800        799        783        784        801        800        784        785        802        801        785        786        803        802        786        787        804        803        787        788        805        804        788        789        806        805        789        790        807        806        790        791        808        807        791        792        809        808        792        793        810        809        793        794        811        810        794        795        812        811        795        796        813        812        796        797        814        813        797        798        815        814        799        800        817        816        800        801        818        817        801        802        819        818        802        803        820        819        803        804        821        820        804        805        822        821        805        806        823        822        806        807        824        823        807        808        825        824        808        809        826        825        809        810        827        826        810        811        828        827        811        812        829        828        812        813        830        829        813        814        831        830        814        815        832        831        816        817        834        833        817        818        835        834        818        819        836        835        819        820        837        836        820        821        838        837        821        822        839        838        822        823        840        839        823        824        841        840        824        825        842        841        825        826        843        842        826        827        844        843        827        828        845        844        828        829        846        845        829        830        847        846        830        831        848        847        831        832        849        848        833        834        562        561        834        835        563        562        835        836        564        563        836        837        565        564        837        838        566        565        838        839        567        566        839        840        568        567        840        841        569        568        841        842        570        569        842        843        571        570        843        844        572        571        844        845        573        572        845        846        574        573        846        847        575        574        847        848        576        575        848        849        577        576        884        885        579        578        885        886        580        579        886        887        581        580        887        888        582        581        888        889        583        582        889        890        584        583        890        891        585        584        891        892        586        585        892        893        587        586        893        894        588        587        894        895        589        588        895        896        590        589        896        897        591        590        897        898        592        591        898        899        593        592        899        900        594        593        901        902        885        884        902        903        886        885        903        904        887        886        904        905        888        887        905        906        889        888        906        907        890        889        907        908        891        890        908        909        892        891        909        910        893        892        910        911        894        893        911        912        895        894        912        913        896        895        913        914        897        896        914        915        898        897        915        916        899        898        916        917        900        899        918        919        902        901        919        920        903        902        920        921        904        903        921        922        905        904        922        923        906        905        923        924        907        906        924        925        908        907        925        926        909        908        926        927        910        909        927        928        911        910        928        929        912        911        929        930        913        912        930        931        914        913        931        932        915        914        932        933        916        915        933        934        917        916        935        936        919        918        936        937        920        919        937        938        921        920        938        939        922        921        939        940        923        922        940        941        924        923        941        942        925        924        942        943        926        925        943        944        927        926        944        945        928        927        945        946        929        928        946        947        930        929        947        948        931        930        948        949        932        931        949        950        933        932        950        951        934        933        952        953        936        935        953        954        937        936        954        955        938        937        955        956        939        938        956        957        940        939        957        958        941        940        958        959        942        941        959        960        943        942        960        961        944        943        961        962        945        944        962        963        946        945        963        964        947        946        964        965        948        947        965        966        949        948        966        967        950        949        967        968        951        950        969        970        953        952        970        971        954        953        971        972        955        954        972        973        956        955        973        974        957        956        974        975        958        957        975        976        959        958        976        977        960        959        977        978        961        960        978        979        962        961        979        980        963        962        980        981        964        963        981        982        965        964        982        983        966        965        983        984        967        966        984        985        968        967        986        987        970        969        987        988        971        970        988        989        972        971        989        990        973        972        990        991        974        973        991        992        975        974        992        993        976        975        993        994        977        976        994        995        978        977        995        996        979        978        996        997        980        979        997        998        981        980        998        999        982        981        999       1000        983        982       1000       1001        984        983       1001       1002        985        984       1003       1004        987        986       1004       1005        988        987       1005       1006        989        988       1006       1007        990        989       1007       1008        991        990       1008       1009        992        991       1009       1010        993        992       1010       1011        994        993       1011       1012        995        994       1012       1013        996        995       1013       1014        997        996       1014       1015        998        997       1015       1016        999        998       1016       1017       1000        999       1017       1018       1001       1000       1018       1019       1002       1001       1020       1021       1004       1003       1021       1022       1005       1004       1022       1023       1006       1005       1023       1024       1007       1006       1024       1025       1008       1007       1025       1026       1009       1008       1026       1027       1010       1009       1027       1028       1011       1010       1028       1029       1012       1011       1029       1030       1013       1012       1030       1031       1014       1013       1031       1032       1015       1014       1032       1033       1016       1015       1033       1034       1017       1016       1034       1035       1018       1017       1035       1036       1019       1018       1037       1038       1021       1020       1038       1039       1022       1021       1039       1040       1023       1022       1040       1041       1024       1023       1041       1042       1025       1024       1042       1043       1026       1025       1043       1044       1027       1026       1044       1045       1028       1027       1045       1046       1029       1028       1046       1047       1030       1029       1047       1048       1031       1030       1048       1049       1032       1031       1049       1050       1033       1032       1050       1051       1034       1033       1051       1052       1035       1034       1052       1053       1036       1035       1054       1055       1038       1037       1055       1056       1039       1038       1056       1057       1040       1039       1057       1058       1041       1040       1058       1059       1042       1041       1059       1060       1043       1042       1060       1061       1044       1043       1061       1062       1045       1044       1062       1063       1046       1045       1063       1064       1047       1046       1064       1065       1048       1047       1065       1066       1049       1048       1066       1067       1050       1049       1067       1068       1051       1050       1068       1069       1052       1051       1069       1070       1053       1052       1071       1072       1055       1054       1072       1073       1056       1055       1073       1074       1057       1056       1074       1075       1058       1057       1075       1076       1059       1058       1076       1077       1060       1059       1077       1078       1061       1060       1078       1079       1062       1061       1079       1080       1063       1062       1080       1081       1064       1063       1081       1082       1065       1064       1082       1083       1066       1065       1083       1084       1067       1066       1084       1085       1068       1067       1085       1086       1069       1068       1086       1087       1070       1069       1088       1089       1072       1071       1089       1090       1073       1072       1090       1091       1074       1073       1091       1092       1075       1074       1092       1093       1076       1075       1093       1094       1077       1076       1094       1095       1078       1077       1095       1096       1079       1078       1096       1097       1080       1079       1097       1098       1081       1080       1098       1099       1082       1081       1099       1100       1083       1082       1100       1101       1084       1083       1101       1102       1085       1084       1102       1103       1086       1085       1103       1104       1087       1086       1105       1106       1089       1088       1106       1107       1090       1089       1107       1108       1091       1090       1108       1109       1092       1091       1109       1110       1093       1092       1110       1111       1094       1093       1111       1112       1095       1094       1112       1113       1096       1095       1113       1114       1097       1096       1114       1115       1098       1097       1115       1116       1099       1098       1116       1117       1100       1099       1117       1118       1101       1100       1118       1119       1102       1101       1119       1120       1103       1102       1120       1121       1104       1103       1122       1123       1106       1105       1123       1124       1107       1106       1124       1125       1108       1107       1125       1126       1109       1108       1126       1127       1110       1109       1127       1128       1111       1110       1128       1129       1112       1111       1129       1130       1113       1112       1130       1131       1114       1113       1131       1132       1115       1114       1132       1133       1116       1115       1133       1134       1117       1116       1134       1135       1118       1117       1135       1136       1119       1118       1136       1137       1120       1119       1137       1138       1121       1120        272        273       1123       1122        273        274       1124       1123        274        275       1125       1124        275        276       1126       1125        276        277       1127       1126        277        278       1128       1127        278        279       1129       1128        279        280       1130       1129        280        281       1131       1130        281        282       1132       1131        282        283       1133       1132        283        284       1134       1133        284        285       1135       1134        285        286       1136       1135        286        287       1137       1136        287        288       1138       1137 </DataArray>
<DataArray type="Int32"                                    Name="offsets"                                                      NumberOfComponents=" 1" format="ascii">
         4          8         12         16         20         24         28         32         36         40         44         48         52         56         60         64         68         72         76         80         84         88         92         96        100        104        108        112        116        120        124        128        132        136        140        144        148        152        156        160        164        168        172        176        180        184        188        192        196        200        204        208        212        216        220        224        228        232        236        240        244        248        252        256        260        264        268        272        276        280        284        288        292        296        300        304        308        312        316        320        324        328        332        336        340        344        348        352        356        360        364        368        372        376        380        384        388        392        396        400        404        408        412        416        420        424        428        432        436        440        444        448        452        456        460        464        468        472        476        480        484        488        492        496        500        504        508        512        516        520        524        528        532        536        540        544        548        552        556        560        564        568        572        576        580        584        588        592        596        600        604        608        612        616        620        624        628        632        636        640        644        648        652        656        660        664        668        672        676        680        684        688        692        696        700        704        708        712        716        720        724        728        732        736        740        744        748        752        756        760        764        768        772        776        780        784        788        792        796        800        804        808        812        816        820        824        828        832        836        840        844        848        852        856        860        864        868        872        876        880        884        888        892        896        900        904        908        912        916        920        924        928        932        936        940        944        948        952        956        960        964        968        972        976        980        984        988        992        996       1000       1004       1008       1012       1016       1020       1024       1028       1032       1036       1040       1044       1048       1052       1056       1060       1064       1068       1072       1076       1080       1084       1088       1092       1096       1100       1104       1108       1112       1116       1120       1124       1128       1132       1136       1140       1144       1148       1152       1156       1160       1164       1168       1172       1176       1180       1184       1188       1192       1196       1200       1204       1208       1212       1216       1220       1224       1228       1232       1236       1240       1244       1248       1252       1256       1260       1264       1268       1272       1276       1280       1284       1288       1292       1296       1300       1304       1308       1312       1316       1320       1324       1328       1332       1336       1340       1344       1348       1352       1356       1360       1364       1368       1372       1376       1380       1384       1388       1392       1396       1400       1404       1408       1412       1416       1420       1424       1428       1432       1436       1440       1444       1448       1452       1456       1460       1464       1468       1472       1476       1480       1484       1488       1492       1496       1500       1504       1508       1512       1516       1520       1524       1528       1532       1536       1540       1544       1548       1552       1556       1560       1564       1568       1572       1576       1580       1584       1588       1592       1596       1600       1604       1608       1612       1616       1620       1624       1628       1632       1636       1640       1644       1648       1652       1656       1660       1664       1668       1672       1676       1680       1684       1688       1692       1696       1700       1704       1708       1712       1716       1720       1724       1728       1732       1736       1740       1744       1748       1752       1756       1760       1764       1768       1772       1776       1780       1784       1788       1792       1796       1800       1804       1808       1812       1816       1820       1824       1828       1832       1836       1840       1844       1848       1852       1856       1860       1864       1868       1872       1876       1880       1884       1888       1892       1896       1900       1904       1908       1912       1916       1920       1924       1928       1932       1936       1940       1944       1948       1952       1956       1960       1964       1968       1972       1976       1980       1984       1988       1992       1996       2000       2004       2008       2012       2016       2020       2024       2028       2032       2036       2040       2044       2048       2052       2056       2060       2064       2068       2072       2076       2080       2084       2088       2092       2096       2100       2104       2108       2112       2116       2120       2124       2128       2132       2136       2140       2144       2148       2152       2156       2160       2164       2168       2172       2176       2180       2184       2188       2192       2196       2200       2204       2208       2212       2216       2220       2224       2228       2232       2236       2240       2244       2248       2252       2256       2260       2264       2268       2272       2276       2280       2284       2288       2292       2296       2300       2304       2308       2312       2316       2320       2324       2328       2332       2336       2340       2344       2348       2352       2356       2360       2364       2368       2372       2376       2380       2384       2388       2392       2396       2400       2404       2408       2412       2416       2420       2424       2428       2432       2436       2440       2444       2448       2452       2456       2460       2464       2468       2472       2476       2480       2484       2488       2492       2496       2500       2504       2508       2512       2516       2520       2524       2528       2532       2536       2540       2544       2548       2552       2556       2560       2564       2568       2572       2576       2580       2584       2588       2592       2596       2600       2604       2608       2612       2616       2620       2624       2628       2632       2636       2640       2644       2648       2652       2656       2660       2664       2668       2672       2676       2680       2684       2688       2692       2696       2700       2704       2708       2712       2716       2720       2724       2728       2732       2736       2740       2744       2748       2752       2756       2760       2764       2768       2772       2776       2780       2784       2788       2792       2796       2800       2804       2808       2812       2816       2820       2824       2828       2832       2836       2840       2844       2848       2852       2856       2860       2864       2868       2872       2876       2880       2884       2888       2892       2896       2900       2904       2908       2912       2916       2920       2924       2928       2932       2936       2940       2944       2948       2952       2956       2960       2964       2968       2972       2976       2980       2984       2988       2992       2996       3000       3004       3008       3012       3016       3020       3024       3028       3032       3036       3040       3044       3048       3052       3056       3060       3064       3068       3072       3076       3080       3084       3088       3092       3096       3100       3104       3108       3112       3116       3120       3124       3128       3132       3136       3140       3144       3148       3152       3156       3160       3164       3168       3172       3176       3180       3184       3188       3192       3196       3200       3204       3208       3212       3216       3220       3224       3228       3232       3236       3240       3244       3248       3252       3256       3260       3264       3268       3272       3276       3280       3284       3288       3292       3296       3300       3304       3308       3312       3316       3320       3324       3328       3332       3336       3340       3344       3348       3352       3356       3360       3364       3368       3372       3376       3380       3384       3388       3392       3396       3400       3404       3408       3412       3416       3420       3424       3428       3432       3436       3440       3444       3448       3452       3456       3460       3464       3468       3472       3476       3480       3484       3488       3492       3496       3500       3504       3508       3512       3516       3520       3524       3528       3532       3536       3540       3544       3548       3552       3556       3560       3564       3568       3572       3576       3580       3584       3588       3592       3596       3600       3604       3608       3612       3616       3620       3624       3628       3632       3636       3640       3644       3648       3652       3656       3660       3664       3668       3672       3676       3680       3684       3688       3692       3696       3700       3704       3708       3712       3716       3720       3724       3728       3732       3736       3740       3744       3748       3752       3756       3760       3764       3768       3772       3776       3780       3784       3788       3792       3796       3800       3804       3808       3812       3816       3820       3824       3828       3832       3836       3840       3844       3848       3852       3856       3860       3864       3868       3872       3876       3880       3884       3888       3892       3896       3900       3904       3908       3912       3916       3920       3924       3928       3932       3936       3940       3944       3948       3952       3956       3960       3964       3968       3972       3976       3980       3984       3988       3992       3996       4000       4004       4008       4012       4016       4020       4024       4028       4032       4036       4040       4044       4048       4052       4056       4060       4064       4068       4072       4076       4080       4084       4088       4092       4096 </DataArray>
<DataArray type="UInt8"                                    Name="types"                                                      NumberOfComponents=" 1" format="ascii">
         9          9          9          9          9          9          9          9          9          9          9          9          9          9          9          9          9          9          9          9          9          9          9          9          9          9          9          9          9          9          9          9          9          9          9          9          9          9          9          9          9          9          9          9          9          9          9          9          9          9          9          9          9          9          9          9          9          9          9          9          9          9          9          9          9          9          9          9          9          9          9          9          9          9          9          9          9          9          9          9          9          9          9          9          9          9          9          9          9          9          9          9          9          9          9          9          9          9          9          9          9          9          9          9          9          9          9          9          9          9          9          9          9          9          9          9          9          9          9          9          9          9          9          9          9          9          9          9          9          9          9          9          9          9          9          9          9          9          9          9          9          9          9          9          9          9          9          9          9          9          9          9          9          9          9          9          9          9          9          9          9          9          9          9          9          9          9          9          9          9          9          9          9          9          9          9          9          9          9          9          9          9          9          9          9          9          9          9          9          9          9          9          9          9          9          9          9          9          9          9          9          9          9          9          9          9          9          9          9          9          9          9          9          9          9          9          9          9          9          9          9          9          9          9          9          9          9          9          9          9          9          9          9          9          9          9          9          9          9          9          9          9          9          9          9          9          9          9          9          9          9          9          9          9          9          9          9          9          9          9          9          9          9          9          9          9          9          9          9          9          9          9          9          9          9          9          9          9          9          9          9          9          9          9          9          9          9          9          9          9          9          9          9          9          9          9          9          9          9          9          9          9          9          9          9          9          9          9          9          9          9          9          9          9          9          9          9          9          9          9          9          9          9          9          9          9          9          9          9          9          9          9          9          9          9          9          9          9          9          9          9          9          9          9          9          9          9          9          9          9          9          9          9          9          9          9          9          9          9          9          9          9          9          9          9          9          9          9          9          9          9          9          9          9          9          9          9          9          9          9          9          9          9          9          9          9          9          9          9          9          9          9          9          9          9          9          9          9          9          9          9          9          9          9          9          9          9          9          9          9          9          9          9          9          9          9          9          9          9          9          9          9          9          9          9          9          9          9          9          9          9          9          9          9          9          9          9          9          9          9          9          9          9          9          9          9          9          9          9          9          9          9          9          9          9          9          9          9          9          9          9          9          9          9          9          9          9          9          9          9          9          9          9          9          9          9          9          9          9          9          9          9          9          9          9          9          9          9          9          9          9          9          9          9          9          9          9          9          9          9          9          9          9          9          9          9          9          9          9          9          9          9          9          9          9          9          9          9          9          9          9          9          9          9          9          9          9          9          9          9          9          9          9          9          9          9          9          9          9          9          9          9          9          9          9          9          9          9          9          9          9          9          9          9          9          9          9          9          9          9          9          9          9          9          9          9          9          9          9          9          9          9          9          9          9          9          9          9          9          9          9          9          9          9          9          9          9          9          9          9          9          9          9          9          9          9          9          9          9          9          9          9          9          9          9          9          9          9          9          9          9          9          9          9          9          9          9          9          9          9          9          9          9          9          9          9          9          9          9          9          9          9          9          9          9          9          9          9          9          9          9          9          9          9          9          9          9          9          9          9          9          9          9          9          9          9          9          9          9          9          9          9          9          9          9          9          9          9          9          9          9          9          9          9          9          9          9          9          9          9          9          9          9          9          9          9          9          9          9          9          9          9          9          9          9          9          9          9          9          9          9          9          9          9          9          9          9          9          9          9          9          9          9          9          9          9          9          9          9          9          9          9          9          9          9          9          9          9          9          9          9          9          9          9          9          9          9          9          9          9          9          9          9          9          9          9          9          9          9          9          9          9          9          9          9          9          9          9          9          9          9          9          9          9          9          9          9          9          9          9          9          9          9          9          9          9          9          9          9          9          9          9          9          9          9          9          9          9          9          9          9          9          9          9          9          9          9          9          9          9          9          9          9          9          9          9          9          9          9          9          9          9          9          9          9          9          9          9          9          9          9          9          9          9          9          9          9          9          9          9          9          9          9          9          9          9          9          9          9          9          9          9          9          9          9          9          9          9          9          9          9          9          9          9          9          9          9          9          9          9          9          9          9          9          9          9          9          9          9          9          9          9          9          9          9          9          9          9          9          9          9          9          9          9          9          9          9          9          9          9          9          9          9          9          9          9          9          9          9          9          9          9          9          9          9          9          9          9          9          9          9          9          9          9          9          9          9          9          9          9          9          9          9          9          9          9          9          9          9          9          9          9          9          9          9          9          9          9          9          9          9          9          9          9          9          9          9          9          9          9          9          9          9          9          9          9          9          9          9          9          9          9          9          9          9          9          9          9          9          9          9          9          9          9          9          9          9          9          9          9          9          9          9          9          9          9          9          9          9          9          9          9          9          9          9          9          9          9          9          9          9          9          9          9          9          9          9          9          9          9          9          9          9          9          9          9          9          9          9          9          9          9          9          9 </DataArray>
</Cells>
<CellData>
<DataArray type="Int32"                                    Name="material"                                                      NumberOfComponents=" 1" format="ascii">
         1          1          1          1          1          1          1          1          1          1          1          1          1          1          1          1          1          1          1          1          1          1          1          1          1          1          1          1          1          1          1          1          1          1          1          1          1          1          1          1          1          1          1          1          1          1          1          1          1          1          1          1          1          1          1          1          1          1          1          1          1          1          1          1          1          1          1          1          1          1          1          1          1          1          1          1          1          1          1          1          1          1          1          1          1          1          1          1          1          1          1          1          1          1          1          1          1          1          1          1          1          1          1          1          1          1          1          1          1          1          1          1          1          1          1          1          1          1          1          1          1          1          1          1          1          1          1          1          1          1          1          1          1          1          1          1          1          1          1          1          1          1          1          1          1          1          1          1          1          1          1          1          1          1          1          1          1          1          1          1          1          1          1          1          1          1          1          1          1          1          1          1          1          1          1          1          1          1          1          1          1          1          1          1          1          1          1          1          1          1          1          1          1          1          1          1          1          1          1          1          1          1          1          1          1          1          1          1          1          1          1          1          1          1          1          1          1          1          1          1          1          1          1          1          1          1          1          1          1          1          1          1          1          1          1          1          1          1          1          1          1          1          1          1          1          1          1          1          1          1          1          1          1          1          1          1          1          1          1          1          1          1          1          1          1          1          1          1          1          1          1          1          1          1          1          1          1          1          1          1          1          1          1          1          1          1          1          1          1          1          1          1          1          1          1          1          1          1          1          1          1          1          1          1          1          1          1          1          1          1          1          1          1          1          1          1          1          1          1          1          1          1          1          1          1          1          1          1          1          1          1          1          1          1          1          1          1          1          1          1          1          1          1          1          1          1          1          1          1          1          1          1          1          1          1          1          1          1          1          1          1          1          1          1          1          1          1          1          1          1          1          1          1          1          1          1          1          1          1          1          1          1          1          1          1          1          1          1          1          1          1          1          1          1          1          1          1          1          1          1          1          1          1          1          1          1          1          1          1          1          1          1          1          1          1          1          1          1          1          1          1          1          1          1          1          1          1          1          1          1          1          1          1          1          1          1          1          1          1          1          1          1          1          1          1          1          1          1          1          1          1          1          1          1          1          1          1          1          1          1          1          1          1          1          1          1          1          1          1          1          1          1          1          1          1          1          1          1          1          1          1          1          1          1          1          1          1          1          1          1          1          1          1          1          1          1          1          1          1          1          1          1          1          1          1          1          1          1          1          1          1          1          1          1          1          1          1          1          1          1          1          1          1          1          1          1          1          1          1          1          1          1          1          1          1          1          1          1          1          1          1          1          1          1          1          1          1          1          1          1          1          1          1          1          1          1          1          1          1          1          1          1          1          1          1          1          1          1          1          1          1          1          1          1          1          1          1          1          1          1          1          1          1          1          1          1          1          1          1          1          1          1          1          1          1          1          1          1          1          1          1          1          1          1          1          1          1          1          1          1          1          1          1          1          1          1          1          1          1          1          1          1          1          1          1          1          1          1          1          1          1          1          1          1          1          1          1          1          1          1          1          1          1          1          1          1          1          1          1          1          1          1          1          1          1          1          1          1          1          1          1          1          1          1          1          1          1          1          1          1          1          1          1          1          1          1          1          1          1          1          1          1          1          1          1          1          1          1          1          1          1          1          1          1          1          1          1          1          1          1          1          1          1          1          1          1          1          1          1          1          1          1          1          1          1          1          1          1          1          1          1          1          1          1          1          1          1          1          1          1          1          1          1          1          1          1          1          1          1          1          1          1          1          1          1          1          1          1          1          1          1          1          1          1          1          1          1          1          1          1          1          1          1          1          1          1          1          1          1          1          1          1          1          1          1          1          1          1          1          1          1          1          1          1          1          1          1          1          1          1          1          1          1          1          1          1          1          1          1          1          1          1          1          1          1          1          1          1          1          1          1          1          1          1          1          1          1          1          1          1          1          1          1          1          1          1          1          1          1          1          1          1          1          1          1          1          1          1          1          1          1          1          1          1          1          1          1          1          1          1          1          1          1          1          1          1          1          1          1          1          1          1          1          1          1          1          1          1          1          1          1          1          1          1          1          1          1          1          1          1          1          1          1          1          1          1          1          1          1          1          1          1          1          1          1          1          1          1          1          1          1          1          1          1          1          1          1          1          1          1          1          1          1          1          1          1          1          1          1          1          1          1          1          1          1          1          1          1          1          1          1          1          1          1          1          1          1          1          1          1          1          1          1          1          1          1          1          1          1          1          1          1          1          1          1          1          1          1          1          1          1          1          1          1          1          1          1          1          1          1          1          1          1          1          1          1          1          1          1          1          1          1          1          1          1          1          1          1          1          1          1          1          1          1          1          1          1          1          1          1          1          1          1          1          1          1          1          1          1          1          1          1          1          1          1          1          1          1          1          1          1          1          1          1 </DataArray>
</CellData>
<PointData>
<DataArray type="Float64"                                    Name="u"                                                      NumberOfComponents=" 3" format="ascii">
             -0.000688484               0.000000000               0.999999984              -0.000738013               0.000000000               0.999999984              -0.000759393               0.000000000               0.999999984              -0.000771198              -0.000000000               0.999999984              -0.000780296               0.000000000               0.999999984              -0.000789396              -0.000000000               0.999999984              -0.000799464               0.000000000               0.999999984              -0.000810703               0.000000000               0.999999984              -0.000823113               0.000000000               0.999999984              -0.000836425              -0.000000000               0.999999984              -0.000850335               0.000000000               0.999999984              -0.000864579               0.000000000               0.999999984              -0.000878996               0.000000000               0.999999984              -0.000893401              -0.000000000               0.999999984              -0.000907400               0.000000000               0.999999984              -0.000920541              -0.000000000               0.999999984              -0.000932158               0.000000000               0.999999984              -0.000684587               0.000128278               0.999999984              -0.000730464               0.000104615               0.999999984              -0.000749593               0.000094570               0.999999984              -0.000759921               0.000091241               0.999999984              -0.000768022               0.000091573               0.999999984              -0.000776432               0.000093761               0.999999984              -0.000785963               0.000096787               0.999999984              -0.000796723               0.000100163               0.999999984              -0.000808545               0.000103418               0.999999984              -0.000821165               0.000106052               0.999999984              -0.000834245               0.000107786               0.999999984              -0.000847554               0.000108675               0.999999984              -0.000860898               0.000108549               0.999999984              -0.000873953               0.000106745               0.999999984              -0.000886344               0.000102880               0.999999984              -0.000897618               0.000096066               0.999999984              -0.000907278               0.000085171               0.999999984              -0.000673300               0.000255268               0.999999984              -0.000708471               0.000208608               0.999999984              -0.000721096               0.000189515               0.999999984              -0.000727528               0.000183824               0.999999984              -0.000733288               0.000185103               0.999999984              -0.000740028               0.000189835               0.999999984              -0.000748191               0.000196053               0.999999984              -0.000757536               0.000202759               0.999999984              -0.000767661               0.000209195               0.999999984              -0.000778284               0.000214483               0.999999984              -0.000789107               0.000218100               0.999999984              -0.000799885               0.000220002               0.999999984              -0.000810171               0.000219651               0.999999984              -0.000819597               0.000216129               0.999999984              -0.000827801               0.000208745               0.999999984              -0.000834380               0.000196325               0.999999984              -0.000839094               0.000177550               0.999999984              -0.000654729               0.000379848               0.999999984              -0.000672976               0.000311540               0.999999984              -0.000676233               0.000285362               0.999999984              -0.000677580               0.000278907               0.999999984              -0.000680381               0.000282083               0.999999984              -0.000685150               0.000289944               0.999999984              -0.000691587               0.000299605               0.999999984              -0.000699044               0.000309556               0.999999984              -0.000707010               0.000319004               0.999999984              -0.000714940               0.000326694               0.999999984              -0.000722419               0.000332149               0.999999984              -0.000729016               0.000335017               0.999999984              -0.000734367               0.000334551               0.999999984              -0.000738081               0.000329815               0.999999984              -0.000739857               0.000320053               0.999999984              -0.000739642               0.000304368               0.999999984              -0.000737481               0.000281907               0.999999984              -0.000629086               0.000500889               0.999999984              -0.000625809               0.000413225               0.999999984              -0.000618632               0.000382399               0.999999984              -0.000615023               0.000376838               0.999999984              -0.000615352               0.000382886               0.999999984              -0.000618569               0.000394357               0.999999984              -0.000623577               0.000407525               0.999999984              -0.000629272               0.000420652               0.999999984              -0.000634771               0.000432554               0.999999984              -0.000639369               0.000442235               0.999999984              -0.000642583               0.000449093               0.999999984              -0.000643941               0.000452610               0.999999984              -0.000643023               0.000451948               0.999999984              -0.000639564               0.000446492               0.999999984              -0.000633606               0.000435653               0.999999984              -0.000625462               0.000419089               0.999999984              -0.000615711               0.000397264               0.999999984              -0.000596999               0.000617171               0.999999984              -0.000569434               0.000513539               0.999999984              -0.000552605               0.000480461               0.999999984              -0.000545545               0.000477111               0.999999984              -0.000544700               0.000486636               0.999999984              -0.000547226               0.000501689               0.999999984              -0.000551136               0.000518155               0.999999984              -0.000554918               0.000533986               0.999999984              -0.000557472               0.000548007               0.999999984              -0.000558047               0.000559132               0.999999984              -0.000556202               0.000566888               0.999999984              -0.000551383               0.000570549               0.999999984              -0.000543270               0.000569492               0.999999984              -0.000532028               0.000563444               0.999999984              -0.000518155               0.000552483               0.999999984              -0.000502364               0.000537210               0.999999984              -0.000485404               0.000518585               0.999999984              -0.000559111               0.000727533               0.999999984              -0.000506645               0.000612358               0.999999984              -0.000482619               0.000579117               0.999999984              -0.000474384               0.000578614               0.999999984              -0.000473840               0.000591615               0.999999984              -0.000476507               0.000609886               0.999999984              -0.000479514               0.000629129               0.999999984              -0.000481063               0.000647009               0.999999984              -0.000480056               0.000662531               0.999999984              -0.000475852               0.000674721               0.999999984              -0.000468015               0.000682883               0.999999984              -0.000456185               0.000686211               0.999999984              -0.000440452               0.000684631               0.999999984              -0.000421489               0.000678502               0.999999984              -0.000400063               0.000668488               0.999999984              -0.000376987               0.000655458               0.999999984              -0.000352925               0.000640602               0.999999984              -0.000516008               0.000830943               0.999999984              -0.000440517               0.000709499               0.999999984              -0.000412674               0.000677576               0.999999984              -0.000405716               0.000679849               0.999999984              -0.000406775               0.000695784               0.999999984              -0.000409855               0.000716793               0.999999984              -0.000411699               0.000738092               0.999999984              -0.000410446               0.000757604               0.999999984              -0.000405244               0.000774211               0.999999984              -0.000395479               0.000786966               0.999999984              -0.000380759               0.000794923               0.999999984              -0.000361191               0.000797754               0.999999984              -0.000337469               0.000795975               0.999999984              -0.000310499               0.000790461               0.999999984              -0.000281200               0.000782124               0.999999984              -0.000250447               0.000771832               0.999999984              -0.000218719               0.000760378               0.999999984              -0.000469338               0.000925476               0.999999984              -0.000373497               0.000804864               0.999999984              -0.000346461               0.000774475               0.999999984              -0.000342611               0.000778802               0.999999984              -0.000345719               0.000797201               0.999999984              -0.000349023               0.000820323               0.999999984              -0.000349131               0.000843358               0.999999984              -0.000344399               0.000864142               0.999999984              -0.000334205               0.000881469               0.999999984              -0.000317836               0.000894069               0.999999984              -0.000295127               0.000901533               0.999999984              -0.000266958               0.000904149               0.999999984              -0.000234424               0.000902878               0.999999984              -0.000198742               0.000898767               0.999999984              -0.000161063               0.000892842               0.999999984              -0.000122183               0.000885770               0.999999984              -0.000082920               0.000878193               0.999999984              -0.000421367               0.001014561               0.999999984              -0.000317916               0.000910587               0.999999984              -0.000287691               0.000875362               0.999999984              -0.000282567               0.000873315               0.999999984              -0.000285467               0.000886740               0.999999984              -0.000289258               0.000906966               0.999999984              -0.000290711               0.000929149               0.999999984              -0.000287980               0.000950674               0.999999984              -0.000280510               0.000970218               0.999999984              -0.000267597               0.000986739               0.999999984              -0.000248452               0.000999444               0.999999984              -0.000223606               0.001008349               0.999999984              -0.000193614               0.001013680               0.999999984              -0.000159544               0.001016253               0.999999984              -0.000122471               0.001016773               0.999999984              -0.000083361               0.001016066               0.999999984              -0.000043247               0.001014641               0.999999984              -0.000368738               0.001095519               0.999999984              -0.000265297               0.001012649               0.999999984              -0.000232036               0.000978764               0.999999984              -0.000224568               0.000972807               0.999999984              -0.000226376               0.000982395               0.999999984              -0.000230012               0.001000079               0.999999984              -0.000232184               0.001021322               0.999999984              -0.000231158               0.001043364               0.999999984              -0.000225912               0.001064698               0.999999984              -0.000215875               0.001084419               0.999999984              -0.000200168               0.001101544               0.999999984              -0.000178686               0.001115809               0.999999984              -0.000151890               0.001127072               0.999999984              -0.000120083               0.001135710               0.999999984              -0.000084155               0.001142203               0.999999984              -0.000045011               0.001147314               0.999999984              -0.000003768               0.001151634               0.999999984              -0.000312638               0.001166364               0.999999984              -0.000215665               0.001107945               0.999999984              -0.000180998               0.001079967               0.999999984              -0.000171049               0.001073404               0.999999984              -0.000171022               0.001080877               0.999999984              -0.000173780               0.001096855               0.999999984              -0.000176071               0.001117562               0.999999984              -0.000176191               0.001140291               0.999999984              -0.000172696               0.001163411               0.999999984              -0.000164969               0.001185965               0.999999984              -0.000152378               0.001207059               0.999999984              -0.000134456               0.001226103               0.999999984              -0.000111121               0.001242803               0.999999984              -0.000082214               0.001257150               0.999999984              -0.000047997               0.001269458               0.999999984              -0.000009008               0.001280228               0.999999984               0.000033888               0.001290112               0.999999984              -0.000253730               0.001225806               0.999999984              -0.000168953               0.001192523               0.999999984              -0.000135500               0.001173706               0.999999984              -0.000123827               0.001169624               0.999999984              -0.000121802               0.001177136               0.999999984              -0.000123340               0.001192609               0.999999984              -0.000125171               0.001213355               0.999999984              -0.000125660               0.001237159               0.999999984              -0.000123396               0.001262353               0.999999984              -0.000117584               0.001287806               0.999999984              -0.000107702               0.001312812               0.999999984              -0.000093440               0.001336583               0.999999984              -0.000073976               0.001358629               0.999999984              -0.000048723               0.001378733               0.999999984              -0.000017391               0.001396954               0.999999984               0.000020317               0.001413462               0.999999984               0.000064337               0.001428889               0.999999984              -0.000192478               0.001273055               0.999999984              -0.000124646               0.001262716               0.999999984              -0.000095562               0.001254474               0.999999984              -0.000083922               0.001254929               0.999999984              -0.000080598               0.001264052               0.999999984              -0.000080888               0.001280276               0.999999984              -0.000082019               0.001301775               0.999999984              -0.000082401               0.001326958               0.999999984              -0.000080906               0.001354375               0.999999984              -0.000076784               0.001382815               0.999999984              -0.000069536               0.001411578               0.999999984              -0.000058661               0.001439973               0.999999984              -0.000043517               0.001467543               0.999999984              -0.000023023               0.001493681               0.999999984               0.000003764               0.001518192               0.999999984               0.000037677               0.001540992               0.999999984               0.000079894               0.001562342               0.999999984              -0.000129378               0.001307409               0.999999984              -0.000082121               0.001315354               0.999999984              -0.000060590               0.001316780               0.999999984              -0.000051201               0.001322266               0.999999984              -0.000047826               0.001333890               0.999999984              -0.000047298               0.001351493               0.999999984              -0.000047762               0.001374228               0.999999984              -0.000047906               0.001400916               0.999999984              -0.000046984               0.001430415               0.999999984              -0.000044397               0.001461575               0.999999984              -0.000039658               0.001493755               0.999999984              -0.000032332               0.001526363               0.999999984              -0.000021773               0.001558899               0.999999984              -0.000007155               0.001590870               0.999999984               0.000012650               0.001621739               0.999999984               0.000038985               0.001650991               0.999999984               0.000073625               0.001678426               0.999999984              -0.000065022               0.001328283               0.999999984              -0.000040776               0.001347924               0.999999984              -0.000029340               0.001356119               0.999999984              -0.000024049               0.001365508               0.999999984              -0.000021953               0.001379421               0.999999984              -0.000021340               0.001398434               0.999999984              -0.000021431               0.001422165               0.999999984              -0.000021542               0.001449900               0.999999984              -0.000021071               0.001480761               0.999999984              -0.000019787               0.001513864               0.999999984              -0.000017579               0.001548584               0.999999984              -0.000013944               0.001584416               0.999999984              -0.000008386               0.001620794               0.999999984              -0.000000639               0.001657100               0.999999984               0.000009954               0.001692840               0.999999984               0.000024564               0.001727257               0.999999984               0.000044559               0.001759580               0.999999984               0.000000000               0.001335368               0.999999984               0.000000000               0.001359019               0.999999984               0.000000000               0.001369652               0.999999984               0.000000000               0.001380537               0.999999984              -0.000000000               0.001395314               0.999999984              -0.000000000               0.001414891               0.999999984               0.000000000               0.001439005               0.999999984              -0.000000000               0.001467143               0.999999984               0.000000000               0.001498540               0.999999984              -0.000000000               0.001532295               0.999999984              -0.000000000               0.001567961               0.999999984              -0.000000000               0.001605066               0.999999984               0.000000000               0.001642917               0.999999984               0.000000000               0.001680882               0.999999984               0.000000000               0.001718454               0.999999984               0.000000000               0.001754869               0.999999984              -0.000000000               0.001789104               0.999999984              -0.000688484               0.000000000               0.999999984              -0.000738013               0.000000000               0.999999984              -0.000759393               0.000000000               0.999999984              -0.000771198              -0.000000000               0.999999984              -0.000780296               0.000000000               0.999999984              -0.000789396              -0.000000000               0.999999984              -0.000799464               0.000000000               0.999999984              -0.000810703               0.000000000               0.999999984              -0.000823113               0.000000000               0.999999984              -0.000836425              -0.000000000               0.999999984              -0.000850335               0.000000000               0.999999984              -0.000864579               0.000000000               0.999999984              -0.000878996               0.000000000               0.999999984              -0.000893401              -0.000000000               0.999999984              -0.000907400               0.000000000               0.999999984              -0.000920541              -0.000000000               0.999999984              -0.000932158               0.000000000               0.999999984              -0.000684587              -0.000128278               0.999999984              -0.000730464              -0.000104615               0.999999984              -0.000749593              -0.000094570               0.999999984              -0.000759921              -0.000091241               0.999999984              -0.000768022              -0.000091573               0.999999984              -0.000776432              -0.000093761               0.999999984              -0.000785963              -0.000096787               0.999999984              -0.000796723              -0.000100163               0.999999984              -0.000808545              -0.000103418               0.999999984              -0.000821165              -0.000106052               0.999999984              -0.000834245              -0.000107786               0.999999984              -0.000847554              -0.000108675               0.999999984              -0.000860898              -0.000108549               0.999999984              -0.000873953              -0.000106745               0.999999984              -0.000886344              -0.000102880               0.999999984              -0.000897618              -0.000096066               0.999999984              -0.000907278              -0.000085171               0.999999984              -0.000673300              -0.000255268               0.999999984              -0.000708471              -0.000208608               0.999999984              -0.000721096              -0.000189515               0.999999984              -0.000727528              -0.000183824               0.999999984              -0.000733288              -0.000185103               0.999999984              -0.000740028              -0.000189835               0.999999984              -0.000748191              -0.000196053               0.999999984              -0.000757536              -0.000202759               0.999999984              -0.000767661              -0.000209195               0.999999984              -0.000778284              -0.000214483               0.999999984              -0.000789107              -0.000218100               0.999999984              -0.000799885              -0.000220002               0.999999984              -0.000810171              -0.000219651               0.999999984              -0.000819597              -0.000216129               0.999999984              -0.000827801              -0.000208745               0.999999984              -0.000834380              -0.000196325               0.999999984              -0.000839094              -0.000177550               0.999999984              -0.000654729              -0.000379848               0.999999984              -0.000672976              -0.000311540               0.999999984              -0.000676233              -0.000285362               0.999999984              -0.000677580              -0.000278907               0.999999984              -0.000680381              -0.000282083               0.999999984              -0.000685150              -0.000289944               0.999999984              -0.000691587              -0.000299605               0.999999984              -0.000699044              -0.000309556               0.999999984              -0.000707010              -0.000319004               0.999999984              -0.000714940              -0.000326694               0.999999984              -0.000722419              -0.000332149               0.999999984              -0.000729016              -0.000335017               0.999999984              -0.000734367              -0.000334551               0.999999984              -0.000738081              -0.000329815               0.999999984              -0.000739857              -0.000320053               0.999999984              -0.000739642              -0.000304368               0.999999984              -0.000737481              -0.000281907               0.999999984              -0.000629086              -0.000500889               0.999999984              -0.000625809              -0.000413225               0.999999984              -0.000618632              -0.000382399               0.999999984              -0.000615023              -0.000376838               0.999999984              -0.000615352              -0.000382886               0.999999984              -0.000618569              -0.000394357               0.999999984              -0.000623577              -0.000407525               0.999999984              -0.000629272              -0.000420652               0.999999984              -0.000634771              -0.000432554               0.999999984              -0.000639369              -0.000442235               0.999999984              -0.000642583              -0.000449093               0.999999984              -0.000643941              -0.000452610               0.999999984              -0.000643023              -0.000451948               0.999999984              -0.000639564              -0.000446492               0.999999984              -0.000633606              -0.000435653               0.999999984              -0.000625462              -0.000419089               0.999999984              -0.000615711              -0.000397264               0.999999984              -0.000596999              -0.000617171               0.999999984              -0.000569434              -0.000513539               0.999999984              -0.000552605              -0.000480461               0.999999984              -0.000545545              -0.000477111               0.999999984              -0.000544700              -0.000486636               0.999999984              -0.000547226              -0.000501689               0.999999984              -0.000551136              -0.000518155               0.999999984              -0.000554918              -0.000533986               0.999999984              -0.000557472              -0.000548007               0.999999984              -0.000558047              -0.000559132               0.999999984              -0.000556202              -0.000566888               0.999999984              -0.000551383              -0.000570549               0.999999984              -0.000543270              -0.000569492               0.999999984              -0.000532028              -0.000563444               0.999999984              -0.000518155              -0.000552483               0.999999984              -0.000502364              -0.000537210               0.999999984              -0.000485404              -0.000518585               0.999999984              -0.000559111              -0.000727533               0.999999984              -0.000506645              -0.000612358               0.999999984              -0.000482619              -0.000579117               0.999999984              -0.000474384              -0.000578614               0.999999984              -0.000473840              -0.000591615               0.999999984              -0.000476507              -0.000609886               0.999999984              -0.000479514              -0.000629129               0.999999984              -0.000481063              -0.000647009               0.999999984              -0.000480056              -0.000662531               0.999999984              -0.000475852              -0.000674721               0.999999984              -0.000468015              -0.000682883               0.999999984              -0.000456185              -0.000686211               0.999999984              -0.000440452              -0.000684631               0.999999984              -0.000421489              -0.000678502               0.999999984              -0.000400063              -0.000668488               0.999999984              -0.000376987              -0.000655458               0.999999984              -0.000352925              -0.000640602               0.999999984              -0.000516008              -0.000830943               0.999999984              -0.000440517              -0.000709499               0.999999984              -0.000412674              -0.000677576               0.999999984              -0.000405716              -0.000679849               0.999999984              -0.000406775              -0.000695784               0.999999984              -0.000409855              -0.000716793               0.999999984              -0.000411699              -0.000738092               0.999999984              -0.000410446              -0.000757604               0.999999984              -0.000405244              -0.000774211               0.999999984              -0.000395479              -0.000786966               0.999999984              -0.000380759              -0.000794923               0.999999984              -0.000361191              -0.000797754               0.999999984              -0.000337469              -0.000795975               0.999999984              -0.000310499              -0.000790461               0.999999984              -0.000281200              -0.000782124               0.999999984              -0.000250447              -0.000771832               0.999999984              -0.000218719              -0.000760378               0.999999984              -0.000469338              -0.000925476               0.999999984              -0.000373497              -0.000804864               0.999999984              -0.000346461              -0.000774475               0.999999984              -0.000342611              -0.000778802               0.999999984              -0.000345719              -0.000797201               0.999999984              -0.000349023              -0.000820323               0.999999984              -0.000349131              -0.000843358               0.999999984              -0.000344399              -0.000864142               0.999999984              -0.000334205              -0.000881469               0.999999984              -0.000317836              -0.000894069               0.999999984              -0.000295127              -0.000901533               0.999999984              -0.000266958              -0.000904149               0.999999984              -0.000234424              -0.000902878               0.999999984              -0.000198742              -0.000898767               0.999999984              -0.000161063              -0.000892842               0.999999984              -0.000122183              -0.000885770               0.999999984              -0.000082920              -0.000878193               0.999999984              -0.000421367              -0.001014561               0.999999984              -0.000317916              -0.000910587               0.999999984              -0.000287691              -0.000875362               0.999999984              -0.000282567              -0.000873315               0.999999984              -0.000285467              -0.000886740               0.999999984              -0.000289258              -0.000906966               0.999999984              -0.000290711              -0.000929149               0.999999984              -0.000287980              -0.000950674               0.999999984              -0.000280510              -0.000970218               0.999999984              -0.000267597              -0.000986739               0.999999984              -0.000248452              -0.000999444               0.999999984              -0.000223606              -0.001008349               0.999999984              -0.000193614              -0.001013680               0.999999984              -0.000159544              -0.001016253               0.999999984              -0.000122471              -0.001016773               0.999999984              -0.000083361              -0.001016066               0.999999984              -0.000043247              -0.001014641               0.999999984              -0.000368738              -0.001095519               0.999999984              -0.000265297              -0.001012649               0.999999984              -0.000232036              -0.000978764               0.999999984              -0.000224568              -0.000972807               0.999999984              -0.000226376              -0.000982395               0.999999984              -0.000230012              -0.001000079               0.999999984              -0.000232184              -0.001021322               0.999999984              -0.000231158              -0.001043364               0.999999984              -0.000225912              -0.001064698               0.999999984              -0.000215875              -0.001084419               0.999999984              -0.000200168              -0.001101544               0.999999984              -0.000178686              -0.001115809               0.999999984              -0.000151890              -0.001127072               0.999999984              -0.000120083              -0.001135710               0.999999984              -0.000084155              -0.001142203               0.999999984              -0.000045011              -0.001147314               0.999999984              -0.000003768              -0.001151634               0.999999984              -0.000312638              -0.001166364               0.999999984              -0.000215665              -0.001107945               0.999999984              -0.000180998              -0.001079967               0.999999984              -0.000171049              -0.001073404               0.999999984              -0.000171022              -0.001080877               0.999999984              -0.000173780              -0.001096855               0.999999984              -0.000176071              -0.001117562               0.999999984              -0.000176191              -0.001140291               0.999999984              -0.000172696              -0.001163411               0.999999984              -0.000164969              -0.001185965               0.999999984              -0.000152378              -0.001207059               0.999999984              -0.000134456              -0.001226103               0.999999984              -0.000111121              -0.001242803               0.999999984              -0.000082214              -0.001257150               0.999999984              -0.000047997              -0.001269458               0.999999984              -0.000009008              -0.001280228               0.999999984               0.000033888              -0.001290112               0.999999984              -0.000253730              -0.001225806               0.999999984              -0.000168953              -0.001192523               0.999999984              -0.000135500              -0.001173706               0.999999984              -0.000123827              -0.001169624               0.999999984              -0.000121802              -0.001177136               0.999999984              -0.000123340              -0.001192609               0.999999984              -0.000125171              -0.001213355               0.999999984              -0.000125660              -0.001237159               0.999999984              -0.000123396              -0.001262353               0.999999984              -0.000117584              -0.001287806               0.999999984              -0.000107702              -0.001312812               0.999999984              -0.000093440              -0.001336583               0.999999984              -0.000073976              -0.001358629               0.999999984              -0.000048723              -0.001378733               0.999999984              -0.000017391              -0.001396954               0.999999984               0.000020317              -0.001413462               0.999999984               0.000064337              -0.001428889               0.999999984              -0.000192478              -0.001273055               0.999999984              -0.000124646              -0.001262716               0.999999984              -0.000095562              -0.001254474               0.999999984              -0.000083922              -0.001254929               0.999999984              -0.000080598              -0.001264052               0.999999984              -0.000080888              -0.001280276               0.999999984              -0.000082019              -0.001301775               0.999999984              -0.000082401              -0.001326958               0.999999984              -0.000080906              -0.001354375               0.999999984              -0.000076784              -0.001382815               0.999999984              -0.000069536              -0.001411578               0.999999984              -0.000058661              -0.001439973               0.999999984              -0.000043517              -0.001467543               0.999999984              -0.000023023              -0.001493681               0.999999984               0.000003764              -0.001518192               0.999999984               0.000037677              -0.001540992               0.999999984               0.000079894              -0.001562342               0.999999984              -0.000129378              -0.001307409               0.999999984              -0.000082121              -0.001315354               0.999999984              -0.000060590              -0.001316780               0.999999984              -0.000051201              -0.001322266               0.999999984              -0.000047826              -0.001333890               0.999999984              -0.000047298              -0.001351493               0.999999984              -0.000047762              -0.001374228               0.999999984              -0.000047906              -0.001400916               0.999999984              -0.000046984              -0.001430415               0.999999984              -0.000044397              -0.001461575               0.999999984              -0.000039658              -0.001493755               0.999999984              -0.000032332              -0.001526363               0.999999984              -0.000021773              -0.001558899               0.999999984              -0.000007155              -0.001590870               0.999999984               0.000012650              -0.001621739               0.999999984               0.000038985              -0.001650991               0.999999984               0.000073625              -0.001678426               0.999999984              -0.000065022              -0.001328283               0.999999984              -0.000040776              -0.001347924               0.999999984              -0.000029340              -0.001356119               0.999999984              -0.000024049              -0.001365508               0.999999984              -0.000021953              -0.001379421               0.999999984              -0.000021340              -0.001398434               0.999999984              -0.000021431              -0.001422165               0.999999984              -0.000021542              -0.001449900               0.999999984              -0.000021071              -0.001480761               0.999999984              -0.000019787              -0.001513864               0.999999984              -0.000017579              -0.001548584               0.999999984              -0.000013944              -0.001584416               0.999999984              -0.000008386              -0.001620794               0.999999984              -0.000000639              -0.001657100               0.999999984               0.000009954              -0.001692840               0.999999984               0.000024564              -0.001727257               0.999999984               0.000044559              -0.001759580               0.999999984               0.000000000              -0.001335368               0.999999984              -0.000000000              -0.001359019               0.999999984               0.000000000              -0.001369652               0.999999984              -0.000000000              -0.001380537               0.999999984              -0.000000000              -0.001395314               0.999999984              -0.000000000              -0.001414891               0.999999984              -0.000000000              -0.001439005               0.999999984               0.000000000              -0.001467143               0.999999984               0.000000000              -0.001498540               0.999999984              -0.000000000              -0.001532295               0.999999984               0.000000000              -0.001567961               0.999999984               0.000000000              -0.001605066               0.999999984              -0.000000000              -0.001642917               0.999999984              -0.000000000              -0.001680882               0.999999984              -0.000000000              -0.001718454               0.999999984               0.000000000              -0.001754869               0.999999984              -0.000000000              -0.001789104               0.999999984               0.000688484              -0.000000000               0.999999984               0.000738013              -0.000000000               0.999999984               0.000759393               0.000000000               0.999999984               0.000771198              -0.000000000               0.999999984               0.000780296               0.000000000               0.999999984               0.000789396              -0.000000000               0.999999984               0.000799464               0.000000000               0.999999984               0.000810703               0.000000000               0.999999984               0.000823113               0.000000000               0.999999984               0.000836425              -0.000000000               0.999999984               0.000850335               0.000000000               0.999999984               0.000864579              -0.000000000               0.999999984               0.000878996              -0.000000000               0.999999984               0.000893401               0.000000000               0.999999984               0.000907400              -0.000000000               0.999999984               0.000920541               0.000000000               0.999999984               0.000932158               0.000000000               0.999999984               0.000684587              -0.000128278               0.999999984               0.000730464              -0.000104615               0.999999984               0.000749593              -0.000094570               0.999999984               0.000759921              -0.000091241               0.999999984               0.000768022              -0.000091573               0.999999984               0.000776432              -0.000093761               0.999999984               0.000785963              -0.000096787               0.999999984               0.000796723              -0.000100163               0.999999984               0.000808545              -0.000103418               0.999999984               0.000821165              -0.000106052               0.999999984               0.000834245              -0.000107786               0.999999984               0.000847554              -0.000108675               0.999999984               0.000860898              -0.000108549               0.999999984               0.000873953              -0.000106745               0.999999984               0.000886344              -0.000102880               0.999999984               0.000897618              -0.000096066               0.999999984               0.000907278              -0.000085171               0.999999984               0.000673300              -0.000255268               0.999999984               0.000708471              -0.000208608               0.999999984               0.000721096              -0.000189515               0.999999984               0.000727528              -0.000183824               0.999999984               0.000733288              -0.000185103               0.999999984               0.000740028              -0.000189835               0.999999984               0.000748191              -0.000196053               0.999999984               0.000757536              -0.000202759               0.999999984               0.000767661              -0.000209195               0.999999984               0.000778284              -0.000214483               0.999999984               0.000789107              -0.000218100               0.999999984               0.000799885              -0.000220002               0.999999984               0.000810171              -0.000219651               0.999999984               0.000819597              -0.000216129               0.999999984               0.000827801              -0.000208745               0.999999984               0.000834380              -0.000196325               0.999999984               0.000839094              -0.000177550               0.999999984               0.000654729              -0.000379848               0.999999984               0.000672976              -0.000311540               0.999999984               0.000676233              -0.000285362               0.999999984               0.000677580              -0.000278907               0.999999984               0.000680381              -0.000282083               0.999999984               0.000685150              -0.000289944               0.999999984               0.000691587              -0.000299605               0.999999984               0.000699044              -0.000309556               0.999999984               0.000707010              -0.000319004               0.999999984               0.000714940              -0.000326694               0.999999984               0.000722419              -0.000332149               0.999999984               0.000729016              -0.000335017               0.999999984               0.000734367              -0.000334551               0.999999984               0.000738081              -0.000329815               0.999999984               0.000739857              -0.000320053               0.999999984               0.000739642              -0.000304368               0.999999984               0.000737481              -0.000281907               0.999999984               0.000629086              -0.000500889               0.999999984               0.000625809              -0.000413225               0.999999984               0.000618632              -0.000382399               0.999999984               0.000615023              -0.000376838               0.999999984               0.000615352              -0.000382886               0.999999984               0.000618569              -0.000394357               0.999999984               0.000623577              -0.000407525               0.999999984               0.000629272              -0.000420652               0.999999984               0.000634771              -0.000432554               0.999999984               0.000639369              -0.000442235               0.999999984               0.000642583              -0.000449093               0.999999984               0.000643941              -0.000452610               0.999999984               0.000643023              -0.000451948               0.999999984               0.000639564              -0.000446492               0.999999984               0.000633606              -0.000435653               0.999999984               0.000625462              -0.000419089               0.999999984               0.000615711              -0.000397264               0.999999984               0.000596999              -0.000617171               0.999999984               0.000569434              -0.000513539               0.999999984               0.000552605              -0.000480461               0.999999984               0.000545545              -0.000477111               0.999999984               0.000544700              -0.000486636               0.999999984               0.000547226              -0.000501689               0.999999984               0.000551136              -0.000518155               0.999999984               0.000554918              -0.000533986               0.999999984               0.000557472              -0.000548007               0.999999984               0.000558047              -0.000559132               0.999999984               0.000556202              -0.000566888               0.999999984               0.000551383              -0.000570549               0.999999984               0.000543270              -0.000569492               0.999999984               0.000532028              -0.000563444               0.999999984               0.000518155              -0.000552483               0.999999984               0.000502364              -0.000537210               0.999999984               0.000485404              -0.000518585               0.999999984               0.000559111              -0.000727533               0.999999984               0.000506645              -0.000612358               0.999999984               0.000482619              -0.000579117               0.999999984               0.000474384              -0.000578614               0.999999984               0.000473840              -0.000591615               0.999999984               0.000476507              -0.000609886               0.999999984               0.000479514              -0.000629129               0.999999984               0.000481063              -0.000647009               0.999999984               0.000480056              -0.000662531               0.999999984               0.000475852              -0.000674721               0.999999984               0.000468015              -0.000682883               0.999999984               0.000456185              -0.000686211               0.999999984               0.000440452              -0.000684631               0.999999984               0.000421489              -0.000678502               0.999999984               0.000400063              -0.000668488               0.999999984               0.000376987              -0.000655458               0.999999984               0.000352925              -0.000640602               0.999999984               0.000516008              -0.000830943               0.999999984               0.000440517              -0.000709499               0.999999984               0.000412674              -0.000677576               0.999999984               0.000405716              -0.000679849               0.999999984               0.000406775              -0.000695784               0.999999984               0.000409855              -0.000716793               0.999999984               0.000411699              -0.000738092               0.999999984               0.000410446              -0.000757604               0.999999984               0.000405244              -0.000774211               0.999999984               0.000395479              -0.000786966               0.999999984               0.000380759              -0.000794923               0.999999984               0.000361191              -0.000797754               0.999999984               0.000337469              -0.000795975               0.999999984               0.000310499              -0.000790461               0.999999984               0.000281200              -0.000782124               0.999999984               0.000250447              -0.000771832               0.999999984               0.000218719              -0.000760378               0.999999984               0.000469338              -0.000925476               0.999999984               0.000373497              -0.000804864               0.999999984               0.000346461              -0.000774475               0.999999984               0.000342611              -0.000778802               0.999999984               0.000345719              -0.000797201               0.999999984               0.000349023              -0.000820323               0.999999984               0.000349131              -0.000843358               0.999999984               0.000344399              -0.000864142               0.999999984               0.000334205              -0.000881469               0.999999984               0.000317836              -0.000894069               0.999999984               0.000295127              -0.000901533               0.999999984               0.000266958              -0.000904149               0.999999984               0.000234424              -0.000902878               0.999999984               0.000198742              -0.000898767               0.999999984               0.000161063              -0.000892842               0.999999984               0.000122183              -0.000885770               0.999999984               0.000082920              -0.000878193               0.999999984               0.000421367              -0.001014561               0.999999984               0.000317916              -0.000910587               0.999999984               0.000287691              -0.000875362               0.999999984               0.000282567              -0.000873315               0.999999984               0.000285467              -0.000886740               0.999999984               0.000289258              -0.000906966               0.999999984               0.000290711              -0.000929149               0.999999984               0.000287980              -0.000950674               0.999999984               0.000280510              -0.000970218               0.999999984               0.000267597              -0.000986739               0.999999984               0.000248452              -0.000999444               0.999999984               0.000223606              -0.001008349               0.999999984               0.000193614              -0.001013680               0.999999984               0.000159544              -0.001016253               0.999999984               0.000122471              -0.001016773               0.999999984               0.000083361              -0.001016066               0.999999984               0.000043247              -0.001014641               0.999999984               0.000368738              -0.001095519               0.999999984               0.000265297              -0.001012649               0.999999984               0.000232036              -0.000978764               0.999999984               0.000224568              -0.000972807               0.999999984               0.000226376              -0.000982395               0.999999984               0.000230012              -0.001000079               0.999999984               0.000232184              -0.001021322               0.999999984               0.000231158              -0.001043364               0.999999984               0.000225912              -0.001064698               0.999999984               0.000215875              -0.001084419               0.999999984               0.000200168              -0.001101544               0.999999984               0.000178686              -0.001115809               0.999999984               0.000151890              -0.001127072               0.999999984               0.000120083              -0.001135710               0.999999984               0.000084155              -0.001142203               0.999999984               0.000045011              -0.001147314               0.999999984               0.000003768              -0.001151634               0.999999984               0.000312638              -0.001166364               0.999999984               0.000215665              -0.001107945               0.999999984               0.000180998              -0.001079967               0.999999984               0.000171049              -0.001073404               0.999999984               0.000171022              -0.001080877               0.999999984               0.000173780              -0.001096855               0.999999984               0.000176071              -0.001117562               0.999999984               0.000176191              -0.001140291               0.999999984               0.000172696              -0.001163411               0.999999984               0.000164969              -0.001185965               0.999999984               0.000152378              -0.001207059               0.999999984               0.000134456              -0.001226103               0.999999984               0.000111121              -0.001242803               0.999999984               0.000082214              -0.001257150               0.999999984               0.000047997              -0.001269458               0.999999984               0.000009008              -0.001280228               0.999999984              -0.000033888              -0.001290112               0.999999984               0.000253730              -0.001225806               0.999999984               0.000168953              -0.001192523               0.999999984               0.000135500              -0.001173706               0.999999984               0.000123827              -0.001169624               0.999999984               0.000121802              -0.001177136               0.999999984               0.000123340              -0.001192609               0.999999984               0.000125171              -0.001213355               0.999999984               0.000125660              -0.001237159               0.999999984               0.000123396              -0.001262353               0.999999984               0.000117584              -0.001287806               0.999999984               0.000107702              -0.001312812               0.999999984               0.000093440              -0.001336583               0.999999984               0.000073976              -0.001358629               0.999999984               0.000048723              -0.001378733               0.999999984               0.000017391              -0.001396954               0.999999984              -0.000020317              -0.001413462               0.999999984              -0.000064337              -0.001428889               0.999999984               0.000192478              -0.001273055               0.999999984               0.000124646              -0.001262716               0.999999984               0.000095562              -0.001254474               0.999999984               0.000083922              -0.001254929               0.999999984               0.000080598              -0.001264052               0.999999984               0.000080888              -0.001280276               0.999999984               0.000082019              -0.001301775               0.999999984               0.000082401              -0.001326958               0.999999984               0.000080906              -0.001354375               0.999999984               0.000076784              -0.001382815               0.999999984               0.000069536              -0.001411578               0.999999984               0.000058661              -0.001439973               0.999999984               0.000043517              -0.001467543               0.999999984               0.000023023              -0.001493681               0.999999984              -0.000003764              -0.001518192               0.999999984              -0.000037677              -0.001540992               0.999999984              -0.000079894              -0.001562342               0.999999984               0.000129378              -0.001307409               0.999999984               0.000082121              -0.001315354               0.999999984               0.000060590              -0.001316780               0.999999984               0.000051201              -0.001322266               0.999999984               0.000047826              -0.001333890               0.999999984               0.000047298              -0.001351493               0.999999984               0.000047762              -0.001374228               0.999999984               0.000047906              -0.001400916               0.999999984               0.000046984              -0.001430415               0.999999984               0.000044397              -0.001461575               0.999999984               0.000039658              -0.001493755               0.999999984               0.000032332              -0.001526363               0.999999984               0.000021773              -0.001558899               0.999999984               0.000007155              -0.001590870               0.999999984              -0.000012650              -0.001621739               0.999999984              -0.000038985              -0.001650991               0.999999984              -0.000073625              -0.001678426               0.999999984               0.000065022              -0.001328283               0.999999984               0.000040776              -0.001347924               0.999999984               0.000029340              -0.001356119               0.999999984               0.000024049              -0.001365508               0.999999984               0.000021953              -0.001379421               0.999999984               0.000021340              -0.001398434               0.999999984               0.000021431              -0.001422165               0.999999984               0.000021542              -0.001449900               0.999999984               0.000021071              -0.001480761               0.999999984               0.000019787              -0.001513864               0.999999984               0.000017579              -0.001548584               0.999999984               0.000013944              -0.001584416               0.999999984               0.000008386              -0.001620794               0.999999984               0.000000639              -0.001657100               0.999999984              -0.000009954              -0.001692840               0.999999984              -0.000024564              -0.001727257               0.999999984              -0.000044559              -0.001759580               0.999999984               0.000000000              -0.001335368               0.999999984              -0.000000000              -0.001359019               0.999999984               0.000000000              -0.001369652               0.999999984              -0.000000000              -0.001380537               0.999999984              -0.000000000              -0.001395314               0.999999984              -0.000000000              -0.001414891               0.999999984              -0.000000000              -0.001439005               0.999999984               0.000000000              -0.001467143               0.999999984               0.000000000              -0.001498540               0.999999984              -0.000000000              -0.001532295               0.999999984               0.000000000              -0.001567961               0.999999984               0.000000000              -0.001605066               0.999999984              -0.000000000              -0.001642917               0.999999984              -0.000000000              -0.001680882               0.999999984              -0.000000000              -0.001718454               0.999999984               0.000000000              -0.001754869               0.999999984              -0.000000000              -0.001789104               0.999999984               0.000688484              -0.000000000               0.999999984               0.000738013              -0.000000000               0.999999984               0.000759393               0.000000000               0.999999984               0.000771198              -0.000000000               0.999999984               0.000780296               0.000000000               0.999999984               0.000789396              -0.000000000               0.999999984               0.000799464               0.000000000               0.999999984               0.000810703               0.000000000               0.999999984               0.000823113               0.000000000               0.999999984               0.000836425              -0.000000000               0.999999984               0.000850335               0.000000000               0.999999984               0.000864579              -0.000000000               0.999999984               0.000878996              -0.000000000               0.999999984               0.000893401               0.000000000               0.999999984               0.000907400              -0.000000000               0.999999984               0.000920541               0.000000000               0.999999984               0.000932158               0.000000000               0.999999984               0.000684587               0.000128278               0.999999984               0.000730464               0.000104615               0.999999984               0.000749593               0.000094570               0.999999984               0.000759921               0.000091241               0.999999984               0.000768022               0.000091573               0.999999984               0.000776432               0.000093761               0.999999984               0.000785963               0.000096787               0.999999984               0.000796723               0.000100163               0.999999984               0.000808545               0.000103418               0.999999984               0.000821165               0.000106052               0.999999984               0.000834245               0.000107786               0.999999984               0.000847554               0.000108675               0.999999984               0.000860898               0.000108549               0.999999984               0.000873953               0.000106745               0.999999984               0.000886344               0.000102880               0.999999984               0.000897618               0.000096066               0.999999984               0.000907278               0.000085171               0.999999984               0.000673300               0.000255268               0.999999984               0.000708471               0.000208608               0.999999984               0.000721096               0.000189515               0.999999984               0.000727528               0.000183824               0.999999984               0.000733288               0.000185103               0.999999984               0.000740028               0.000189835               0.999999984               0.000748191               0.000196053               0.999999984               0.000757536               0.000202759               0.999999984               0.000767661               0.000209195               0.999999984               0.000778284               0.000214483               0.999999984               0.000789107               0.000218100               0.999999984               0.000799885               0.000220002               0.999999984               0.000810171               0.000219651               0.999999984               0.000819597               0.000216129               0.999999984               0.000827801               0.000208745               0.999999984               0.000834380               0.000196325               0.999999984               0.000839094               0.000177550               0.999999984               0.000654729               0.000379848               0.999999984               0.000672976               0.000311540               0.999999984               0.000676233               0.000285362               0.999999984               0.000677580               0.000278907               0.999999984               0.000680381               0.000282083               0.999999984               0.000685150               0.000289944               0.999999984               0.000691587               0.000299605               0.999999984               0.000699044               0.000309556               0.999999984               0.000707010               0.000319004               0.999999984               0.000714940               0.000326694               0.999999984               0.000722419               0.000332149               0.999999984               0.000729016               0.000335017               0.999999984               0.000734367               0.000334551               0.999999984               0.000738081               0.000329815               0.999999984               0.000739857               0.000320053               0.999999984               0.000739642               0.000304368               0.999999984               0.000737481               0.000281907               0.999999984               0.000629086               0.000500889               0.999999984               0.000625809               0.000413225               0.999999984               0.000618632               0.000382399               0.999999984               0.000615023               0.000376838               0.999999984               0.000615352               0.000382886               0.999999984               0.000618569               0.000394357               0.999999984               0.000623577               0.000407525               0.999999984               0.000629272               0.000420652               0.999999984               0.000634771               0.000432554               0.999999984               0.000639369               0.000442235               0.999999984               0.000642583               0.000449093               0.999999984               0.000643941               0.000452610               0.999999984               0.000643023               0.000451948               0.999999984               0.000639564               0.000446492               0.999999984               0.000633606               0.000435653               0.999999984               0.000625462               0.000419089               0.999999984               0.000615711               0.000397264               0.999999984               0.000596999               0.000617171               0.999999984               0.000569434               0.000513539               0.999999984               0.000552605               0.000480461               0.999999984               0.000545545               0.000477111               0.999999984               0.000544700               0.000486636               0.999999984               0.000547226               0.000501689               0.999999984               0.000551136               0.000518155               0.999999984               0.000554918               0.000533986               0.999999984               0.000557472               0.000548007               0.999999984               0.000558047               0.000559132               0.999999984               0.000556202               0.000566888               0.999999984               0.000551383               0.000570549               0.999999984               0.000543270               0.000569492               0.999999984               0.000532028               0.000563444               0.999999984               0.000518155               0.000552483               0.999999984               0.000502364               0.000537210               0.999999984               0.000485404               0.000518585               0.999999984               0.000559111               0.000727533               0.999999984               0.000506645               0.000612358               0.999999984               0.000482619               0.000579117               0.999999984               0.000474384               0.000578614               0.999999984               0.000473840               0.000591615               0.999999984               0.000476507               0.000609886               0.999999984               0.000479514               0.000629129               0.999999984               0.000481063               0.000647009               0.999999984               0.000480056               0.000662531               0.999999984               0.000475852               0.000674721               0.999999984               0.000468015               0.000682883               0.999999984               0.000456185               0.000686211               0.999999984               0.000440452               0.000684631               0.999999984               0.000421489               0.000678502               0.999999984               0.000400063               0.000668488               0.999999984               0.000376987               0.000655458               0.999999984               0.000352925               0.000640602               0.999999984               0.000516008               0.000830943               0.999999984               0.000440517               0.000709499               0.999999984               0.000412674               0.000677576               0.999999984               0.000405716               0.000679849               0.999999984               0.000406775               0.000695784               0.999999984               0.000409855               0.000716793               0.999999984               0.000411699               0.000738092               0.999999984               0.000410446               0.000757604               0.999999984               0.000405244               0.000774211               0.999999984               0.000395479               0.000786966               0.999999984               0.000380759               0.000794923               0.999999984               0.000361191               0.000797754               0.999999984               0.000337469               0.000795975               0.999999984               0.000310499               0.000790461               0.999999984               0.000281200               0.000782124               0.999999984               0.000250447               0.000771832               0.999999984               0.000218719               0.000760378               0.999999984               0.000469338               0.000925476               0.999999984               0.000373497               0.000804864               0.999999984               0.000346461               0.000774475               0.999999984               0.000342611               0.000778802               0.999999984               0.000345719               0.000797201               0.999999984               0.000349023               0.000820323               0.999999984               0.000349131               0.000843358               0.999999984               0.000344399               0.000864142               0.999999984               0.000334205               0.000881469               0.999999984               0.000317836               0.000894069               0.999999984               0.000295127               0.000901533               0.999999984               0.000266958               0.000904149               0.999999984               0.000234424               0.000902878               0.999999984               0.000198742               0.000898767               0.999999984               0.000161063               0.000892842               0.999999984               0.000122183               0.000885770               0.999999984               0.000082920               0.000878193               0.999999984               0.000421367               0.001014561               0.999999984               0.000317916               0.000910587               0.999999984               0.000287691               0.000875362               0.999999984               0.000282567               0.000873315               0.999999984               0.000285467               0.000886740               0.999999984               0.000289258               0.000906966               0.999999984               0.000290711               0.000929149               0.999999984               0.000287980               0.000950674               0.999999984               0.000280510               0.000970218               0.999999984               0.000267597               0.000986739               0.999999984               0.000248452               0.000999444               0.999999984               0.000223606               0.001008349               0.999999984               0.000193614               0.001013680               0.999999984               0.000159544               0.001016253               0.999999984               0.000122471               0.001016773               0.999999984               0.000083361               0.001016066               0.999999984               0.000043247               0.001014641               0.999999984               0.000368738               0.001095519               0.999999984               0.000265297               0.001012649               0.999999984               0.000232036               0.000978764               0.999999984               0.000224568               0.000972807               0.999999984               0.000226376               0.000982395               0.999999984               0.000230012               0.001000079               0.999999984               0.000232184               0.001021322               0.999999984               0.000231158               0.001043364               0.999999984               0.000225912               0.001064698               0.999999984               0.000215875               0.001084419               0.999999984               0.000200168               0.001101544               0.999999984               0.000178686               0.001115809               0.999999984               0.000151890               0.001127072               0.999999984               0.000120083               0.001135710               0.999999984               0.000084155               0.001142203               0.999999984               0.000045011               0.001147314               0.999999984               0.000003768               0.001151634               0.999999984               0.000312638               0.001166364               0.999999984               0.000215665               0.001107945               0.999999984               0.000180998               0.001079967               0.999999984               0.000171049               0.001073404               0.999999984               0.000171022               0.001080877               0.999999984               0.000173780               0.001096855               0.999999984               0.000176071               0.001117562               0.999999984               0.000176191               0.001140291               0.999999984               0.000172696               0.001163411               0.999999984               0.000164969               0.001185965               0.999999984               0.000152378               0.001207059               0.999999984               0.000134456               0.001226103               0.999999984               0.000111121               0.001242803               0.999999984               0.000082214               0.001257150               0.999999984               0.000047997               0.001269458               0.999999984               0.000009008               0.001280228               0.999999984              -0.000033888               0.001290112               0.999999984               0.000253730               0.001225806               0.999999984               0.000168953               0.001192523               0.999999984               0.000135500               0.001173706               0.999999984               0.000123827               0.001169624               0.999999984               0.000121802               0.001177136               0.999999984               0.000123340               0.001192609               0.999999984               0.000125171               0.001213355               0.999999984               0.000125660               0.001237159               0.999999984               0.000123396               0.001262353               0.999999984               0.000117584               0.001287806               0.999999984               0.000107702               0.001312812               0.999999984               0.000093440               0.001336583               0.999999984               0.000073976               0.001358629               0.999999984               0.000048723               0.001378733               0.999999984               0.000017391               0.001396954               0.999999984              -0.000020317               0.001413462               0.999999984              -0.000064337               0.001428889               0.999999984               0.000192478               0.001273055               0.999999984               0.000124646               0.001262716               0.999999984               0.000095562               0.001254474               0.999999984               0.000083922               0.001254929               0.999999984               0.000080598               0.001264052               0.999999984               0.000080888               0.001280276               0.999999984               0.000082019               0.001301775               0.999999984               0.000082401               0.001326958               0.999999984               0.000080906               0.001354375               0.999999984               0.000076784               0.001382815               0.999999984               0.000069536               0.001411578               0.999999984               0.000058661               0.001439973               0.999999984               0.000043517               0.001467543               0.999999984               0.000023023               0.001493681               0.999999984              -0.000003764               0.001518192               0.999999984              -0.000037677               0.001540992               0.999999984              -0.000079894               0.001562342               0.999999984               0.000129378               0.001307409               0.999999984               0.000082121               0.001315354               0.999999984               0.000060590               0.001316780               0.999999984               0.000051201               0.001322266               0.999999984               0.000047826               0.001333890               0.999999984               0.000047298               0.001351493               0.999999984               0.000047762               0.001374228               0.999999984               0.000047906               0.001400916               0.999999984               0.000046984               0.001430415               0.999999984               0.000044397               0.001461575               0.999999984               0.000039658               0.001493755               0.999999984               0.000032332               0.001526363               0.999999984               0.000021773               0.001558899               0.999999984               0.000007155               0.001590870               0.999999984              -0.000012650               0.001621739               0.999999984              -0.000038985               0.001650991               0.999999984              -0.000073625               0.001678426               0.999999984               0.000065022               0.001328283               0.999999984               0.000040776               0.001347924               0.999999984               0.000029340               0.001356119               0.999999984               0.000024049               0.001365508               0.999999984               0.000021953               0.001379421               0.999999984               0.000021340               0.001398434               0.999999984               0.000021431               0.001422165               0.999999984               0.000021542               0.001449900               0.999999984               0.000021071               0.001480761               0.999999984               0.000019787               0.001513864               0.999999984               0.000017579               0.001548584               0.999999984               0.000013944               0.001584416               0.999999984               0.000008386               0.001620794               0.999999984               0.000000639               0.001657100               0.999999984              -0.000009954               0.001692840               0.999999984              -0.000024564               0.001727257               0.999999984              -0.000044559               0.001759580               0.999999984               0.000000000               0.001335368               0.999999984               0.000000000               0.001359019               0.999999984               0.000000000               0.001369652               0.999999984               0.000000000               0.001380537               0.999999984              -0.000000000               0.001395314               0.999999984              -0.000000000               0.001414891               0.999999984               0.000000000               0.001439005               0.999999984              -0.000000000               0.001467143               0.999999984               0.000000000               0.001498540               0.999999984              -0.000000000               0.001532295               0.999999984              -0.000000000               0.001567961               0.999999984              -0.000000000               0.001605066               0.999999984               0.000000000               0.001642917               0.999999984               0.000000000               0.001680882               0.999999984               0.000000000               0.001718454               0.999999984               0.000000000               0.001754869               0.999999984              -0.000000000               0.001789104               0.999999984 </DataArray>
<DataArray type="Float64"                                    Name="defo"                                                      NumberOfComponents=" 3" format="ascii">
             -0.000688484               0.000000000               0.999999984              -0.000738013               0.000000000               0.999999984              -0.000759393               0.000000000               0.999999984              -0.000771198              -0.000000000               0.999999984              -0.000780296               0.000000000               0.999999984              -0.000789396              -0.000000000               0.999999984              -0.000799464               0.000000000               0.999999984              -0.000810703               0.000000000               0.999999984              -0.000823113               0.000000000               0.999999984              -0.000836425              -0.000000000               0.999999984              -0.000850335               0.000000000               0.999999984              -0.000864579               0.000000000               0.999999984              -0.000878996               0.000000000               0.999999984              -0.000893401              -0.000000000               0.999999984              -0.000907400               0.000000000               0.999999984              -0.000920541              -0.000000000               0.999999984              -0.000932158               0.000000000               0.999999984              -0.000684587               0.000128278               0.999999984              -0.000730464               0.000104615               0.999999984              -0.000749593               0.000094570               0.999999984              -0.000759921               0.000091241               0.999999984              -0.000768022               0.000091573               0.999999984              -0.000776432               0.000093761               0.999999984              -0.000785963               0.000096787               0.999999984              -0.000796723               0.000100163               0.999999984              -0.000808545               0.000103418               0.999999984              -0.000821165               0.000106052               0.999999984              -0.000834245               0.000107786               0.999999984              -0.000847554               0.000108675               0.999999984              -0.000860898               0.000108549               0.999999984              -0.000873953               0.000106745               0.999999984              -0.000886344               0.000102880               0.999999984              -0.000897618               0.000096066               0.999999984              -0.000907278               0.000085171               0.999999984              -0.000673300               0.000255268               0.999999984              -0.000708471               0.000208608               0.999999984              -0.000721096               0.000189515               0.999999984              -0.000727528               0.000183824               0.999999984              -0.000733288               0.000185103               0.999999984              -0.000740028               0.000189835               0.999999984              -0.000748191               0.000196053               0.999999984              -0.000757536               0.000202759               0.999999984              -0.000767661               0.000209195               0.999999984              -0.000778284               0.000214483               0.999999984              -0.000789107               0.000218100               0.999999984              -0.000799885               0.000220002               0.999999984              -0.000810171               0.000219651               0.999999984              -0.000819597               0.000216129               0.999999984              -0.000827801               0.000208745               0.999999984              -0.000834380               0.000196325               0.999999984              -0.000839094               0.000177550               0.999999984              -0.000654729               0.000379848               0.999999984              -0.000672976               0.000311540               0.999999984              -0.000676233               0.000285362               0.999999984              -0.000677580               0.000278907               0.999999984              -0.000680381               0.000282083               0.999999984              -0.000685150               0.000289944               0.999999984              -0.000691587               0.000299605               0.999999984              -0.000699044               0.000309556               0.999999984              -0.000707010               0.000319004               0.999999984              -0.000714940               0.000326694               0.999999984              -0.000722419               0.000332149               0.999999984              -0.000729016               0.000335017               0.999999984              -0.000734367               0.000334551               0.999999984              -0.000738081               0.000329815               0.999999984              -0.000739857               0.000320053               0.999999984              -0.000739642               0.000304368               0.999999984              -0.000737481               0.000281907               0.999999984              -0.000629086               0.000500889               0.999999984              -0.000625809               0.000413225               0.999999984              -0.000618632               0.000382399               0.999999984              -0.000615023               0.000376838               0.999999984              -0.000615352               0.000382886               0.999999984              -0.000618569               0.000394357               0.999999984              -0.000623577               0.000407525               0.999999984              -0.000629272               0.000420652               0.999999984              -0.000634771               0.000432554               0.999999984              -0.000639369               0.000442235               0.999999984              -0.000642583               0.000449093               0.999999984              -0.000643941               0.000452610               0.999999984              -0.000643023               0.000451948               0.999999984              -0.000639564               0.000446492               0.999999984              -0.000633606               0.000435653               0.999999984              -0.000625462               0.000419089               0.999999984              -0.000615711               0.000397264               0.999999984              -0.000596999               0.000617171               0.999999984              -0.000569434               0.000513539               0.999999984              -0.000552605               0.000480461               0.999999984              -0.000545545               0.000477111               0.999999984              -0.000544700               0.000486636               0.999999984              -0.000547226               0.000501689               0.999999984              -0.000551136               0.000518155               0.999999984              -0.000554918               0.000533986               0.999999984              -0.000557472               0.000548007               0.999999984              -0.000558047               0.000559132               0.999999984              -0.000556202               0.000566888               0.999999984              -0.000551383               0.000570549               0.999999984              -0.000543270               0.000569492               0.999999984              -0.000532028               0.000563444               0.999999984              -0.000518155               0.000552483               0.999999984              -0.000502364               0.000537210               0.999999984              -0.000485404               0.000518585               0.999999984              -0.000559111               0.000727533               0.999999984              -0.000506645               0.000612358               0.999999984              -0.000482619               0.000579117               0.999999984              -0.000474384               0.000578614               0.999999984              -0.000473840               0.000591615               0.999999984              -0.000476507               0.000609886               0.999999984              -0.000479514               0.000629129               0.999999984              -0.000481063               0.000647009               0.999999984              -0.000480056               0.000662531               0.999999984              -0.000475852               0.000674721               0.999999984              -0.000468015               0.000682883               0.999999984              -0.000456185               0.000686211               0.999999984              -0.000440452               0.000684631               0.999999984              -0.000421489               0.000678502               0.999999984              -0.000400063               0.000668488               0.999999984              -0.000376987               0.000655458               0.999999984              -0.000352925               0.000640602               0.999999984              -0.000516008               0.000830943               0.999999984              -0.000440517               0.000709499               0.999999984              -0.000412674               0.000677576               0.999999984              -0.000405716               0.000679849               0.999999984              -0.000406775               0.000695784               0.999999984              -0.000409855               0.000716793               0.999999984              -0.000411699               0.000738092               0.999999984              -0.000410446               0.000757604               0.999999984              -0.000405244               0.000774211               0.999999984              -0.000395479               0.000786966               0.999999984              -0.000380759               0.000794923               0.999999984              -0.000361191               0.000797754               0.999999984              -0.000337469               0.000795975               0.999999984              -0.000310499               0.000790461               0.999999984              -0.000281200               0.000782124               0.999999984              -0.000250447               0.000771832               0.999999984              -0.000218719               0.000760378               0.999999984              -0.000469338               0.000925476               0.999999984              -0.000373497               0.000804864               0.999999984              -0.000346461               0.000774475               0.999999984              -0.000342611               0.000778802               0.999999984              -0.000345719               0.000797201               0.999999984              -0.000349023               0.000820323               0.999999984              -0.000349131               0.000843358               0.999999984              -0.000344399               0.000864142               0.999999984              -0.000334205               0.000881469               0.999999984              -0.000317836               0.000894069               0.999999984              -0.000295127               0.000901533               0.999999984              -0.000266958               0.000904149               0.999999984              -0.000234424               0.000902878               0.999999984              -0.000198742               0.000898767               0.999999984              -0.000161063               0.000892842               0.999999984              -0.000122183               0.000885770               0.999999984              -0.000082920               0.000878193               0.999999984              -0.000421367               0.001014561               0.999999984              -0.000317916               0.000910587               0.999999984              -0.000287691               0.000875362               0.999999984              -0.000282567               0.000873315               0.999999984              -0.000285467               0.000886740               0.999999984              -0.000289258               0.000906966               0.999999984              -0.000290711               0.000929149               0.999999984              -0.000287980               0.000950674               0.999999984              -0.000280510               0.000970218               0.999999984              -0.000267597               0.000986739               0.999999984              -0.000248452               0.000999444               0.999999984              -0.000223606               0.001008349               0.999999984              -0.000193614               0.001013680               0.999999984              -0.000159544               0.001016253               0.999999984              -0.000122471               0.001016773               0.999999984              -0.000083361               0.001016066               0.999999984              -0.000043247               0.001014641               0.999999984              -0.000368738               0.001095519               0.999999984              -0.000265297               0.001012649               0.999999984              -0.000232036               0.000978764               0.999999984              -0.000224568               0.000972807               0.999999984              -0.000226376               0.000982395               0.999999984              -0.000230012               0.001000079               0.999999984              -0.000232184               0.001021322               0.999999984              -0.000231158               0.001043364               0.999999984              -0.000225912               0.001064698               0.999999984              -0.000215875               0.001084419               0.999999984              -0.000200168               0.001101544               0.999999984              -0.000178686               0.001115809               0.999999984              -0.000151890               0.001127072               0.999999984              -0.000120083               0.001135710               0.999999984              -0.000084155               0.001142203               0.999999984              -0.000045011               0.001147314               0.999999984              -0.000003768               0.001151634               0.999999984              -0.000312638               0.001166364               0.999999984              -0.000215665               0.001107945               0.999999984              -0.000180998               0.001079967               0.999999984              -0.000171049               0.001073404               0.999999984              -0.000171022               0.001080877               0.999999984              -0.000173780               0.001096855               0.999999984              -0.000176071               0.001117562               0.999999984              -0.000176191               0.001140291               0.999999984              -0.000172696               0.001163411               0.999999984              -0.000164969               0.001185965               0.999999984              -0.000152378               0.001207059               0.999999984              -0.000134456               0.001226103               0.999999984              -0.000111121               0.001242803               0.999999984              -0.000082214               0.001257150               0.999999984              -0.000047997               0.001269458               0.999999984              -0.000009008               0.001280228               0.999999984               0.000033888               0.001290112               0.999999984              -0.000253730               0.001225806               0.999999984              -0.000168953               0.001192523               0.999999984              -0.000135500               0.001173706               0.999999984              -0.000123827               0.001169624               0.999999984              -0.000121802               0.001177136               0.999999984              -0.000123340               0.001192609               0.999999984              -0.000125171               0.001213355               0.999999984              -0.000125660               0.001237159               0.999999984              -0.000123396               0.001262353               0.999999984              -0.000117584               0.001287806               0.999999984              -0.000107702               0.001312812               0.999999984              -0.000093440               0.001336583               0.999999984              -0.000073976               0.001358629               0.999999984              -0.000048723               0.001378733               0.999999984              -0.000017391               0.001396954               0.999999984               0.000020317               0.001413462               0.999999984               0.000064337               0.001428889               0.999999984              -0.000192478               0.001273055               0.999999984              -0.000124646               0.001262716               0.999999984              -0.000095562               0.001254474               0.999999984              -0.000083922               0.001254929               0.999999984              -0.000080598               0.001264052               0.999999984              -0.000080888               0.001280276               0.999999984              -0.000082019               0.001301775               0.999999984              -0.000082401               0.001326958               0.999999984              -0.000080906               0.001354375               0.999999984              -0.000076784               0.001382815               0.999999984              -0.000069536               0.001411578               0.999999984              -0.000058661               0.001439973               0.999999984              -0.000043517               0.001467543               0.999999984              -0.000023023               0.001493681               0.999999984               0.000003764               0.001518192               0.999999984               0.000037677               0.001540992               0.999999984               0.000079894               0.001562342               0.999999984              -0.000129378               0.001307409               0.999999984              -0.000082121               0.001315354               0.999999984              -0.000060590               0.001316780               0.999999984              -0.000051201               0.001322266               0.999999984              -0.000047826               0.001333890               0.999999984              -0.000047298               0.001351493               0.999999984              -0.000047762               0.001374228               0.999999984              -0.000047906               0.001400916               0.999999984              -0.000046984               0.001430415               0.999999984              -0.000044397               0.001461575               0.999999984              -0.000039658               0.001493755               0.999999984              -0.000032332               0.001526363               0.999999984              -0.000021773               0.001558899               0.999999984              -0.000007155               0.001590870               0.999999984               0.000012650               0.001621739               0.999999984               0.000038985               0.001650991               0.999999984               0.000073625               0.001678426               0.999999984              -0.000065022               0.001328283               0.999999984              -0.000040776               0.001347924               0.999999984              -0.000029340               0.001356119               0.999999984              -0.000024049               0.001365508               0.999999984              -0.000021953               0.001379421               0.999999984              -0.000021340               0.001398434               0.999999984              -0.000021431               0.001422165               0.999999984              -0.000021542               0.001449900               0.999999984              -0.000021071               0.001480761               0.999999984              -0.000019787               0.001513864               0.999999984              -0.000017579               0.001548584               0.999999984              -0.000013944               0.001584416               0.999999984              -0.000008386               0.001620794               0.999999984              -0.000000639               0.001657100               0.999999984               0.000009954               0.001692840               0.999999984               0.000024564               0.001727257               0.999999984               0.000044559               0.001759580               0.999999984               0.000000000               0.001335368               0.999999984               0.000000000               0.001359019               0.999999984               0.000000000               0.001369652               0.999999984               0.000000000               0.001380537               0.999999984              -0.000000000               0.001395314               0.999999984              -0.000000000               0.001414891               0.999999984               0.000000000               0.001439005               0.999999984              -0.000000000               0.001467143               0.999999984               0.000000000               0.001498540               0.999999984              -0.000000000               0.001532295               0.999999984              -0.000000000               0.001567961               0.999999984              -0.000000000               0.001605066               0.999999984               0.000000000               0.001642917               0.999999984               0.000000000               0.001680882               0.999999984               0.000000000               0.001718454               0.999999984               0.000000000               0.001754869               0.999999984              -0.000000000               0.001789104               0.999999984              -0.000688484               0.000000000               0.999999984              -0.000738013               0.000000000               0.999999984              -0.000759393               0.000000000               0.999999984              -0.000771198              -0.000000000               0.999999984              -0.000780296               0.000000000               0.999999984              -0.000789396              -0.000000000               0.999999984              -0.000799464               0.000000000               0.999999984              -0.000810703               0.000000000               0.999999984              -0.000823113               0.000000000               0.999999984              -0.000836425              -0.000000000               0.999999984              -0.000850335               0.000000000               0.999999984              -0.000864579               0.000000000               0.999999984              -0.000878996               0.000000000               0.999999984              -0.000893401              -0.000000000               0.999999984              -0.000907400               0.000000000               0.999999984              -0.000920541              -0.000000000               0.999999984              -0.000932158               0.000000000               0.999999984              -0.000684587              -0.000128278               0.999999984              -0.000730464              -0.000104615               0.999999984              -0.000749593              -0.000094570               0.999999984              -0.000759921              -0.000091241               0.999999984              -0.000768022              -0.000091573               0.999999984              -0.000776432              -0.000093761               0.999999984              -0.000785963              -0.000096787               0.999999984              -0.000796723              -0.000100163               0.999999984              -0.000808545              -0.000103418               0.999999984              -0.000821165              -0.000106052               0.999999984              -0.000834245              -0.000107786               0.999999984              -0.000847554              -0.000108675               0.999999984              -0.000860898              -0.000108549               0.999999984              -0.000873953              -0.000106745               0.999999984              -0.000886344              -0.000102880               0.999999984              -0.000897618              -0.000096066               0.999999984              -0.000907278              -0.000085171               0.999999984              -0.000673300              -0.000255268               0.999999984              -0.000708471              -0.000208608               0.999999984              -0.000721096              -0.000189515               0.999999984              -0.000727528              -0.000183824               0.999999984              -0.000733288              -0.000185103               0.999999984              -0.000740028              -0.000189835               0.999999984              -0.000748191              -0.000196053               0.999999984              -0.000757536              -0.000202759               0.999999984              -0.000767661              -0.000209195               0.999999984              -0.000778284              -0.000214483               0.999999984              -0.000789107              -0.000218100               0.999999984              -0.000799885              -0.000220002               0.999999984              -0.000810171              -0.000219651               0.999999984              -0.000819597              -0.000216129               0.999999984              -0.000827801              -0.000208745               0.999999984              -0.000834380              -0.000196325               0.999999984              -0.000839094              -0.000177550               0.999999984              -0.000654729              -0.000379848               0.999999984              -0.000672976              -0.000311540               0.999999984              -0.000676233              -0.000285362               0.999999984              -0.000677580              -0.000278907               0.999999984              -0.000680381              -0.000282083               0.999999984              -0.000685150              -0.000289944               0.999999984              -0.000691587              -0.000299605               0.999999984              -0.000699044              -0.000309556               0.999999984              -0.000707010              -0.000319004               0.999999984              -0.000714940              -0.000326694               0.999999984              -0.000722419              -0.000332149               0.999999984              -0.000729016              -0.000335017               0.999999984              -0.000734367              -0.000334551               0.999999984              -0.000738081              -0.000329815               0.999999984              -0.000739857              -0.000320053               0.999999984              -0.000739642              -0.000304368               0.999999984              -0.000737481              -0.000281907               0.999999984              -0.000629086              -0.000500889               0.999999984              -0.000625809              -0.000413225               0.999999984              -0.000618632              -0.000382399               0.999999984              -0.000615023              -0.000376838               0.999999984              -0.000615352              -0.000382886               0.999999984              -0.000618569              -0.000394357               0.999999984              -0.000623577              -0.000407525               0.999999984              -0.000629272              -0.000420652               0.999999984              -0.000634771              -0.000432554               0.999999984              -0.000639369              -0.000442235               0.999999984              -0.000642583              -0.000449093               0.999999984              -0.000643941              -0.000452610               0.999999984              -0.000643023              -0.000451948               0.999999984              -0.000639564              -0.000446492               0.999999984              -0.000633606              -0.000435653               0.999999984              -0.000625462              -0.000419089               0.999999984              -0.000615711              -0.000397264               0.999999984              -0.000596999              -0.000617171               0.999999984              -0.000569434              -0.000513539               0.999999984              -0.000552605              -0.000480461               0.999999984              -0.000545545              -0.000477111               0.999999984              -0.000544700              -0.000486636               0.999999984              -0.000547226              -0.000501689               0.999999984              -0.000551136              -0.000518155               0.999999984              -0.000554918              -0.000533986               0.999999984              -0.000557472              -0.000548007               0.999999984              -0.000558047              -0.000559132               0.999999984              -0.000556202              -0.000566888               0.999999984              -0.000551383              -0.000570549               0.999999984              -0.000543270              -0.000569492               0.999999984              -0.000532028              -0.000563444               0.999999984              -0.000518155              -0.000552483               0.999999984              -0.000502364              -0.000537210               0.999999984              -0.000485404              -0.000518585               0.999999984              -0.000559111              -0.000727533               0.999999984              -0.000506645              -0.000612358               0.999999984              -0.000482619              -0.000579117               0.999999984              -0.000474384              -0.000578614               0.999999984              -0.000473840              -0.000591615               0.999999984              -0.000476507              -0.000609886               0.999999984              -0.000479514              -0.000629129               0.999999984              -0.000481063              -0.000647009               0.999999984              -0.000480056              -0.000662531               0.999999984              -0.000475852              -0.000674721               0.999999984              -0.000468015              -0.000682883               0.999999984              -0.000456185              -0.000686211               0.999999984              -0.000440452              -0.000684631               0.999999984              -0.000421489              -0.000678502               0.999999984              -0.000400063              -0.000668488               0.999999984              -0.000376987              -0.000655458               0.999999984              -0.000352925              -0.000640602               0.999999984              -0.000516008              -0.000830943               0.999999984              -0.000440517              -0.000709499               0.999999984              -0.000412674              -0.000677576               0.999999984              -0.000405716              -0.000679849               0.999999984              -0.000406775              -0.000695784               0.999999984              -0.000409855              -0.000716793               0.999999984              -0.000411699              -0.000738092               0.999999984              -0.000410446              -0.000757604               0.999999984              -0.000405244              -0.000774211               0.999999984              -0.000395479              -0.000786966               0.999999984              -0.000380759              -0.000794923               0.999999984              -0.000361191              -0.000797754               0.999999984              -0.000337469              -0.000795975               0.999999984              -0.000310499              -0.000790461               0.999999984              -0.000281200              -0.000782124               0.999999984              -0.000250447              -0.000771832               0.999999984              -0.000218719              -0.000760378               0.999999984              -0.000469338              -0.000925476               0.999999984              -0.000373497              -0.000804864               0.999999984              -0.000346461              -0.000774475               0.999999984              -0.000342611              -0.000778802               0.999999984              -0.000345719              -0.000797201               0.999999984              -0.000349023              -0.000820323               0.999999984              -0.000349131              -0.000843358               0.999999984              -0.000344399              -0.000864142               0.999999984              -0.000334205              -0.000881469               0.999999984              -0.000317836              -0.000894069               0.999999984              -0.000295127              -0.000901533               0.999999984              -0.000266958              -0.000904149               0.999999984              -0.000234424              -0.000902878               0.999999984              -0.000198742              -0.000898767               0.999999984              -0.000161063              -0.000892842               0.999999984              -0.000122183              -0.000885770               0.999999984              -0.000082920              -0.000878193               0.999999984              -0.000421367              -0.001014561               0.999999984              -0.000317916              -0.000910587               0.999999984              -0.000287691              -0.000875362               0.999999984              -0.000282567              -0.000873315               0.999999984              -0.000285467              -0.000886740               0.999999984              -0.000289258              -0.000906966               0.999999984              -0.000290711              -0.000929149               0.999999984              -0.000287980              -0.000950674               0.999999984              -0.000280510              -0.000970218               0.999999984              -0.000267597              -0.000986739               0.999999984              -0.000248452              -0.000999444               0.999999984              -0.000223606              -0.001008349               0.999999984              -0.000193614              -0.001013680               0.999999984              -0.000159544              -0.001016253               0.999999984              -0.000122471              -0.001016773               0.999999984              -0.000083361              -0.001016066               0.999999984              -0.000043247              -0.001014641               0.999999984              -0.000368738              -0.001095519               0.999999984              -0.000265297              -0.001012649               0.999999984              -0.000232036              -0.000978764               0.999999984              -0.000224568              -0.000972807               0.999999984              -0.000226376              -0.000982395               0.999999984              -0.000230012              -0.001000079               0.999999984              -0.000232184              -0.001021322               0.999999984              -0.000231158              -0.001043364               0.999999984              -0.000225912              -0.001064698               0.999999984              -0.000215875              -0.001084419               0.999999984              -0.000200168              -0.001101544               0.999999984              -0.000178686              -0.001115809               0.999999984              -0.000151890              -0.001127072               0.999999984              -0.000120083              -0.001135710               0.999999984              -0.000084155              -0.001142203               0.999999984              -0.000045011              -0.001147314               0.999999984              -0.000003768              -0.001151634               0.999999984              -0.000312638              -0.001166364               0.999999984              -0.000215665              -0.001107945               0.999999984              -0.000180998              -0.001079967               0.999999984              -0.000171049              -0.001073404               0.999999984              -0.000171022              -0.001080877               0.999999984              -0.000173780              -0.001096855               0.999999984              -0.000176071              -0.001117562               0.999999984              -0.000176191              -0.001140291               0.999999984              -0.000172696              -0.001163411               0.999999984              -0.000164969              -0.001185965               0.999999984              -0.000152378              -0.001207059               0.999999984              -0.000134456              -0.001226103               0.999999984              -0.000111121              -0.001242803               0.999999984              -0.000082214              -0.001257150               0.999999984              -0.000047997              -0.001269458               0.999999984              -0.000009008              -0.001280228               0.999999984               0.000033888              -0.001290112               0.999999984              -0.000253730              -0.001225806               0.999999984              -0.000168953              -0.001192523               0.999999984              -0.000135500              -0.001173706               0.999999984              -0.000123827              -0.001169624               0.999999984              -0.000121802              -0.001177136               0.999999984              -0.000123340              -0.001192609               0.999999984              -0.000125171              -0.001213355               0.999999984              -0.000125660              -0.001237159               0.999999984              -0.000123396              -0.001262353               0.999999984              -0.000117584              -0.001287806               0.999999984              -0.000107702              -0.001312812               0.999999984              -0.000093440              -0.001336583               0.999999984              -0.000073976              -0.001358629               0.999999984              -0.000048723              -0.001378733               0.999999984              -0.000017391              -0.001396954               0.999999984               0.000020317              -0.001413462               0.999999984               0.000064337              -0.001428889               0.999999984              -0.000192478              -0.001273055               0.999999984              -0.000124646              -0.001262716               0.999999984              -0.000095562              -0.001254474               0.999999984              -0.000083922              -0.001254929               0.999999984              -0.000080598              -0.001264052               0.999999984              -0.000080888              -0.001280276               0.999999984              -0.000082019              -0.001301775               0.999999984              -0.000082401              -0.001326958               0.999999984              -0.000080906              -0.001354375               0.999999984              -0.000076784              -0.001382815               0.999999984              -0.000069536              -0.001411578               0.999999984              -0.000058661              -0.001439973               0.999999984              -0.000043517              -0.001467543               0.999999984              -0.000023023              -0.001493681               0.999999984               0.000003764              -0.001518192               0.999999984               0.000037677              -0.001540992               0.999999984               0.000079894              -0.001562342               0.999999984              -0.000129378              -0.001307409               0.999999984              -0.000082121              -0.001315354               0.999999984              -0.000060590              -0.001316780               0.999999984              -0.000051201              -0.001322266               0.999999984              -0.000047826              -0.001333890               0.999999984              -0.000047298              -0.001351493               0.999999984              -0.000047762              -0.001374228               0.999999984              -0.000047906              -0.001400916               0.999999984              -0.000046984              -0.001430415               0.999999984              -0.000044397              -0.001461575               0.999999984              -0.000039658              -0.001493755               0.999999984              -0.000032332              -0.001526363               0.999999984              -0.000021773              -0.001558899               0.999999984              -0.000007155              -0.001590870               0.999999984               0.000012650              -0.001621739               0.999999984               0.000038985              -0.001650991               0.999999984               0.000073625              -0.001678426               0.999999984              -0.000065022              -0.001328283               0.999999984              -0.000040776              -0.001347924               0.999999984              -0.000029340              -0.001356119               0.999999984              -0.000024049              -0.001365508               0.999999984              -0.000021953              -0.001379421               0.999999984              -0.000021340              -0.001398434               0.999999984              -0.000021431              -0.001422165               0.999999984              -0.000021542              -0.001449900               0.999999984              -0.000021071              -0.001480761               0.999999984              -0.000019787              -0.001513864               0.999999984              -0.000017579              -0.001548584               0.999999984              -0.000013944              -0.001584416               0.999999984              -0.000008386              -0.001620794               0.999999984              -0.000000639              -0.001657100               0.999999984               0.000009954              -0.001692840               0.999999984               0.000024564              -0.001727257               0.999999984               0.000044559              -0.001759580               0.999999984               0.000000000              -0.001335368               0.999999984              -0.000000000              -0.001359019               0.999999984               0.000000000              -0.001369652               0.999999984              -0.000000000              -0.001380537               0.999999984              -0.000000000              -0.001395314               0.999999984              -0.000000000              -0.001414891               0.999999984              -0.000000000              -0.001439005               0.999999984               0.000000000              -0.001467143               0.999999984               0.000000000              -0.001498540               0.999999984              -0.000000000              -0.001532295               0.999999984               0.000000000              -0.001567961               0.999999984               0.000000000              -0.001605066               0.999999984              -0.000000000              -0.001642917               0.999999984              -0.000000000              -0.001680882               0.999999984              -0.000000000              -0.001718454               0.999999984               0.000000000              -0.001754869               0.999999984              -0.000000000              -0.001789104               0.999999984               0.000688484              -0.000000000               0.999999984               0.000738013              -0.000000000               0.999999984               0.000759393               0.000000000               0.999999984               0.000771198              -0.000000000               0.999999984               0.000780296               0.000000000               0.999999984               0.000789396              -0.000000000               0.999999984               0.000799464               0.000000000               0.999999984               0.000810703               0.000000000               0.999999984               0.000823113               0.000000000               0.999999984               0.000836425              -0.000000000               0.999999984               0.000850335               0.000000000               0.999999984               0.000864579              -0.000000000               0.999999984               0.000878996              -0.000000000               0.999999984               0.000893401               0.000000000               0.999999984               0.000907400              -0.000000000               0.999999984               0.000920541               0.000000000               0.999999984               0.000932158               0.000000000               0.999999984               0.000684587              -0.000128278               0.999999984               0.000730464              -0.000104615               0.999999984               0.000749593              -0.000094570               0.999999984               0.000759921              -0.000091241               0.999999984               0.000768022              -0.000091573               0.999999984               0.000776432              -0.000093761               0.999999984               0.000785963              -0.000096787               0.999999984               0.000796723              -0.000100163               0.999999984               0.000808545              -0.000103418               0.999999984               0.000821165              -0.000106052               0.999999984               0.000834245              -0.000107786               0.999999984               0.000847554              -0.000108675               0.999999984               0.000860898              -0.000108549               0.999999984               0.000873953              -0.000106745               0.999999984               0.000886344              -0.000102880               0.999999984               0.000897618              -0.000096066               0.999999984               0.000907278              -0.000085171               0.999999984               0.000673300              -0.000255268               0.999999984               0.000708471              -0.000208608               0.999999984               0.000721096              -0.000189515               0.999999984               0.000727528              -0.000183824               0.999999984               0.000733288              -0.000185103               0.999999984               0.000740028              -0.000189835               0.999999984               0.000748191              -0.000196053               0.999999984               0.000757536              -0.000202759               0.999999984               0.000767661              -0.000209195               0.999999984               0.000778284              -0.000214483               0.999999984               0.000789107              -0.000218100               0.999999984               0.000799885              -0.000220002               0.999999984               0.000810171              -0.000219651               0.999999984               0.000819597              -0.000216129               0.999999984               0.000827801              -0.000208745               0.999999984               0.000834380              -0.000196325               0.999999984               0.000839094              -0.000177550               0.999999984               0.000654729              -0.000379848               0.999999984               0.000672976              -0.000311540               0.999999984               0.000676233              -0.000285362               0.999999984               0.000677580              -0.000278907               0.999999984               0.000680381              -0.000282083               0.999999984               0.000685150              -0.000289944               0.999999984               0.000691587              -0.000299605               0.999999984               0.000699044              -0.000309556               0.999999984               0.000707010              -0.000319004               0.999999984               0.000714940              -0.000326694               0.999999984               0.000722419              -0.000332149               0.999999984               0.000729016              -0.000335017               0.999999984               0.000734367              -0.000334551               0.999999984               0.000738081              -0.000329815               0.999999984               0.000739857              -0.000320053               0.999999984               0.000739642              -0.000304368               0.999999984               0.000737481              -0.000281907               0.999999984               0.000629086              -0.000500889               0.999999984               0.000625809              -0.000413225               0.999999984               0.000618632              -0.000382399               0.999999984               0.000615023              -0.000376838               0.999999984               0.000615352              -0.000382886               0.999999984               0.000618569              -0.000394357               0.999999984               0.000623577              -0.000407525               0.999999984               0.000629272              -0.000420652               0.999999984               0.000634771              -0.000432554               0.999999984               0.000639369              -0.000442235               0.999999984               0.000642583              -0.000449093               0.999999984               0.000643941              -0.000452610               0.999999984               0.000643023              -0.000451948               0.999999984               0.000639564              -0.000446492               0.999999984               0.000633606              -0.000435653               0.999999984               0.000625462              -0.000419089               0.999999984               0.000615711              -0.000397264               0.999999984               0.000596999              -0.000617171               0.999999984               0.000569434              -0.000513539               0.999999984               0.000552605              -0.000480461               0.999999984               0.000545545              -0.000477111               0.999999984               0.000544700              -0.000486636               0.999999984               0.000547226              -0.000501689               0.999999984               0.000551136              -0.000518155               0.999999984               0.000554918              -0.000533986               0.999999984               0.000557472              -0.000548007               0.999999984               0.000558047              -0.000559132               0.999999984               0.000556202              -0.000566888               0.999999984               0.000551383              -0.000570549               0.999999984               0.000543270              -0.000569492               0.999999984               0.000532028              -0.000563444               0.999999984               0.000518155              -0.000552483               0.999999984               0.000502364              -0.000537210               0.999999984               0.000485404              -0.000518585               0.999999984               0.000559111              -0.000727533               0.999999984               0.000506645              -0.000612358               0.999999984               0.000482619              -0.000579117               0.999999984               0.000474384              -0.000578614               0.999999984               0.000473840              -0.000591615               0.999999984               0.000476507              -0.000609886               0.999999984               0.000479514              -0.000629129               0.999999984               0.000481063              -0.000647009               0.999999984               0.000480056              -0.000662531               0.999999984               0.000475852              -0.000674721               0.999999984               0.000468015              -0.000682883               0.999999984               0.000456185              -0.000686211               0.999999984               0.000440452              -0.000684631               0.999999984               0.000421489              -0.000678502               0.999999984               0.000400063              -0.000668488               0.999999984               0.000376987              -0.000655458               0.999999984               0.000352925              -0.000640602               0.999999984               0.000516008              -0.000830943               0.999999984               0.000440517              -0.000709499               0.999999984               0.000412674              -0.000677576               0.999999984               0.000405716              -0.000679849               0.999999984               0.000406775              -0.000695784               0.999999984               0.000409855              -0.000716793               0.999999984               0.000411699              -0.000738092               0.999999984               0.000410446              -0.000757604               0.999999984               0.000405244              -0.000774211               0.999999984               0.000395479              -0.000786966               0.999999984               0.000380759              -0.000794923               0.999999984               0.000361191              -0.000797754               0.999999984               0.000337469              -0.000795975               0.999999984               0.000310499              -0.000790461               0.999999984               0.000281200              -0.000782124               0.999999984               0.000250447              -0.000771832               0.999999984               0.000218719              -0.000760378               0.999999984               0.000469338              -0.000925476               0.999999984               0.000373497              -0.000804864               0.999999984               0.000346461              -0.000774475               0.999999984               0.000342611              -0.000778802               0.999999984               0.000345719              -0.000797201               0.999999984               0.000349023              -0.000820323               0.999999984               0.000349131              -0.000843358               0.999999984               0.000344399              -0.000864142               0.999999984               0.000334205              -0.000881469               0.999999984               0.000317836              -0.000894069               0.999999984               0.000295127              -0.000901533               0.999999984               0.000266958              -0.000904149               0.999999984               0.000234424              -0.000902878               0.999999984               0.000198742              -0.000898767               0.999999984               0.000161063              -0.000892842               0.999999984               0.000122183              -0.000885770               0.999999984               0.000082920              -0.000878193               0.999999984               0.000421367              -0.001014561               0.999999984               0.000317916              -0.000910587               0.999999984               0.000287691              -0.000875362               0.999999984               0.000282567              -0.000873315               0.999999984               0.000285467              -0.000886740               0.999999984               0.000289258              -0.000906966               0.999999984               0.000290711              -0.000929149               0.999999984               0.000287980              -0.000950674               0.999999984               0.000280510              -0.000970218               0.999999984               0.000267597              -0.000986739               0.999999984               0.000248452              -0.000999444               0.999999984               0.000223606              -0.001008349               0.999999984               0.000193614              -0.001013680               0.999999984               0.000159544              -0.001016253               0.999999984               0.000122471              -0.001016773               0.999999984               0.000083361              -0.001016066               0.999999984               0.000043247              -0.001014641               0.999999984               0.000368738              -0.001095519               0.999999984               0.000265297              -0.001012649               0.999999984               0.000232036              -0.000978764               0.999999984               0.000224568              -0.000972807               0.999999984               0.000226376              -0.000982395               0.999999984               0.000230012              -0.001000079               0.999999984               0.000232184              -0.001021322               0.999999984               0.000231158              -0.001043364               0.999999984               0.000225912              -0.001064698               0.999999984               0.000215875              -0.001084419               0.999999984               0.000200168              -0.001101544               0.999999984               0.000178686              -0.001115809               0.999999984               0.000151890              -0.001127072               0.999999984               0.000120083              -0.001135710               0.999999984               0.000084155              -0.001142203               0.999999984               0.000045011              -0.001147314               0.999999984               0.000003768              -0.001151634               0.999999984               0.000312638              -0.001166364               0.999999984               0.000215665              -0.001107945               0.999999984               0.000180998              -0.001079967               0.999999984               0.000171049              -0.001073404               0.999999984               0.000171022              -0.001080877               0.999999984               0.000173780              -0.001096855               0.999999984               0.000176071              -0.001117562               0.999999984               0.000176191              -0.001140291               0.999999984               0.000172696              -0.001163411               0.999999984               0.000164969              -0.001185965               0.999999984               0.000152378              -0.001207059               0.999999984               0.000134456              -0.001226103               0.999999984               0.000111121              -0.001242803               0.999999984               0.000082214              -0.001257150               0.999999984               0.000047997              -0.001269458               0.999999984               0.000009008              -0.001280228               0.999999984              -0.000033888              -0.001290112               0.999999984               0.000253730              -0.001225806               0.999999984               0.000168953              -0.001192523               0.999999984               0.000135500              -0.001173706               0.999999984               0.000123827              -0.001169624               0.999999984               0.000121802              -0.001177136               0.999999984               0.000123340              -0.001192609               0.999999984               0.000125171              -0.001213355               0.999999984               0.000125660              -0.001237159               0.999999984               0.000123396              -0.001262353               0.999999984               0.000117584              -0.001287806               0.999999984               0.000107702              -0.001312812               0.999999984               0.000093440              -0.001336583               0.999999984               0.000073976              -0.001358629               0.999999984               0.000048723              -0.001378733               0.999999984               0.000017391              -0.001396954               0.999999984              -0.000020317              -0.001413462               0.999999984              -0.000064337              -0.001428889               0.999999984               0.000192478              -0.001273055               0.999999984               0.000124646              -0.001262716               0.999999984               0.000095562              -0.001254474               0.999999984               0.000083922              -0.001254929               0.999999984               0.000080598              -0.001264052               0.999999984               0.000080888              -0.001280276               0.999999984               0.000082019              -0.001301775               0.999999984               0.000082401              -0.001326958               0.999999984               0.000080906              -0.001354375               0.999999984               0.000076784              -0.001382815               0.999999984               0.000069536              -0.001411578               0.999999984               0.000058661              -0.001439973               0.999999984               0.000043517              -0.001467543               0.999999984               0.000023023              -0.001493681               0.999999984              -0.000003764              -0.001518192               0.999999984              -0.000037677              -0.001540992               0.999999984              -0.000079894              -0.001562342               0.999999984               0.000129378              -0.001307409               0.999999984               0.000082121              -0.001315354               0.999999984               0.000060590              -0.001316780               0.999999984               0.000051201              -0.001322266               0.999999984               0.000047826              -0.001333890               0.999999984               0.000047298              -0.001351493               0.999999984               0.000047762              -0.001374228               0.999999984               0.000047906              -0.001400916               0.999999984               0.000046984              -0.001430415               0.999999984               0.000044397              -0.001461575               0.999999984               0.000039658              -0.001493755               0.999999984               0.000032332              -0.001526363               0.999999984               0.000021773              -0.001558899               0.999999984               0.000007155              -0.001590870               0.999999984              -0.000012650              -0.001621739               0.999999984              -0.000038985              -0.001650991               0.999999984              -0.000073625              -0.001678426               0.999999984               0.000065022              -0.001328283               0.999999984               0.000040776              -0.001347924               0.999999984               0.000029340              -0.001356119               0.999999984               0.000024049              -0.001365508               0.999999984               0.000021953              -0.001379421               0.999999984               0.000021340              -0.001398434               0.999999984               0.000021431              -0.001422165               0.999999984               0.000021542              -0.001449900               0.999999984               0.000021071              -0.001480761               0.999999984               0.000019787              -0.001513864               0.999999984               0.000017579              -0.001548584               0.999999984               0.000013944              -0.001584416               0.999999984               0.000008386              -0.001620794               0.999999984               0.000000639              -0.001657100               0.999999984              -0.000009954              -0.001692840               0.999999984              -0.000024564              -0.001727257               0.999999984              -0.000044559              -0.001759580               0.999999984               0.000000000              -0.001335368               0.999999984              -0.000000000              -0.001359019               0.999999984               0.000000000              -0.001369652               0.999999984              -0.000000000              -0.001380537               0.999999984              -0.000000000              -0.001395314               0.999999984              -0.000000000              -0.001414891               0.999999984              -0.000000000              -0.001439005               0.999999984               0.000000000              -0.001467143               0.999999984               0.000000000              -0.001498540               0.999999984              -0.000000000              -0.001532295               0.999999984               0.000000000              -0.001567961               0.999999984               0.000000000              -0.001605066               0.999999984              -0.000000000              -0.001642917               0.999999984              -0.000000000              -0.001680882               0.999999984              -0.000000000              -0.001718454               0.999999984               0.000000000              -0.001754869               0.999999984              -0.000000000              -0.001789104               0.999999984               0.000688484              -0.000000000               0.999999984               0.000738013              -0.000000000               0.999999984               0.000759393               0.000000000               0.999999984               0.000771198              -0.000000000               0.999999984               0.000780296               0.000000000               0.999999984               0.000789396              -0.000000000               0.999999984               0.000799464               0.000000000               0.999999984               0.000810703               0.000000000               0.999999984               0.000823113               0.000000000               0.999999984               0.000836425              -0.000000000               0.999999984               0.000850335               0.000000000               0.999999984               0.000864579              -0.000000000               0.999999984               0.000878996              -0.000000000               0.999999984               0.000893401               0.000000000               0.999999984               0.000907400              -0.000000000               0.999999984               0.000920541               0.000000000               0.999999984               0.000932158               0.000000000               0.999999984               0.000684587               0.000128278               0.999999984               0.000730464               0.000104615               0.999999984               0.000749593               0.000094570               0.999999984               0.000759921               0.000091241               0.999999984               0.000768022               0.000091573               0.999999984               0.000776432               0.000093761               0.999999984               0.000785963               0.000096787               0.999999984               0.000796723               0.000100163               0.999999984               0.000808545               0.000103418               0.999999984               0.000821165               0.000106052               0.999999984               0.000834245               0.000107786               0.999999984               0.000847554               0.000108675               0.999999984               0.000860898               0.000108549               0.999999984               0.000873953               0.000106745               0.999999984               0.000886344               0.000102880               0.999999984               0.000897618               0.000096066               0.999999984               0.000907278               0.000085171               0.999999984               0.000673300               0.000255268               0.999999984               0.000708471               0.000208608               0.999999984               0.000721096               0.000189515               0.999999984               0.000727528               0.000183824               0.999999984               0.000733288               0.000185103               0.999999984               0.000740028               0.000189835               0.999999984               0.000748191               0.000196053               0.999999984               0.000757536               0.000202759               0.999999984               0.000767661               0.000209195               0.999999984               0.000778284               0.000214483               0.999999984               0.000789107               0.000218100               0.999999984               0.000799885               0.000220002               0.999999984               0.000810171               0.000219651               0.999999984               0.000819597               0.000216129               0.999999984               0.000827801               0.000208745               0.999999984               0.000834380               0.000196325               0.999999984               0.000839094               0.000177550               0.999999984               0.000654729               0.000379848               0.999999984               0.000672976               0.000311540               0.999999984               0.000676233               0.000285362               0.999999984               0.000677580               0.000278907               0.999999984               0.000680381               0.000282083               0.999999984               0.000685150               0.000289944               0.999999984               0.000691587               0.000299605               0.999999984               0.000699044               0.000309556               0.999999984               0.000707010               0.000319004               0.999999984               0.000714940               0.000326694               0.999999984               0.000722419               0.000332149               0.999999984               0.000729016               0.000335017               0.999999984               0.000734367               0.000334551               0.999999984               0.000738081               0.000329815               0.999999984               0.000739857               0.000320053               0.999999984               0.000739642               0.000304368               0.999999984               0.000737481               0.000281907               0.999999984               0.000629086               0.000500889               0.999999984               0.000625809               0.000413225               0.999999984               0.000618632               0.000382399               0.999999984               0.000615023               0.000376838               0.999999984               0.000615352               0.000382886               0.999999984               0.000618569               0.000394357               0.999999984               0.000623577               0.000407525               0.999999984               0.000629272               0.000420652               0.999999984               0.000634771               0.000432554               0.999999984               0.000639369               0.000442235               0.999999984               0.000642583               0.000449093               0.999999984               0.000643941               0.000452610               0.999999984               0.000643023               0.000451948               0.999999984               0.000639564               0.000446492               0.999999984               0.000633606               0.000435653               0.999999984               0.000625462               0.000419089               0.999999984               0.000615711               0.000397264               0.999999984               0.000596999               0.000617171               0.999999984               0.000569434               0.000513539               0.999999984               0.000552605               0.000480461               0.999999984               0.000545545               0.000477111               0.999999984               0.000544700               0.000486636               0.999999984               0.000547226               0.000501689               0.999999984               0.000551136               0.000518155               0.999999984               0.000554918               0.000533986               0.999999984               0.000557472               0.000548007               0.999999984               0.000558047               0.000559132               0.999999984               0.000556202               0.000566888               0.999999984               0.000551383               0.000570549               0.999999984               0.000543270               0.000569492               0.999999984               0.000532028               0.000563444               0.999999984               0.000518155               0.000552483               0.999999984               0.000502364               0.000537210               0.999999984               0.000485404               0.000518585               0.999999984               0.000559111               0.000727533               0.999999984               0.000506645               0.000612358               0.999999984               0.000482619               0.000579117               0.999999984               0.000474384               0.000578614               0.999999984               0.000473840               0.000591615               0.999999984               0.000476507               0.000609886               0.999999984               0.000479514               0.000629129               0.999999984               0.000481063               0.000647009               0.999999984               0.000480056               0.000662531               0.999999984               0.000475852               0.000674721               0.999999984               0.000468015               0.000682883               0.999999984               0.000456185               0.000686211               0.999999984               0.000440452               0.000684631               0.999999984               0.000421489               0.000678502               0.999999984               0.000400063               0.000668488               0.999999984               0.000376987               0.000655458               0.999999984               0.000352925               0.000640602               0.999999984               0.000516008               0.000830943               0.999999984               0.000440517               0.000709499               0.999999984               0.000412674               0.000677576               0.999999984               0.000405716               0.000679849               0.999999984               0.000406775               0.000695784               0.999999984               0.000409855               0.000716793               0.999999984               0.000411699               0.000738092               0.999999984               0.000410446               0.000757604               0.999999984               0.000405244               0.000774211               0.999999984               0.000395479               0.000786966               0.999999984               0.000380759               0.000794923               0.999999984               0.000361191               0.000797754               0.999999984               0.000337469               0.000795975               0.999999984               0.000310499               0.000790461               0.999999984               0.000281200               0.000782124               0.999999984               0.000250447               0.000771832               0.999999984               0.000218719               0.000760378               0.999999984               0.000469338               0.000925476               0.999999984               0.000373497               0.000804864               0.999999984               0.000346461               0.000774475               0.999999984               0.000342611               0.000778802               0.999999984               0.000345719               0.000797201               0.999999984               0.000349023               0.000820323               0.999999984               0.000349131               0.000843358               0.999999984               0.000344399               0.000864142               0.999999984               0.000334205               0.000881469               0.999999984               0.000317836               0.000894069               0.999999984               0.000295127               0.000901533               0.999999984               0.000266958               0.000904149               0.999999984               0.000234424               0.000902878               0.999999984               0.000198742               0.000898767               0.999999984               0.000161063               0.000892842               0.999999984               0.000122183               0.000885770               0.999999984               0.000082920               0.000878193               0.999999984               0.000421367               0.001014561               0.999999984               0.000317916               0.000910587               0.999999984               0.000287691               0.000875362               0.999999984               0.000282567               0.000873315               0.999999984               0.000285467               0.000886740               0.999999984               0.000289258               0.000906966               0.999999984               0.000290711               0.000929149               0.999999984               0.000287980               0.000950674               0.999999984               0.000280510               0.000970218               0.999999984               0.000267597               0.000986739               0.999999984               0.000248452               0.000999444               0.999999984               0.000223606               0.001008349               0.999999984               0.000193614               0.001013680               0.999999984               0.000159544               0.001016253               0.999999984               0.000122471               0.001016773               0.999999984               0.000083361               0.001016066               0.999999984               0.000043247               0.001014641               0.999999984               0.000368738               0.001095519               0.999999984               0.000265297               0.001012649               0.999999984               0.000232036               0.000978764               0.999999984               0.000224568               0.000972807               0.999999984               0.000226376               0.000982395               0.999999984               0.000230012               0.001000079               0.999999984               0.000232184               0.001021322               0.999999984               0.000231158               0.001043364               0.999999984               0.000225912               0.001064698               0.999999984               0.000215875               0.001084419               0.999999984               0.000200168               0.001101544               0.999999984               0.000178686               0.001115809               0.999999984               0.000151890               0.001127072               0.999999984               0.000120083               0.001135710               0.999999984               0.000084155               0.001142203               0.999999984               0.000045011               0.001147314               0.999999984               0.000003768               0.001151634               0.999999984               0.000312638               0.001166364               0.999999984               0.000215665               0.001107945               0.999999984               0.000180998               0.001079967               0.999999984               0.000171049               0.001073404               0.999999984               0.000171022               0.001080877               0.999999984               0.000173780               0.001096855               0.999999984               0.000176071               0.001117562               0.999999984               0.000176191               0.001140291               0.999999984               0.000172696               0.001163411               0.999999984               0.000164969               0.001185965               0.999999984               0.000152378               0.001207059               0.999999984               0.000134456               0.001226103               0.999999984               0.000111121               0.001242803               0.999999984               0.000082214               0.001257150               0.999999984               0.000047997               0.001269458               0.999999984               0.000009008               0.001280228               0.999999984              -0.000033888               0.001290112               0.999999984               0.000253730               0.001225806               0.999999984               0.000168953               0.001192523               0.999999984               0.000135500               0.001173706               0.999999984               0.000123827               0.001169624               0.999999984               0.000121802               0.001177136               0.999999984               0.000123340               0.001192609               0.999999984               0.000125171               0.001213355               0.999999984               0.000125660               0.001237159               0.999999984               0.000123396               0.001262353               0.999999984               0.000117584               0.001287806               0.999999984               0.000107702               0.001312812               0.999999984               0.000093440               0.001336583               0.999999984               0.000073976               0.001358629               0.999999984               0.000048723               0.001378733               0.999999984               0.000017391               0.001396954               0.999999984              -0.000020317               0.001413462               0.999999984              -0.000064337               0.001428889               0.999999984               0.000192478               0.001273055               0.999999984               0.000124646               0.001262716               0.999999984               0.000095562               0.001254474               0.999999984               0.000083922               0.001254929               0.999999984               0.000080598               0.001264052               0.999999984               0.000080888               0.001280276               0.999999984               0.000082019               0.001301775               0.999999984               0.000082401               0.001326958               0.999999984               0.000080906               0.001354375               0.999999984               0.000076784               0.001382815               0.999999984               0.000069536               0.001411578               0.999999984               0.000058661               0.001439973               0.999999984               0.000043517               0.001467543               0.999999984               0.000023023               0.001493681               0.999999984              -0.000003764               0.001518192               0.999999984              -0.000037677               0.001540992               0.999999984              -0.000079894               0.001562342               0.999999984               0.000129378               0.001307409               0.999999984               0.000082121               0.001315354               0.999999984               0.000060590               0.001316780               0.999999984               0.000051201               0.001322266               0.999999984               0.000047826               0.001333890               0.999999984               0.000047298               0.001351493               0.999999984               0.000047762               0.001374228               0.999999984               0.000047906               0.001400916               0.999999984               0.000046984               0.001430415               0.999999984               0.000044397               0.001461575               0.999999984               0.000039658               0.001493755               0.999999984               0.000032332               0.001526363               0.999999984               0.000021773               0.001558899               0.999999984               0.000007155               0.001590870               0.999999984              -0.000012650               0.001621739               0.999999984              -0.000038985               0.001650991               0.999999984              -0.000073625               0.001678426               0.999999984               0.000065022               0.001328283               0.999999984               0.000040776               0.001347924               0.999999984               0.000029340               0.001356119               0.999999984               0.000024049               0.001365508               0.999999984               0.000021953               0.001379421               0.999999984               0.000021340               0.001398434               0.999999984               0.000021431               0.001422165               0.999999984               0.000021542               0.001449900               0.999999984               0.000021071               0.001480761               0.999999984               0.000019787               0.001513864               0.999999984               0.000017579               0.001548584               0.999999984               0.000013944               0.001584416               0.999999984               0.000008386               0.001620794               0.999999984               0.000000639               0.001657100               0.999999984              -0.000009954               0.001692840               0.999999984              -0.000024564               0.001727257               0.999999984              -0.000044559               0.001759580               0.999999984               0.000000000               0.001335368               0.999999984               0.000000000               0.001359019               0.999999984               0.000000000               0.001369652               0.999999984               0.000000000               0.001380537               0.999999984              -0.000000000               0.001395314               0.999999984              -0.000000000               0.001414891               0.999999984               0.000000000               0.001439005               0.999999984              -0.000000000               0.001467143               0.999999984               0.000000000               0.001498540               0.999999984              -0.000000000               0.001532295               0.999999984              -0.000000000               0.001567961               0.999999984              -0.000000000               0.001605066               0.999999984               0.000000000               0.001642917               0.999999984               0.000000000               0.001680882               0.999999984               0.000000000               0.001718454               0.999999984               0.000000000               0.001754869               0.999999984              -0.000000000               0.001789104               0.999999984 </DataArray>
<DataArray type="Float64"                                    Name="stress"                                                      NumberOfComponents="10" format="ascii">
              0.002174954               0.023461528              -0.000000000              -0.002117078               0.008526124               0.006409046               0.000000000               0.000000000               0.000000000               0.000000000               0.002163302               0.018340316              -0.000000000              -0.001481297               0.006607143               0.005125846               0.000000000               0.000000000               0.000000000               0.000000000               0.002849501               0.014201871              -0.000000000              -0.000706669               0.004969466               0.004262797               0.000000000               0.000000000               0.000000000               0.000000000               0.002741365               0.011879407               0.000000000              -0.000456913               0.004112067               0.003655154               0.000000000               0.000000000               0.000000000               0.000000000               0.002397732               0.010437643               0.000000000              -0.000405555               0.003614365               0.003208810               0.000000000               0.000000000               0.000000000               0.000000000               0.002005097               0.009451860              -0.000000000              -0.000429570               0.003293778               0.002864208               0.000000000               0.000000000               0.000000000               0.000000000               0.001635319               0.008718553              -0.000000000              -0.000476573               0.003065013               0.002588440               0.000000000               0.000000000               0.000000000               0.000000000               0.001308844               0.008135191               0.000000000              -0.000526081               0.002887064               0.002360983               0.000000000               0.000000000               0.000000000               0.000000000               0.001028699               0.007635829              -0.000000000              -0.000568715               0.002734822               0.002166107               0.000000000               0.000000000               0.000000000               0.000000000               0.000794582               0.007174974              -0.000000000              -0.000598902               0.002591268               0.001992366               0.000000000               0.000000000               0.000000000               0.000000000               0.000597761               0.006729214               0.000000000              -0.000616990               0.002448712               0.001831722               0.000000000               0.000000000               0.000000000               0.000000000               0.000428082               0.006292450              -0.000000000              -0.000626024               0.002306137               0.001680113               0.000000000               0.000000000               0.000000000               0.000000000               0.000279985               0.005851376              -0.000000000              -0.000626426               0.002159248               0.001532822               0.000000000               0.000000000               0.000000000               0.000000000               0.000158322               0.005382894               0.000000000              -0.000613490               0.001998777               0.001385287               0.000000000               0.000000000               0.000000000               0.000000000               0.000070537               0.004871177               0.000000000              -0.000582444               0.001817858               0.001235413               0.000000000               0.000000000               0.000000000               0.000000000               0.000020458               0.004288115               0.000000000              -0.000528341               0.001605471               0.001077130               0.000000000               0.000000000               0.000000000               0.000000000              -0.000041635               0.003838481               0.000000000              -0.000495422               0.001444622               0.000949200               0.000000000               0.000000000               0.000000000               0.000000000               0.002251093               0.022976107              -0.001605703              -0.002027849               0.008334575               0.006306727               0.000000000               0.000000000               0.000000000               0.000000000               0.002118729               0.018024804              -0.000798855              -0.001458574               0.006494399               0.005035825               0.000000000               0.000000000               0.000000000               0.000000000               0.002677057               0.014060912               0.000001254              -0.000753716               0.004938163               0.004184447               0.000000000               0.000000000               0.000000000               0.000000000               0.002521952               0.011832202               0.000337969              -0.000533292               0.004121792               0.003588500               0.000000000               0.000000000               0.000000000               0.000000000               0.002166022               0.010435647               0.000474263              -0.000492197               0.003642580               0.003150383               0.000000000               0.000000000               0.000000000               0.000000000               0.001777583               0.009469048               0.000517344              -0.000517036               0.003328663               0.002811627               0.000000000               0.000000000               0.000000000               0.000000000               0.001420198               0.008741651               0.000520122              -0.000560131               0.003100565               0.002540434               0.000000000               0.000000000               0.000000000               0.000000000               0.001113529               0.008157695               0.000505724              -0.000602137               0.002919917               0.002317780               0.000000000               0.000000000               0.000000000               0.000000000               0.000855851               0.007657261               0.000479595              -0.000636212               0.002764465               0.002128253               0.000000000               0.000000000               0.000000000               0.000000000               0.000642212               0.007197978               0.000445763              -0.000658916               0.002618941               0.001960024               0.000000000               0.000000000               0.000000000               0.000000000               0.000463959               0.006756829               0.000414104              -0.000670617               0.002475793               0.001805176               0.000000000               0.000000000               0.000000000               0.000000000               0.000313082               0.006324195               0.000385024              -0.000673117               0.002332416               0.001659299               0.000000000               0.000000000               0.000000000               0.000000000               0.000188496               0.005885837               0.000346612              -0.000665042               0.002183607               0.001518565               0.000000000               0.000000000               0.000000000               0.000000000               0.000093015               0.005424927               0.000296518              -0.000643234               0.002022702               0.001379468               0.000000000               0.000000000               0.000000000               0.000000000               0.000031003               0.004929326               0.000229567              -0.000604538               0.001844605               0.001240067               0.000000000               0.000000000               0.000000000               0.000000000               0.000003745               0.004381788               0.000131452              -0.000546318               0.001642687               0.001096370               0.000000000               0.000000000               0.000000000               0.000000000              -0.000044749               0.003971462               0.000083104              -0.000513212               0.001494878               0.000981666               0.000000000               0.000000000               0.000000000               0.000000000               0.002444830               0.021599321              -0.002990806              -0.001783101               0.007794068               0.006010967               0.000000000               0.000000000               0.000000000               0.000000000               0.001980979               0.017137770              -0.001489138              -0.001399351               0.006178983               0.004779632               0.000000000               0.000000000               0.000000000               0.000000000               0.002184048               0.013675220              -0.000011734              -0.000890382               0.004855155               0.003964773               0.000000000               0.000000000               0.000000000               0.000000000               0.001899201               0.011700929               0.000585954              -0.000750414               0.004150409               0.003399995               0.000000000               0.000000000               0.000000000               0.000000000               0.001520269               0.010425506               0.000817013              -0.000733086               0.003719496               0.002986410               0.000000000               0.000000000               0.000000000               0.000000000               0.001160003               0.009514702               0.000884912              -0.000754335               0.003422980               0.002668645               0.000000000               0.000000000               0.000000000               0.000000000               0.000851474               0.008807366               0.000884236              -0.000781616               0.003196298               0.002414682               0.000000000               0.000000000               0.000000000               0.000000000               0.000605095               0.008223673               0.000857469              -0.000801047               0.003008212               0.002207166               0.000000000               0.000000000               0.000000000               0.000000000               0.000409945               0.007718765               0.000810963              -0.000811115               0.002843268               0.002032153               0.000000000               0.000000000               0.000000000               0.000000000               0.000251937               0.007256436               0.000751596              -0.000812576               0.002689647               0.001877070               0.000000000               0.000000000               0.000000000               0.000000000               0.000124459               0.006820192               0.000695292              -0.000805850               0.002541991               0.001736141               0.000000000               0.000000000               0.000000000               0.000000000               0.000028124               0.006396210               0.000640790              -0.000788978               0.002395041               0.001606063               0.000000000               0.000000000               0.000000000               0.000000000              -0.000035145               0.005971326               0.000570898              -0.000759594               0.002243620               0.001484026               0.000000000               0.000000000               0.000000000               0.000000000              -0.000068114               0.005538813               0.000481443              -0.000717893               0.002085550               0.001367657               0.000000000               0.000000000               0.000000000               0.000000000              -0.000070314               0.005095453               0.000365053              -0.000663298               0.001919567               0.001256269               0.000000000               0.000000000               0.000000000               0.000000000              -0.000044282               0.004643920               0.000204638              -0.000597094               0.001746989               0.001149895               0.000000000               0.000000000               0.000000000               0.000000000              -0.000059510               0.004329221               0.000126331              -0.000563467               0.001630882               0.001067414               0.000000000               0.000000000               0.000000000               0.000000000               0.002641949               0.019518023              -0.003972778              -0.001449021               0.006988949               0.005539928               0.000000000               0.000000000               0.000000000               0.000000000               0.001715735               0.015816706              -0.001987020              -0.001333685               0.005716744               0.004383059               0.000000000               0.000000000               0.000000000               0.000000000               0.001422490               0.013108443              -0.000057361              -0.001105119               0.004737810               0.003632691               0.000000000               0.000000000               0.000000000               0.000000000               0.000987387               0.011490519               0.000681965              -0.001066042               0.004185482               0.003119440               0.000000000               0.000000000               0.000000000               0.000000000               0.000609189               0.010382117               0.000951672              -0.001069316               0.003817110               0.002747793               0.000000000               0.000000000               0.000000000               0.000000000               0.000314154               0.009548548               0.001021969              -0.001075758               0.003541404               0.002465645               0.000000000               0.000000000               0.000000000               0.000000000               0.000096080               0.008870712               0.001009417              -0.001072807               0.003314477               0.002241670               0.000000000               0.000000000               0.000000000               0.000000000              -0.000057034               0.008290840               0.000969961              -0.001057741               0.003116166               0.002058425               0.000000000               0.000000000               0.000000000               0.000000000              -0.000162369               0.007773725               0.000912513              -0.001032602               0.002935416               0.001902815               0.000000000               0.000000000               0.000000000               0.000000000              -0.000230671               0.007302969               0.000843904              -0.000999371               0.002767422               0.001768052               0.000000000               0.000000000               0.000000000               0.000000000              -0.000267890               0.006868078               0.000778939              -0.000958966               0.002608992               0.001650026               0.000000000               0.000000000               0.000000000               0.000000000              -0.000276879               0.006453004               0.000711556              -0.000910453               0.002454464               0.001544011               0.000000000               0.000000000               0.000000000               0.000000000              -0.000258073               0.006049963               0.000626924              -0.000853021               0.002300974               0.001447954               0.000000000               0.000000000               0.000000000               0.000000000              -0.000212483               0.005663621               0.000519966              -0.000787632               0.002150399               0.001362767               0.000000000               0.000000000               0.000000000               0.000000000              -0.000150951               0.005296377               0.000384224              -0.000718652               0.002004992               0.001286340               0.000000000               0.000000000               0.000000000               0.000000000              -0.000079946               0.004964508               0.000210177              -0.000650542               0.001871667               0.001221125               0.000000000               0.000000000               0.000000000               0.000000000              -0.000064021               0.004762495               0.000125291              -0.000619318               0.001793922               0.001174604               0.000000000               0.000000000               0.000000000               0.000000000               0.002693101               0.016963915              -0.004476774              -0.001110577               0.006024773               0.004914196               0.000000000               0.000000000               0.000000000               0.000000000               0.001289821               0.014223387              -0.002276171              -0.001294239               0.005172494               0.003878255               0.000000000               0.000000000               0.000000000               0.000000000               0.000480621               0.012413563              -0.000165698              -0.001371459               0.004594966               0.003223507               0.000000000               0.000000000               0.000000000               0.000000000              -0.000058653               0.011185660               0.000592335              -0.001420199               0.004201916               0.002781717               0.000000000               0.000000000               0.000000000               0.000000000              -0.000382640               0.010254230               0.000850567              -0.001425265               0.003893131               0.002467865               0.000000000               0.000000000               0.000000000               0.000000000              -0.000571744               0.009494974               0.000910684              -0.001401272               0.003632050               0.002230778               0.000000000               0.000000000               0.000000000               0.000000000              -0.000671394               0.008844622               0.000892133              -0.001357347               0.003400627               0.002043280               0.000000000               0.000000000               0.000000000               0.000000000              -0.000705268               0.008271542               0.000851178              -0.001298415               0.003189958               0.001891543               0.000000000               0.000000000               0.000000000               0.000000000              -0.000696271               0.007750967               0.000799964              -0.001229970               0.002993620               0.001763650               0.000000000               0.000000000               0.000000000               0.000000000              -0.000657831               0.007276171               0.000743345              -0.001156205               0.002810768               0.001654563               0.000000000               0.000000000               0.000000000               0.000000000              -0.000593119               0.006841153               0.000686100              -0.001077561               0.002639548               0.001561987               0.000000000               0.000000000               0.000000000               0.000000000              -0.000503065               0.006434167               0.000620557              -0.000992918               0.002475673               0.001482755               0.000000000               0.000000000               0.000000000               0.000000000              -0.000394989               0.006054050               0.000539070              -0.000904875               0.002319622               0.001414747               0.000000000               0.000000000               0.000000000               0.000000000              -0.000279643               0.005710363               0.000436753              -0.000818659               0.002176322               0.001357662               0.000000000               0.000000000               0.000000000               0.000000000              -0.000171008               0.005415932               0.000308752              -0.000741118               0.002052332               0.001311214               0.000000000               0.000000000               0.000000000               0.000000000              -0.000078401               0.005193063               0.000161304              -0.000678532               0.001957181               0.001278649               0.000000000               0.000000000               0.000000000               0.000000000              -0.000047725               0.005083698               0.000091602              -0.000653358               0.001912335               0.001258977               0.000000000               0.000000000               0.000000000               0.000000000               0.002486195               0.014194136              -0.004510582              -0.000841946               0.005011979               0.004170033               0.000000000               0.000000000               0.000000000               0.000000000               0.000700629               0.012519977              -0.002380979              -0.001302260               0.004607370               0.003305110               0.000000000               0.000000000               0.000000000               0.000000000              -0.000532345               0.011642701              -0.000361391              -0.001654963               0.004432516               0.002777553               0.000000000               0.000000000               0.000000000               0.000000000              -0.001081286               0.010781563               0.000322875              -0.001753173               0.004178210               0.002425036               0.000000000               0.000000000               0.000000000               0.000000000              -0.001288733               0.010005203               0.000547775              -0.001733921               0.003913008               0.002179087               0.000000000               0.000000000               0.000000000               0.000000000              -0.001332233               0.009309318               0.000604587              -0.001663248               0.003657491               0.001994243               0.000000000               0.000000000               0.000000000               0.000000000              -0.001290679               0.008684169               0.000599325              -0.001569522               0.003417868               0.001848346               0.000000000               0.000000000               0.000000000               0.000000000              -0.001198634               0.008117719               0.000580790              -0.001464199               0.003193946               0.001729747               0.000000000               0.000000000               0.000000000               0.000000000              -0.001075379               0.007604973               0.000554810              -0.001353886               0.002986261               0.001632375               0.000000000               0.000000000               0.000000000               0.000000000              -0.000935924               0.007138271               0.000522666              -0.001243253               0.002793817               0.001550565               0.000000000               0.000000000               0.000000000               0.000000000              -0.000778966               0.006710222               0.000484484              -0.001130887               0.002613681               0.001482794               0.000000000               0.000000000               0.000000000               0.000000000              -0.000603549               0.006314457               0.000433780              -0.001015636               0.002443343               0.001427708               0.000000000               0.000000000               0.000000000               0.000000000              -0.000428835               0.005958881               0.000367608              -0.000905671               0.002288164               0.001382493               0.000000000               0.000000000               0.000000000               0.000000000              -0.000273782               0.005656733               0.000284324              -0.000809758               0.002155478               0.001345720               0.000000000               0.000000000               0.000000000               0.000000000              -0.000149103               0.005424010               0.000187781              -0.000733913               0.002052623               0.001318710               0.000000000               0.000000000               0.000000000               0.000000000              -0.000059717               0.005272398               0.000089978              -0.000681442               0.001984596               0.001303154               0.000000000               0.000000000               0.000000000               0.000000000              -0.000030092               0.005209241               0.000046634              -0.000662438               0.001957209               0.001294771               0.000000000               0.000000000               0.000000000               0.000000000               0.001952225               0.011450826              -0.004148411              -0.000699271               0.004049993               0.003350722               0.000000000               0.000000000               0.000000000               0.000000000              -0.000021953               0.010850342              -0.002354685              -0.001364523               0.004071585               0.002707062               0.000000000               0.000000000               0.000000000               0.000000000              -0.001503604               0.010839694              -0.000652473              -0.001918809               0.004252798               0.002333990               0.000000000               0.000000000               0.000000000               0.000000000              -0.001950513               0.010286111              -0.000085605              -0.002017201               0.004101070               0.002083869               0.000000000               0.000000000               0.000000000               0.000000000              -0.001990141               0.009633627               0.000116978              -0.001950501               0.003861344               0.001910843               0.000000000               0.000000000               0.000000000               0.000000000              -0.001871683               0.008995902               0.000192689              -0.001826364               0.003607392               0.001781028               0.000000000               0.000000000               0.000000000               0.000000000              -0.001686140               0.008397742               0.000222844              -0.001682016               0.003359891               0.001677875               0.000000000               0.000000000               0.000000000               0.000000000              -0.001473125               0.007851324               0.000242854              -0.001533834               0.003128360               0.001594526               0.000000000               0.000000000               0.000000000               0.000000000              -0.001249165               0.007356490               0.000255421              -0.001387995               0.002914804               0.001526809               0.000000000               0.000000000               0.000000000               0.000000000              -0.001022595               0.006906288               0.000255387              -0.001246756               0.002717658               0.001470902               0.000000000               0.000000000               0.000000000               0.000000000              -0.000796151               0.006488557               0.000241945              -0.001109624               0.002532705               0.001423082               0.000000000               0.000000000               0.000000000               0.000000000              -0.000573217               0.006110617               0.000213894              -0.000978781               0.002363112               0.001384331               0.000000000               0.000000000               0.000000000               0.000000000              -0.000375529               0.005788067               0.000174129              -0.000864330               0.002217446               0.001353116               0.000000000               0.000000000               0.000000000               0.000000000              -0.000218659               0.005533124               0.000124522              -0.000773636               0.002102235               0.001328599               0.000000000               0.000000000               0.000000000               0.000000000              -0.000106404               0.005349874               0.000071264              -0.000708634               0.002019485               0.001310851               0.000000000               0.000000000               0.000000000               0.000000000              -0.000037219               0.005231099               0.000027310              -0.000667843               0.001966296               0.001298454               0.000000000               0.000000000               0.000000000               0.000000000              -0.000020844               0.005175691               0.000014654              -0.000654776               0.001943472               0.001288695               0.000000000               0.000000000               0.000000000               0.000000000               0.001117362               0.008902000              -0.003501206              -0.000693741               0.003198549               0.002504809               0.000000000               0.000000000               0.000000000               0.000000000              -0.000825838               0.009314503              -0.002254601              -0.001474000               0.003596136               0.002122136               0.000000000               0.000000000               0.000000000               0.000000000              -0.002330302               0.010014672              -0.001028201              -0.002125692               0.004046755               0.001921062               0.000000000               0.000000000               0.000000000               0.000000000              -0.002581542               0.009698481              -0.000570750              -0.002180383               0.003959589               0.001779206               0.000000000               0.000000000               0.000000000               0.000000000              -0.002430391               0.009158016              -0.000357203              -0.002056143               0.003738023               0.001681879               0.000000000               0.000000000               0.000000000               0.000000000              -0.002158334               0.008580786              -0.000237009              -0.001881969               0.003487556               0.001605587               0.000000000               0.000000000               0.000000000               0.000000000              -0.001849191               0.008024106              -0.000155720              -0.001696455               0.003240160               0.001543705               0.000000000               0.000000000               0.000000000               0.000000000              -0.001538231               0.007513994              -0.000088925              -0.001516082               0.003010000               0.001493918               0.000000000               0.000000000               0.000000000               0.000000000              -0.001235666               0.007045128              -0.000036365              -0.001344012               0.002796357               0.001452344               0.000000000               0.000000000               0.000000000               0.000000000              -0.000944614               0.006607472              -0.000000305              -0.001180161               0.002595856               0.001415695               0.000000000               0.000000000               0.000000000               0.000000000              -0.000678303               0.006205628               0.000018509              -0.001030064               0.002411877               0.001381812               0.000000000               0.000000000               0.000000000               0.000000000              -0.000447787               0.005859988               0.000022898              -0.000900416               0.002253448               0.001353032               0.000000000               0.000000000               0.000000000               0.000000000              -0.000265179               0.005583118               0.000019511              -0.000797330               0.002126797               0.001329467               0.000000000               0.000000000               0.000000000               0.000000000              -0.000135621               0.005375678               0.000011764              -0.000722816               0.002032813               0.001309997               0.000000000               0.000000000               0.000000000               0.000000000              -0.000056438               0.005230665               0.000002085              -0.000674996               0.001968536               0.001293540               0.000000000               0.000000000               0.000000000               0.000000000              -0.000016575               0.005134375              -0.000002991              -0.000648011               0.001927445               0.001279434               0.000000000               0.000000000               0.000000000               0.000000000              -0.000011754               0.005085740               0.000001325              -0.000640124               0.001908604               0.001268481               0.000000000               0.000000000               0.000000000               0.000000000               0.000114674               0.006732476              -0.002687719              -0.000798557               0.002510321               0.001711764               0.000000000               0.000000000               0.000000000               0.000000000              -0.001599055               0.007940643              -0.002129698              -0.001592223               0.003177595               0.001585372               0.000000000               0.000000000               0.000000000               0.000000000              -0.002959590               0.009200114              -0.001473185              -0.002259855               0.003819959               0.001560104               0.000000000               0.000000000               0.000000000               0.000000000              -0.002999207               0.009134182              -0.001084069              -0.002266470               0.003800187               0.001533717               0.000000000               0.000000000               0.000000000               0.000000000              -0.002689325               0.008732059              -0.000832178              -0.002099999               0.003610657               0.001510658               0.000000000               0.000000000               0.000000000               0.000000000              -0.002298941               0.008237490              -0.000654775              -0.001891784               0.003376397               0.001484613               0.000000000               0.000000000               0.000000000               0.000000000              -0.001896391               0.007743592              -0.000519809              -0.001679091               0.003140869               0.001461777               0.000000000               0.000000000               0.000000000               0.000000000              -0.001513456               0.007279205              -0.000408906              -0.001477443               0.002918858               0.001441415               0.000000000               0.000000000               0.000000000               0.000000000              -0.001154329               0.006836748              -0.000318527              -0.001287464               0.002708048               0.001420584               0.000000000               0.000000000               0.000000000               0.000000000              -0.000820895               0.006413922              -0.000241474              -0.001109573               0.002507810               0.001398237               0.000000000               0.000000000               0.000000000               0.000000000              -0.000538018               0.006030209              -0.000177973              -0.000955531               0.002328560               0.001373029               0.000000000               0.000000000               0.000000000               0.000000000              -0.000315265               0.005710793              -0.000130059              -0.000832072               0.002180936               0.001348864               0.000000000               0.000000000               0.000000000               0.000000000              -0.000157077               0.005461763              -0.000090343              -0.000741622               0.002067777               0.001326155               0.000000000               0.000000000               0.000000000               0.000000000              -0.000060160               0.005279292              -0.000058127              -0.000682470               0.001987236               0.001304767               0.000000000               0.000000000               0.000000000               0.000000000              -0.000013585               0.005151394              -0.000032130              -0.000649017               0.001933453               0.001284436               0.000000000               0.000000000               0.000000000               0.000000000              -0.000004583               0.005067357              -0.000012995              -0.000635137               0.001900814               0.001265678               0.000000000               0.000000000               0.000000000               0.000000000              -0.000011082               0.005030582              -0.000003508              -0.000632977               0.001887836               0.001254859               0.000000000               0.000000000               0.000000000               0.000000000              -0.001076769               0.004716933              -0.001813471              -0.000993404               0.001903429               0.000910026               0.000000000               0.000000000               0.000000000               0.000000000              -0.002235371               0.006360902              -0.001981625              -0.001633373               0.002664737               0.001031363               0.000000000               0.000000000               0.000000000               0.000000000              -0.003306556               0.008021840              -0.001941100              -0.002242684               0.003421481               0.001178797               0.000000000               0.000000000               0.000000000               0.000000000              -0.003245703               0.008325952              -0.001634230              -0.002257878               0.003527915               0.001270038               0.000000000               0.000000000               0.000000000               0.000000000              -0.002877941               0.008179480              -0.001347820              -0.002101658               0.003427019               0.001325361               0.000000000               0.000000000               0.000000000               0.000000000              -0.002447076               0.007869679              -0.001114750              -0.001901359               0.003256986               0.001355628               0.000000000               0.000000000               0.000000000               0.000000000              -0.002017099               0.007505168              -0.000927796              -0.001694554               0.003066549               0.001371995               0.000000000               0.000000000               0.000000000               0.000000000              -0.001607936               0.007137123              -0.000774459              -0.001495113               0.002877388               0.001382275               0.000000000               0.000000000               0.000000000               0.000000000              -0.001232627               0.006774038              -0.000643293              -0.001308987               0.002694319               0.001385332               0.000000000               0.000000000               0.000000000               0.000000000              -0.000889689               0.006414940              -0.000520162              -0.001135498               0.002516791               0.001381293               0.000000000               0.000000000               0.000000000               0.000000000              -0.000592314               0.006075412              -0.000406805              -0.000981542               0.002352298               0.001370756               0.000000000               0.000000000               0.000000000               0.000000000              -0.000353934               0.005773823              -0.000309255              -0.000854451               0.002209405               0.001354954               0.000000000               0.000000000               0.000000000               0.000000000              -0.000177645               0.005520722              -0.000222579              -0.000756705               0.002092457               0.001335752               0.000000000               0.000000000               0.000000000               0.000000000              -0.000066427               0.005321116              -0.000146782              -0.000690048               0.002003703               0.001313656               0.000000000               0.000000000               0.000000000               0.000000000              -0.000013510               0.005171002              -0.000080951              -0.000651440               0.001940797               0.001289357               0.000000000               0.000000000               0.000000000               0.000000000              -0.000004282               0.005068541              -0.000030585              -0.000635172               0.001901221               0.001266049               0.000000000               0.000000000               0.000000000               0.000000000              -0.000013392               0.005023865              -0.000008878              -0.000633004               0.001885606               0.001252602               0.000000000               0.000000000               0.000000000               0.000000000              -0.002626281               0.002888014              -0.000942052              -0.001345854               0.001411279               0.000065425               0.000000000               0.000000000               0.000000000               0.000000000              -0.002951667               0.004776906              -0.001758177              -0.001703985               0.002160280               0.000456296               0.000000000               0.000000000               0.000000000               0.000000000              -0.003549562               0.006658293              -0.002306666              -0.002163368               0.002940530               0.000777163               0.000000000               0.000000000               0.000000000               0.000000000              -0.003396736               0.007311451              -0.002155025              -0.002187703               0.003166359               0.000978657               0.000000000               0.000000000               0.000000000               0.000000000              -0.003009905               0.007460914              -0.001876711              -0.002061324               0.003174054               0.001112730               0.000000000               0.000000000               0.000000000               0.000000000              -0.002568775               0.007379036              -0.001609226              -0.001885666               0.003088209               0.001202543               0.000000000               0.000000000               0.000000000               0.000000000              -0.002132215               0.007184686              -0.001383760              -0.001697662               0.002960759               0.001263096               0.000000000               0.000000000               0.000000000               0.000000000              -0.001711995               0.006944786              -0.001192966              -0.001510093               0.002818270               0.001308177               0.000000000               0.000000000               0.000000000               0.000000000              -0.001327571               0.006689496              -0.001022602              -0.001334023               0.002674484               0.001340461               0.000000000               0.000000000               0.000000000               0.000000000              -0.000978948               0.006417067              -0.000861117              -0.001169236               0.002528746               0.001359510               0.000000000               0.000000000               0.000000000               0.000000000              -0.000661696               0.006139830              -0.000707475              -0.001015612               0.002385127               0.001369515               0.000000000               0.000000000               0.000000000               0.000000000              -0.000391454               0.005870458              -0.000567521              -0.000880601               0.002250333               0.001369733               0.000000000               0.000000000               0.000000000               0.000000000              -0.000176746               0.005621683              -0.000435867              -0.000768988               0.002130205               0.001361217               0.000000000               0.000000000               0.000000000               0.000000000              -0.000029786               0.005403946              -0.000308461              -0.000686661               0.002030184               0.001343523               0.000000000               0.000000000               0.000000000               0.000000000               0.000046355               0.005226746              -0.000189681              -0.000635959               0.001954217               0.001318259               0.000000000               0.000000000               0.000000000               0.000000000               0.000057294               0.005094153              -0.000084510              -0.000615282               0.001903128               0.001287846               0.000000000               0.000000000               0.000000000               0.000000000               0.000036788               0.005031241              -0.000033401              -0.000615108               0.001882099               0.001266992               0.000000000               0.000000000               0.000000000               0.000000000              -0.004413487               0.001381586              -0.000148606              -0.001827753               0.001069773              -0.000757981               0.000000000               0.000000000               0.000000000               0.000000000              -0.003797071               0.003282179              -0.001436117              -0.001834171               0.001705438              -0.000128733               0.000000000               0.000000000               0.000000000               0.000000000              -0.003727380               0.005118628              -0.002452566              -0.002037592               0.002385388               0.000347797               0.000000000               0.000000000               0.000000000               0.000000000              -0.003399207               0.006011624              -0.002498769              -0.002026151               0.002679237               0.000653086               0.000000000               0.000000000               0.000000000               0.000000000              -0.002980995               0.006431700              -0.002284252              -0.001921832               0.002784488               0.000862657               0.000000000               0.000000000               0.000000000               0.000000000              -0.002538235               0.006590838              -0.002022751              -0.001775689               0.002788820               0.001013131               0.000000000               0.000000000               0.000000000               0.000000000              -0.002108818               0.006597714              -0.001783944              -0.001615518               0.002737721               0.001122204               0.000000000               0.000000000               0.000000000               0.000000000              -0.001699347               0.006517006              -0.001571484              -0.001451878               0.002656273               0.001204395               0.000000000               0.000000000               0.000000000               0.000000000              -0.001316684               0.006392206              -0.001376316              -0.001292780               0.002561640               0.001268861               0.000000000               0.000000000               0.000000000               0.000000000              -0.000965955               0.006232147              -0.001193902              -0.001141249               0.002457778               0.001316528               0.000000000               0.000000000               0.000000000               0.000000000              -0.000637724               0.006046044              -0.001021787              -0.000994900               0.002346961               0.001352061               0.000000000               0.000000000               0.000000000               0.000000000              -0.000336867               0.005844069              -0.000857624              -0.000856832               0.002233614               0.001376782               0.000000000               0.000000000               0.000000000               0.000000000              -0.000084473               0.005636355              -0.000691018              -0.000736220               0.002124173               0.001387953               0.000000000               0.000000000               0.000000000               0.000000000               0.000106683               0.005438477              -0.000518214              -0.000639802               0.002026075               0.001386273               0.000000000               0.000000000               0.000000000               0.000000000               0.000223746               0.005262902              -0.000342498              -0.000573957               0.001945602               0.001371645               0.000000000               0.000000000               0.000000000               0.000000000               0.000256121               0.005118405              -0.000167324              -0.000543754               0.001887369               0.001343615               0.000000000               0.000000000               0.000000000               0.000000000               0.000235562               0.005047242              -0.000077102              -0.000542568               0.001863253               0.001320685               0.000000000               0.000000000               0.000000000               0.000000000              -0.006308887               0.000288090               0.000456582              -0.002401842               0.000896638              -0.001505204               0.000000000               0.000000000               0.000000000               0.000000000              -0.004727729               0.001962591              -0.001062029              -0.002018219               0.001326927              -0.000691292               0.000000000               0.000000000               0.000000000               0.000000000              -0.003873117               0.003539281              -0.002351615              -0.001894826               0.001811355              -0.000083470               0.000000000               0.000000000               0.000000000               0.000000000              -0.003281327               0.004543212              -0.002575794              -0.001798396               0.002113853               0.000315457               0.000000000               0.000000000               0.000000000               0.000000000              -0.002793750               0.005165793              -0.002458408              -0.001693377               0.002286372               0.000592995               0.000000000               0.000000000               0.000000000               0.000000000              -0.002345386               0.005541957              -0.002242128              -0.001572261               0.002371387               0.000799125               0.000000000               0.000000000               0.000000000               0.000000000              -0.001928896               0.005755861              -0.002016615              -0.001442816               0.002399539               0.000956723               0.000000000               0.000000000               0.000000000               0.000000000              -0.001542173               0.005853631              -0.001805351              -0.001310016               0.002387862               0.001077846               0.000000000               0.000000000               0.000000000               0.000000000              -0.001174626               0.005873792              -0.001608828              -0.001174707               0.002349480               0.001174773               0.000000000               0.000000000               0.000000000               0.000000000              -0.000824249               0.005843814              -0.001426783              -0.001039568               0.002294441               0.001254873               0.000000000               0.000000000               0.000000000               0.000000000              -0.000488612               0.005772697              -0.001258559              -0.000904815               0.002225818               0.001321003               0.000000000               0.000000000               0.000000000               0.000000000              -0.000169437               0.005665121              -0.001092825              -0.000771678               0.002145580               0.001373903               0.000000000               0.000000000               0.000000000               0.000000000               0.000123777               0.005534770              -0.000914369              -0.000645428               0.002060048               0.001414619               0.000000000               0.000000000               0.000000000               0.000000000               0.000373838               0.005393454              -0.000718553              -0.000533991               0.001975797               0.001441806               0.000000000               0.000000000               0.000000000               0.000000000               0.000560759               0.005249469              -0.000501809              -0.000445898               0.001898438               0.001452540               0.000000000               0.000000000               0.000000000               0.000000000               0.000666155               0.005118999              -0.000260775              -0.000390066               0.001836338               0.001446272               0.000000000               0.000000000               0.000000000               0.000000000               0.000690462               0.005057172              -0.000133419              -0.000373222               0.001810115               0.001436892               0.000000000               0.000000000               0.000000000               0.000000000              -0.008137285              -0.000409988               0.000773417              -0.003000231               0.000863408              -0.002136823               0.000000000               0.000000000               0.000000000               0.000000000              -0.005662171               0.000894553              -0.000699431              -0.002235131               0.001043220              -0.001191910               0.000000000               0.000000000               0.000000000               0.000000000              -0.004007950               0.002076232              -0.002008390              -0.001762508               0.001279570              -0.000482937               0.000000000               0.000000000               0.000000000               0.000000000              -0.003094022               0.003066449              -0.002334862              -0.001543562               0.001536658              -0.000006903               0.000000000               0.000000000               0.000000000               0.000000000              -0.002493940               0.003811477              -0.002308114              -0.001411660               0.001741032               0.000329372               0.000000000               0.000000000               0.000000000               0.000000000              -0.002027224               0.004359535              -0.002157268              -0.001305149               0.001888213               0.000583064               0.000000000               0.000000000               0.000000000               0.000000000              -0.001621218               0.004755991              -0.001973520              -0.001202454               0.001986132               0.000783678               0.000000000               0.000000000               0.000000000               0.000000000              -0.001253945               0.005027054              -0.001790291              -0.001098609               0.002041870               0.000943261               0.000000000               0.000000000               0.000000000               0.000000000              -0.000905491               0.005194911              -0.001618382              -0.000988921               0.002061260               0.001072338               0.000000000               0.000000000               0.000000000               0.000000000              -0.000562996               0.005294344              -0.001459671              -0.000872915               0.002055735               0.001182820               0.000000000               0.000000000               0.000000000               0.000000000              -0.000223872               0.005345262              -0.001311505              -0.000752108               0.002032439               0.001280330               0.000000000               0.000000000               0.000000000               0.000000000               0.000109773               0.005354683              -0.001164699              -0.000628170               0.001994266               0.001366097               0.000000000               0.000000000               0.000000000               0.000000000               0.000438943               0.005326805              -0.001003412              -0.000501246               0.001942666               0.001441420               0.000000000               0.000000000               0.000000000               0.000000000               0.000756344               0.005267345              -0.000815766              -0.000374789               0.001880693               0.001505905               0.000000000               0.000000000               0.000000000               0.000000000               0.001045788               0.005186186              -0.000594082              -0.000256102               0.001814079               0.001557976               0.000000000               0.000000000               0.000000000               0.000000000               0.001287941               0.005096077              -0.000323473              -0.000154032               0.001750019               0.001595988               0.000000000               0.000000000               0.000000000               0.000000000               0.001422815               0.005062168              -0.000179278              -0.000099215               0.001720444               0.001621229               0.000000000               0.000000000               0.000000000               0.000000000              -0.009675594              -0.000798116               0.000763274              -0.003528581               0.000910149              -0.002618432               0.000000000               0.000000000               0.000000000               0.000000000              -0.006472845               0.000115922              -0.000397360              -0.002441805               0.000852570              -0.001589235               0.000000000               0.000000000               0.000000000               0.000000000              -0.004127808               0.000884763              -0.001459742              -0.001658521               0.000847755              -0.000810767               0.000000000               0.000000000               0.000000000               0.000000000              -0.002906080               0.001792110              -0.001775440              -0.001313792               0.001035293              -0.000278499               0.000000000               0.000000000               0.000000000               0.000000000              -0.002176957               0.002591182              -0.001803061              -0.001140255               0.001243803               0.000103548               0.000000000               0.000000000               0.000000000               0.000000000              -0.001673913               0.003253481              -0.001717630              -0.001034401               0.001429282               0.000394882               0.000000000               0.000000000               0.000000000               0.000000000              -0.001270371               0.003785515              -0.001592280              -0.000949577               0.001578351               0.000628774               0.000000000               0.000000000               0.000000000               0.000000000              -0.000915074               0.004195108              -0.001458415              -0.000867540               0.001687535               0.000819995               0.000000000               0.000000000               0.000000000               0.000000000              -0.000585518               0.004491174              -0.001330983              -0.000780965               0.001757364               0.000976399               0.000000000               0.000000000               0.000000000               0.000000000              -0.000258573               0.004707236              -0.001214248              -0.000685368               0.001797519               0.001112151               0.000000000               0.000000000               0.000000000               0.000000000               0.000080496               0.004873687              -0.001105391              -0.000579024               0.001817554               0.001238530               0.000000000               0.000000000               0.000000000               0.000000000               0.000429827               0.004995340              -0.000996054              -0.000463232               0.001819507               0.001356275               0.000000000               0.000000000               0.000000000               0.000000000               0.000790903               0.005072969              -0.000875040              -0.000337532               0.001803484               0.001465951               0.000000000               0.000000000               0.000000000               0.000000000               0.001175018               0.005109657              -0.000730917              -0.000198075               0.001769227               0.001571152               0.000000000               0.000000000               0.000000000               0.000000000               0.001581277               0.005103841              -0.000548662              -0.000045001               0.001716264               0.001671262               0.000000000               0.000000000               0.000000000               0.000000000               0.002000676               0.005062406              -0.000307213               0.000117451               0.001648301               0.001765753               0.000000000               0.000000000               0.000000000               0.000000000               0.002296843               0.005066256              -0.000179874               0.000228032               0.001612724               0.001840756               0.000000000               0.000000000               0.000000000               0.000000000              -0.010708747              -0.000980058               0.000463457              -0.003893270               0.000971064              -0.002922206               0.000000000               0.000000000               0.000000000               0.000000000              -0.007028639              -0.000354420              -0.000174450              -0.002591435               0.000745667              -0.001845769               0.000000000               0.000000000               0.000000000               0.000000000              -0.004216784               0.000108824              -0.000768282              -0.001594896               0.000567902              -0.001026993               0.000000000               0.000000000               0.000000000               0.000000000              -0.002771891               0.000931529              -0.000961138              -0.001155899               0.000695804              -0.000460095               0.000000000               0.000000000               0.000000000               0.000000000              -0.001938205               0.001742588              -0.000992213              -0.000944649               0.000895739              -0.000048910               0.000000000               0.000000000               0.000000000               0.000000000              -0.001393439               0.002459333              -0.000957069              -0.000829954               0.001096420               0.000266466               0.000000000               0.000000000               0.000000000               0.000000000              -0.000987520               0.003064944              -0.000895835              -0.000753436               0.001272783               0.000519346               0.000000000               0.000000000               0.000000000               0.000000000              -0.000643929               0.003560697              -0.000824459              -0.000686559               0.001415740               0.000729181               0.000000000               0.000000000               0.000000000               0.000000000              -0.000327938               0.003948580              -0.000754654              -0.000616548               0.001521696               0.000905148               0.000000000               0.000000000               0.000000000               0.000000000              -0.000013489               0.004255152              -0.000694059              -0.000536951               0.001597353               0.001060402               0.000000000               0.000000000               0.000000000               0.000000000               0.000318747               0.004509658              -0.000638001              -0.000444176               0.001651263               0.001207087               0.000000000               0.000000000               0.000000000               0.000000000               0.000676204               0.004714514              -0.000578356              -0.000335737               0.001683401               0.001347664               0.000000000               0.000000000               0.000000000               0.000000000               0.001066713               0.004866114              -0.000513782              -0.000208246               0.001691437               0.001483191               0.000000000               0.000000000               0.000000000               0.000000000               0.001505173               0.004972557              -0.000437879              -0.000057130               0.001676546               0.001619416               0.000000000               0.000000000               0.000000000               0.000000000               0.002006465               0.005030917              -0.000334869               0.000123559               0.001635769               0.001759328               0.000000000               0.000000000               0.000000000               0.000000000               0.002586046               0.005032730              -0.000189475               0.000340673               0.001564002               0.001904675               0.000000000               0.000000000               0.000000000               0.000000000               0.003037018               0.005069302              -0.000113768               0.000505214               0.001521346               0.002026560               0.000000000               0.000000000               0.000000000               0.000000000              -0.011075058              -0.001032627               0.000000000              -0.004024066               0.000997140              -0.003026926               0.000000000               0.000000000               0.000000000               0.000000000              -0.007227960              -0.000511556              -0.000000000              -0.002646539               0.000711656              -0.001934883               0.000000000               0.000000000               0.000000000               0.000000000              -0.004251221              -0.000159694              -0.000000000              -0.001574245               0.000471514              -0.001102731               0.000000000               0.000000000               0.000000000               0.000000000              -0.002722622               0.000627091              -0.000000000              -0.001099368               0.000575482              -0.000523886               0.000000000               0.000000000               0.000000000               0.000000000              -0.001848706               0.001436416              -0.000000000              -0.000872815               0.000769738              -0.000103077               0.000000000               0.000000000               0.000000000               0.000000000              -0.001283584               0.002168953               0.000000000              -0.000752461               0.000973797               0.000221336               0.000000000               0.000000000               0.000000000               0.000000000              -0.000875965               0.002798107              -0.000000000              -0.000678249               0.001158776               0.000480527               0.000000000               0.000000000               0.000000000               0.000000000              -0.000540318               0.003323968              -0.000000000              -0.000618114               0.001314016               0.000695902               0.000000000               0.000000000               0.000000000               0.000000000              -0.000229242               0.003744273               0.000000000              -0.000553999               0.001432745               0.000878746               0.000000000               0.000000000               0.000000000               0.000000000               0.000081082               0.004084710              -0.000000000              -0.000480182               0.001521617               0.001041435               0.000000000               0.000000000               0.000000000               0.000000000               0.000406706               0.004374014               0.000000000              -0.000394236               0.001589402               0.001195166               0.000000000               0.000000000               0.000000000               0.000000000               0.000764991               0.004609083               0.000000000              -0.000289263               0.001632767               0.001343503               0.000000000               0.000000000               0.000000000               0.000000000               0.001169595               0.004786138               0.000000000              -0.000159669               0.001648587               0.001488918               0.000000000               0.000000000               0.000000000               0.000000000               0.001631641               0.004917290               0.000000000              -0.000002796               0.001640012               0.001637216               0.000000000               0.000000000               0.000000000               0.000000000               0.002170569               0.005000652              -0.000000000               0.000188880               0.001603907               0.001792787               0.000000000               0.000000000               0.000000000               0.000000000               0.002816990               0.005021087              -0.000000000               0.000428731               0.001530769               0.001959500               0.000000000               0.000000000               0.000000000               0.000000000               0.003334568               0.005071488              -0.000000000               0.000616521               0.001484972               0.002101493               0.000000000               0.000000000               0.000000000               0.000000000               0.000000000               0.000000000               0.000000000               0.000000000               0.000000000               0.000000000               0.000000000               0.000000000               0.000000000               0.000000000               0.000000000               0.000000000               0.000000000               0.000000000               0.000000000               0.000000000               0.000000000               0.000000000               0.000000000               0.000000000               0.000000000               0.000000000               0.000000000               0.000000000               0.000000000               0.000000000               0.000000000               0.000000000               0.000000000               0.000000000               0.000000000               0.000000000               0.000000000               0.000000000               0.000000000               0.000000000               0.000000000               0.000000000               0.000000000               0.000000000               0.000000000               0.000000000               0.000000000               0.000000000               0.000000000               0.000000000               0.000000000               0.000000000               0.000000000               0.000000000               0.000000000               0.000000000               0.000000000               0.000000000               0.000000000               0.000000000               0.000000000               0.000000000               0.000000000               0.000000000               0.000000000               0.000000000               0.000000000               0.000000000               0.000000000               0.000000000               0.000000000               0.000000000               0.000000000               0.000000000               0.000000000               0.000000000               0.000000000               0.000000000               0.000000000               0.000000000               0.000000000               0.000000000               0.000000000               0.000000000               0.000000000               0.000000000               0.000000000               0.000000000               0.000000000               0.000000000               0.000000000               0.000000000               0.000000000               0.000000000               0.000000000               0.000000000               0.000000000               0.000000000               0.000000000               0.000000000               0.000000000               0.000000000               0.000000000               0.000000000               0.000000000               0.000000000               0.000000000               0.000000000               0.000000000               0.000000000               0.000000000               0.000000000               0.000000000               0.000000000               0.000000000               0.000000000               0.000000000               0.000000000               0.000000000               0.000000000               0.000000000               0.000000000               0.000000000               0.000000000               0.000000000               0.000000000               0.000000000               0.000000000               0.000000000               0.000000000               0.000000000               0.000000000               0.000000000               0.000000000               0.000000000               0.000000000               0.000000000               0.000000000               0.000000000               0.000000000               0.000000000               0.000000000               0.000000000               0.000000000               0.000000000               0.000000000               0.000000000               0.000000000               0.000000000               0.000000000               0.000000000               0.000000000               0.000000000               0.000000000               0.000000000               0.000000000               0.000000000               0.000000000               0.000000000               0.000000000               0.000000000               0.000000000               0.000000000               0.000000000               0.000000000               0.000000000               0.000000000               0.000000000               0.000000000               0.000000000               0.000000000               0.000000000               0.000000000               0.000000000               0.002251093               0.022976107               0.001605703              -0.002027849               0.008334575               0.006306727               0.000000000               0.000000000               0.000000000               0.000000000               0.002118729               0.018024804               0.000798855              -0.001458574               0.006494399               0.005035825               0.000000000               0.000000000               0.000000000               0.000000000               0.002677057               0.014060912              -0.000001254              -0.000753716               0.004938163               0.004184447               0.000000000               0.000000000               0.000000000               0.000000000               0.002521952               0.011832202              -0.000337969              -0.000533292               0.004121792               0.003588500               0.000000000               0.000000000               0.000000000               0.000000000               0.002166022               0.010435647              -0.000474263              -0.000492197               0.003642580               0.003150383               0.000000000               0.000000000               0.000000000               0.000000000               0.001777583               0.009469048              -0.000517344              -0.000517036               0.003328663               0.002811627               0.000000000               0.000000000               0.000000000               0.000000000               0.001420198               0.008741651              -0.000520122              -0.000560131               0.003100565               0.002540434               0.000000000               0.000000000               0.000000000               0.000000000               0.001113529               0.008157695              -0.000505724              -0.000602137               0.002919917               0.002317780               0.000000000               0.000000000               0.000000000               0.000000000               0.000855851               0.007657261              -0.000479595              -0.000636212               0.002764465               0.002128253               0.000000000               0.000000000               0.000000000               0.000000000               0.000642212               0.007197978              -0.000445763              -0.000658916               0.002618941               0.001960024               0.000000000               0.000000000               0.000000000               0.000000000               0.000463959               0.006756829              -0.000414104              -0.000670617               0.002475793               0.001805176               0.000000000               0.000000000               0.000000000               0.000000000               0.000313082               0.006324195              -0.000385024              -0.000673117               0.002332416               0.001659299               0.000000000               0.000000000               0.000000000               0.000000000               0.000188496               0.005885837              -0.000346612              -0.000665042               0.002183607               0.001518565               0.000000000               0.000000000               0.000000000               0.000000000               0.000093015               0.005424927              -0.000296518              -0.000643234               0.002022702               0.001379468               0.000000000               0.000000000               0.000000000               0.000000000               0.000031003               0.004929326              -0.000229567              -0.000604538               0.001844605               0.001240067               0.000000000               0.000000000               0.000000000               0.000000000               0.000003745               0.004381788              -0.000131452              -0.000546318               0.001642687               0.001096370               0.000000000               0.000000000               0.000000000               0.000000000              -0.000044749               0.003971462              -0.000083104              -0.000513212               0.001494878               0.000981666               0.000000000               0.000000000               0.000000000               0.000000000               0.002444830               0.021599321               0.002990806              -0.001783101               0.007794068               0.006010967               0.000000000               0.000000000               0.000000000               0.000000000               0.001980979               0.017137770               0.001489138              -0.001399351               0.006178983               0.004779632               0.000000000               0.000000000               0.000000000               0.000000000               0.002184048               0.013675220               0.000011734              -0.000890382               0.004855155               0.003964773               0.000000000               0.000000000               0.000000000               0.000000000               0.001899201               0.011700929              -0.000585954              -0.000750414               0.004150409               0.003399995               0.000000000               0.000000000               0.000000000               0.000000000               0.001520269               0.010425506              -0.000817013              -0.000733086               0.003719496               0.002986410               0.000000000               0.000000000               0.000000000               0.000000000               0.001160003               0.009514702              -0.000884912              -0.000754335               0.003422980               0.002668645               0.000000000               0.000000000               0.000000000               0.000000000               0.000851474               0.008807366              -0.000884236              -0.000781616               0.003196298               0.002414682               0.000000000               0.000000000               0.000000000               0.000000000               0.000605095               0.008223673              -0.000857469              -0.000801047               0.003008212               0.002207166               0.000000000               0.000000000               0.000000000               0.000000000               0.000409945               0.007718765              -0.000810963              -0.000811115               0.002843268               0.002032153               0.000000000               0.000000000               0.000000000               0.000000000               0.000251937               0.007256436              -0.000751596              -0.000812576               0.002689647               0.001877070               0.000000000               0.000000000               0.000000000               0.000000000               0.000124459               0.006820192              -0.000695292              -0.000805850               0.002541991               0.001736141               0.000000000               0.000000000               0.000000000               0.000000000               0.000028124               0.006396210              -0.000640790              -0.000788978               0.002395041               0.001606063               0.000000000               0.000000000               0.000000000               0.000000000              -0.000035145               0.005971326              -0.000570898              -0.000759594               0.002243620               0.001484026               0.000000000               0.000000000               0.000000000               0.000000000              -0.000068114               0.005538813              -0.000481443              -0.000717893               0.002085550               0.001367657               0.000000000               0.000000000               0.000000000               0.000000000              -0.000070314               0.005095453              -0.000365053              -0.000663298               0.001919567               0.001256269               0.000000000               0.000000000               0.000000000               0.000000000              -0.000044282               0.004643920              -0.000204638              -0.000597094               0.001746989               0.001149895               0.000000000               0.000000000               0.000000000               0.000000000              -0.000059510               0.004329221              -0.000126331              -0.000563467               0.001630882               0.001067414               0.000000000               0.000000000               0.000000000               0.000000000               0.002641949               0.019518023               0.003972778              -0.001449021               0.006988949               0.005539928               0.000000000               0.000000000               0.000000000               0.000000000               0.001715735               0.015816706               0.001987020              -0.001333685               0.005716744               0.004383059               0.000000000               0.000000000               0.000000000               0.000000000               0.001422490               0.013108443               0.000057361              -0.001105119               0.004737810               0.003632691               0.000000000               0.000000000               0.000000000               0.000000000               0.000987387               0.011490519              -0.000681965              -0.001066042               0.004185482               0.003119440               0.000000000               0.000000000               0.000000000               0.000000000               0.000609189               0.010382117              -0.000951672              -0.001069316               0.003817110               0.002747793               0.000000000               0.000000000               0.000000000               0.000000000               0.000314154               0.009548548              -0.001021969              -0.001075758               0.003541404               0.002465645               0.000000000               0.000000000               0.000000000               0.000000000               0.000096080               0.008870712              -0.001009417              -0.001072807               0.003314477               0.002241670               0.000000000               0.000000000               0.000000000               0.000000000              -0.000057034               0.008290840              -0.000969961              -0.001057741               0.003116166               0.002058425               0.000000000               0.000000000               0.000000000               0.000000000              -0.000162369               0.007773725              -0.000912513              -0.001032602               0.002935416               0.001902815               0.000000000               0.000000000               0.000000000               0.000000000              -0.000230671               0.007302969              -0.000843904              -0.000999371               0.002767422               0.001768052               0.000000000               0.000000000               0.000000000               0.000000000              -0.000267890               0.006868078              -0.000778939              -0.000958966               0.002608992               0.001650026               0.000000000               0.000000000               0.000000000               0.000000000              -0.000276879               0.006453004              -0.000711556              -0.000910453               0.002454464               0.001544011               0.000000000               0.000000000               0.000000000               0.000000000              -0.000258073               0.006049963              -0.000626924              -0.000853021               0.002300974               0.001447954               0.000000000               0.000000000               0.000000000               0.000000000              -0.000212483               0.005663621              -0.000519966              -0.000787632               0.002150399               0.001362767               0.000000000               0.000000000               0.000000000               0.000000000              -0.000150951               0.005296377              -0.000384224              -0.000718652               0.002004992               0.001286340               0.000000000               0.000000000               0.000000000               0.000000000              -0.000079946               0.004964508              -0.000210177              -0.000650542               0.001871667               0.001221125               0.000000000               0.000000000               0.000000000               0.000000000              -0.000064021               0.004762495              -0.000125291              -0.000619318               0.001793922               0.001174604               0.000000000               0.000000000               0.000000000               0.000000000               0.002693101               0.016963915               0.004476774              -0.001110577               0.006024773               0.004914196               0.000000000               0.000000000               0.000000000               0.000000000               0.001289821               0.014223387               0.002276171              -0.001294239               0.005172494               0.003878255               0.000000000               0.000000000               0.000000000               0.000000000               0.000480621               0.012413563               0.000165698              -0.001371459               0.004594966               0.003223507               0.000000000               0.000000000               0.000000000               0.000000000              -0.000058653               0.011185660              -0.000592335              -0.001420199               0.004201916               0.002781717               0.000000000               0.000000000               0.000000000               0.000000000              -0.000382640               0.010254230              -0.000850567              -0.001425265               0.003893131               0.002467865               0.000000000               0.000000000               0.000000000               0.000000000              -0.000571744               0.009494974              -0.000910684              -0.001401272               0.003632050               0.002230778               0.000000000               0.000000000               0.000000000               0.000000000              -0.000671394               0.008844622              -0.000892133              -0.001357347               0.003400627               0.002043280               0.000000000               0.000000000               0.000000000               0.000000000              -0.000705268               0.008271542              -0.000851178              -0.001298415               0.003189958               0.001891543               0.000000000               0.000000000               0.000000000               0.000000000              -0.000696271               0.007750967              -0.000799964              -0.001229970               0.002993620               0.001763650               0.000000000               0.000000000               0.000000000               0.000000000              -0.000657831               0.007276171              -0.000743345              -0.001156205               0.002810768               0.001654563               0.000000000               0.000000000               0.000000000               0.000000000              -0.000593119               0.006841153              -0.000686100              -0.001077561               0.002639548               0.001561987               0.000000000               0.000000000               0.000000000               0.000000000              -0.000503065               0.006434167              -0.000620557              -0.000992918               0.002475673               0.001482755               0.000000000               0.000000000               0.000000000               0.000000000              -0.000394989               0.006054050              -0.000539070              -0.000904875               0.002319622               0.001414747               0.000000000               0.000000000               0.000000000               0.000000000              -0.000279643               0.005710363              -0.000436753              -0.000818659               0.002176322               0.001357662               0.000000000               0.000000000               0.000000000               0.000000000              -0.000171008               0.005415932              -0.000308752              -0.000741118               0.002052332               0.001311214               0.000000000               0.000000000               0.000000000               0.000000000              -0.000078401               0.005193063              -0.000161304              -0.000678532               0.001957181               0.001278649               0.000000000               0.000000000               0.000000000               0.000000000              -0.000047725               0.005083698              -0.000091602              -0.000653358               0.001912335               0.001258977               0.000000000               0.000000000               0.000000000               0.000000000               0.002486195               0.014194136               0.004510582              -0.000841946               0.005011979               0.004170033               0.000000000               0.000000000               0.000000000               0.000000000               0.000700629               0.012519977               0.002380979              -0.001302260               0.004607370               0.003305110               0.000000000               0.000000000               0.000000000               0.000000000              -0.000532345               0.011642701               0.000361391              -0.001654963               0.004432516               0.002777553               0.000000000               0.000000000               0.000000000               0.000000000              -0.001081286               0.010781563              -0.000322875              -0.001753173               0.004178210               0.002425036               0.000000000               0.000000000               0.000000000               0.000000000              -0.001288733               0.010005203              -0.000547775              -0.001733921               0.003913008               0.002179087               0.000000000               0.000000000               0.000000000               0.000000000              -0.001332233               0.009309318              -0.000604587              -0.001663248               0.003657491               0.001994243               0.000000000               0.000000000               0.000000000               0.000000000              -0.001290679               0.008684169              -0.000599325              -0.001569522               0.003417868               0.001848346               0.000000000               0.000000000               0.000000000               0.000000000              -0.001198634               0.008117719              -0.000580790              -0.001464199               0.003193946               0.001729747               0.000000000               0.000000000               0.000000000               0.000000000              -0.001075379               0.007604973              -0.000554810              -0.001353886               0.002986261               0.001632375               0.000000000               0.000000000               0.000000000               0.000000000              -0.000935924               0.007138271              -0.000522666              -0.001243253               0.002793817               0.001550565               0.000000000               0.000000000               0.000000000               0.000000000              -0.000778966               0.006710222              -0.000484484              -0.001130887               0.002613681               0.001482794               0.000000000               0.000000000               0.000000000               0.000000000              -0.000603549               0.006314457              -0.000433780              -0.001015636               0.002443343               0.001427708               0.000000000               0.000000000               0.000000000               0.000000000              -0.000428835               0.005958881              -0.000367608              -0.000905671               0.002288164               0.001382493               0.000000000               0.000000000               0.000000000               0.000000000              -0.000273782               0.005656733              -0.000284324              -0.000809758               0.002155478               0.001345720               0.000000000               0.000000000               0.000000000               0.000000000              -0.000149103               0.005424010              -0.000187781              -0.000733913               0.002052623               0.001318710               0.000000000               0.000000000               0.000000000               0.000000000              -0.000059717               0.005272398              -0.000089978              -0.000681442               0.001984596               0.001303154               0.000000000               0.000000000               0.000000000               0.000000000              -0.000030092               0.005209241              -0.000046634              -0.000662438               0.001957209               0.001294771               0.000000000               0.000000000               0.000000000               0.000000000               0.001952225               0.011450826               0.004148411              -0.000699271               0.004049993               0.003350722               0.000000000               0.000000000               0.000000000               0.000000000              -0.000021953               0.010850342               0.002354685              -0.001364523               0.004071585               0.002707062               0.000000000               0.000000000               0.000000000               0.000000000              -0.001503604               0.010839694               0.000652473              -0.001918809               0.004252798               0.002333990               0.000000000               0.000000000               0.000000000               0.000000000              -0.001950513               0.010286111               0.000085605              -0.002017201               0.004101070               0.002083869               0.000000000               0.000000000               0.000000000               0.000000000              -0.001990141               0.009633627              -0.000116978              -0.001950501               0.003861344               0.001910843               0.000000000               0.000000000               0.000000000               0.000000000              -0.001871683               0.008995902              -0.000192689              -0.001826364               0.003607392               0.001781028               0.000000000               0.000000000               0.000000000               0.000000000              -0.001686140               0.008397742              -0.000222844              -0.001682016               0.003359891               0.001677875               0.000000000               0.000000000               0.000000000               0.000000000              -0.001473125               0.007851324              -0.000242854              -0.001533834               0.003128360               0.001594526               0.000000000               0.000000000               0.000000000               0.000000000              -0.001249165               0.007356490              -0.000255421              -0.001387995               0.002914804               0.001526809               0.000000000               0.000000000               0.000000000               0.000000000              -0.001022595               0.006906288              -0.000255387              -0.001246756               0.002717658               0.001470902               0.000000000               0.000000000               0.000000000               0.000000000              -0.000796151               0.006488557              -0.000241945              -0.001109624               0.002532705               0.001423082               0.000000000               0.000000000               0.000000000               0.000000000              -0.000573217               0.006110617              -0.000213894              -0.000978781               0.002363112               0.001384331               0.000000000               0.000000000               0.000000000               0.000000000              -0.000375529               0.005788067              -0.000174129              -0.000864330               0.002217446               0.001353116               0.000000000               0.000000000               0.000000000               0.000000000              -0.000218659               0.005533124              -0.000124522              -0.000773636               0.002102235               0.001328599               0.000000000               0.000000000               0.000000000               0.000000000              -0.000106404               0.005349874              -0.000071264              -0.000708634               0.002019485               0.001310851               0.000000000               0.000000000               0.000000000               0.000000000              -0.000037219               0.005231099              -0.000027310              -0.000667843               0.001966296               0.001298454               0.000000000               0.000000000               0.000000000               0.000000000              -0.000020844               0.005175691              -0.000014654              -0.000654776               0.001943472               0.001288695               0.000000000               0.000000000               0.000000000               0.000000000               0.001117362               0.008902000               0.003501206              -0.000693741               0.003198549               0.002504809               0.000000000               0.000000000               0.000000000               0.000000000              -0.000825838               0.009314503               0.002254601              -0.001474000               0.003596136               0.002122136               0.000000000               0.000000000               0.000000000               0.000000000              -0.002330302               0.010014672               0.001028201              -0.002125692               0.004046755               0.001921062               0.000000000               0.000000000               0.000000000               0.000000000              -0.002581542               0.009698481               0.000570750              -0.002180383               0.003959589               0.001779206               0.000000000               0.000000000               0.000000000               0.000000000              -0.002430391               0.009158016               0.000357203              -0.002056143               0.003738023               0.001681879               0.000000000               0.000000000               0.000000000               0.000000000              -0.002158334               0.008580786               0.000237009              -0.001881969               0.003487556               0.001605587               0.000000000               0.000000000               0.000000000               0.000000000              -0.001849191               0.008024106               0.000155720              -0.001696455               0.003240160               0.001543705               0.000000000               0.000000000               0.000000000               0.000000000              -0.001538231               0.007513994               0.000088925              -0.001516082               0.003010000               0.001493918               0.000000000               0.000000000               0.000000000               0.000000000              -0.001235666               0.007045128               0.000036365              -0.001344012               0.002796357               0.001452344               0.000000000               0.000000000               0.000000000               0.000000000              -0.000944614               0.006607472               0.000000305              -0.001180161               0.002595856               0.001415695               0.000000000               0.000000000               0.000000000               0.000000000              -0.000678303               0.006205628              -0.000018509              -0.001030064               0.002411877               0.001381812               0.000000000               0.000000000               0.000000000               0.000000000              -0.000447787               0.005859988              -0.000022898              -0.000900416               0.002253448               0.001353032               0.000000000               0.000000000               0.000000000               0.000000000              -0.000265179               0.005583118              -0.000019511              -0.000797330               0.002126797               0.001329467               0.000000000               0.000000000               0.000000000               0.000000000              -0.000135621               0.005375678              -0.000011764              -0.000722816               0.002032813               0.001309997               0.000000000               0.000000000               0.000000000               0.000000000              -0.000056438               0.005230665              -0.000002085              -0.000674996               0.001968536               0.001293540               0.000000000               0.000000000               0.000000000               0.000000000              -0.000016575               0.005134375               0.000002991              -0.000648011               0.001927445               0.001279434               0.000000000               0.000000000               0.000000000               0.000000000              -0.000011754               0.005085740              -0.000001325              -0.000640124               0.001908604               0.001268481               0.000000000               0.000000000               0.000000000               0.000000000               0.000114674               0.006732476               0.002687719              -0.000798557               0.002510321               0.001711764               0.000000000               0.000000000               0.000000000               0.000000000              -0.001599055               0.007940643               0.002129698              -0.001592223               0.003177595               0.001585372               0.000000000               0.000000000               0.000000000               0.000000000              -0.002959590               0.009200114               0.001473185              -0.002259855               0.003819959               0.001560104               0.000000000               0.000000000               0.000000000               0.000000000              -0.002999207               0.009134182               0.001084069              -0.002266470               0.003800187               0.001533717               0.000000000               0.000000000               0.000000000               0.000000000              -0.002689325               0.008732059               0.000832178              -0.002099999               0.003610657               0.001510658               0.000000000               0.000000000               0.000000000               0.000000000              -0.002298941               0.008237490               0.000654775              -0.001891784               0.003376397               0.001484613               0.000000000               0.000000000               0.000000000               0.000000000              -0.001896391               0.007743592               0.000519809              -0.001679091               0.003140869               0.001461777               0.000000000               0.000000000               0.000000000               0.000000000              -0.001513456               0.007279205               0.000408906              -0.001477443               0.002918858               0.001441415               0.000000000               0.000000000               0.000000000               0.000000000              -0.001154329               0.006836748               0.000318527              -0.001287464               0.002708048               0.001420584               0.000000000               0.000000000               0.000000000               0.000000000              -0.000820895               0.006413922               0.000241474              -0.001109573               0.002507810               0.001398237               0.000000000               0.000000000               0.000000000               0.000000000              -0.000538018               0.006030209               0.000177973              -0.000955531               0.002328560               0.001373029               0.000000000               0.000000000               0.000000000               0.000000000              -0.000315265               0.005710793               0.000130059              -0.000832072               0.002180936               0.001348864               0.000000000               0.000000000               0.000000000               0.000000000              -0.000157077               0.005461763               0.000090343              -0.000741622               0.002067777               0.001326155               0.000000000               0.000000000               0.000000000               0.000000000              -0.000060160               0.005279292               0.000058127              -0.000682470               0.001987236               0.001304767               0.000000000               0.000000000               0.000000000               0.000000000              -0.000013585               0.005151394               0.000032130              -0.000649017               0.001933453               0.001284436               0.000000000               0.000000000               0.000000000               0.000000000              -0.000004583               0.005067357               0.000012995              -0.000635137               0.001900814               0.001265678               0.000000000               0.000000000               0.000000000               0.000000000              -0.000011082               0.005030582               0.000003508              -0.000632977               0.001887836               0.001254859               0.000000000               0.000000000               0.000000000               0.000000000              -0.001076769               0.004716933               0.001813471              -0.000993404               0.001903429               0.000910026               0.000000000               0.000000000               0.000000000               0.000000000              -0.002235371               0.006360902               0.001981625              -0.001633373               0.002664737               0.001031363               0.000000000               0.000000000               0.000000000               0.000000000              -0.003306556               0.008021840               0.001941100              -0.002242684               0.003421481               0.001178797               0.000000000               0.000000000               0.000000000               0.000000000              -0.003245703               0.008325952               0.001634230              -0.002257878               0.003527915               0.001270038               0.000000000               0.000000000               0.000000000               0.000000000              -0.002877941               0.008179480               0.001347820              -0.002101658               0.003427019               0.001325361               0.000000000               0.000000000               0.000000000               0.000000000              -0.002447076               0.007869679               0.001114750              -0.001901359               0.003256986               0.001355628               0.000000000               0.000000000               0.000000000               0.000000000              -0.002017099               0.007505168               0.000927796              -0.001694554               0.003066549               0.001371995               0.000000000               0.000000000               0.000000000               0.000000000              -0.001607936               0.007137123               0.000774459              -0.001495113               0.002877388               0.001382275               0.000000000               0.000000000               0.000000000               0.000000000              -0.001232627               0.006774038               0.000643293              -0.001308987               0.002694319               0.001385332               0.000000000               0.000000000               0.000000000               0.000000000              -0.000889689               0.006414940               0.000520162              -0.001135498               0.002516791               0.001381293               0.000000000               0.000000000               0.000000000               0.000000000              -0.000592314               0.006075412               0.000406805              -0.000981542               0.002352298               0.001370756               0.000000000               0.000000000               0.000000000               0.000000000              -0.000353934               0.005773823               0.000309255              -0.000854451               0.002209405               0.001354954               0.000000000               0.000000000               0.000000000               0.000000000              -0.000177645               0.005520722               0.000222579              -0.000756705               0.002092457               0.001335752               0.000000000               0.000000000               0.000000000               0.000000000              -0.000066427               0.005321116               0.000146782              -0.000690048               0.002003703               0.001313656               0.000000000               0.000000000               0.000000000               0.000000000              -0.000013510               0.005171002               0.000080951              -0.000651440               0.001940797               0.001289357               0.000000000               0.000000000               0.000000000               0.000000000              -0.000004282               0.005068541               0.000030585              -0.000635172               0.001901221               0.001266049               0.000000000               0.000000000               0.000000000               0.000000000              -0.000013392               0.005023865               0.000008878              -0.000633004               0.001885606               0.001252602               0.000000000               0.000000000               0.000000000               0.000000000              -0.002626281               0.002888014               0.000942052              -0.001345854               0.001411279               0.000065425               0.000000000               0.000000000               0.000000000               0.000000000              -0.002951667               0.004776906               0.001758177              -0.001703985               0.002160280               0.000456296               0.000000000               0.000000000               0.000000000               0.000000000              -0.003549562               0.006658293               0.002306666              -0.002163368               0.002940530               0.000777163               0.000000000               0.000000000               0.000000000               0.000000000              -0.003396736               0.007311451               0.002155025              -0.002187703               0.003166359               0.000978657               0.000000000               0.000000000               0.000000000               0.000000000              -0.003009905               0.007460914               0.001876711              -0.002061324               0.003174054               0.001112730               0.000000000               0.000000000               0.000000000               0.000000000              -0.002568775               0.007379036               0.001609226              -0.001885666               0.003088209               0.001202543               0.000000000               0.000000000               0.000000000               0.000000000              -0.002132215               0.007184686               0.001383760              -0.001697662               0.002960759               0.001263096               0.000000000               0.000000000               0.000000000               0.000000000              -0.001711995               0.006944786               0.001192966              -0.001510093               0.002818270               0.001308177               0.000000000               0.000000000               0.000000000               0.000000000              -0.001327571               0.006689496               0.001022602              -0.001334023               0.002674484               0.001340461               0.000000000               0.000000000               0.000000000               0.000000000              -0.000978948               0.006417067               0.000861117              -0.001169236               0.002528746               0.001359510               0.000000000               0.000000000               0.000000000               0.000000000              -0.000661696               0.006139830               0.000707475              -0.001015612               0.002385127               0.001369515               0.000000000               0.000000000               0.000000000               0.000000000              -0.000391454               0.005870458               0.000567521              -0.000880601               0.002250333               0.001369733               0.000000000               0.000000000               0.000000000               0.000000000              -0.000176746               0.005621683               0.000435867              -0.000768988               0.002130205               0.001361217               0.000000000               0.000000000               0.000000000               0.000000000              -0.000029786               0.005403946               0.000308461              -0.000686661               0.002030184               0.001343523               0.000000000               0.000000000               0.000000000               0.000000000               0.000046355               0.005226746               0.000189681              -0.000635959               0.001954217               0.001318259               0.000000000               0.000000000               0.000000000               0.000000000               0.000057294               0.005094153               0.000084510              -0.000615282               0.001903128               0.001287846               0.000000000               0.000000000               0.000000000               0.000000000               0.000036788               0.005031241               0.000033401              -0.000615108               0.001882099               0.001266992               0.000000000               0.000000000               0.000000000               0.000000000              -0.004413487               0.001381586               0.000148606              -0.001827753               0.001069773              -0.000757981               0.000000000               0.000000000               0.000000000               0.000000000              -0.003797071               0.003282179               0.001436117              -0.001834171               0.001705438              -0.000128733               0.000000000               0.000000000               0.000000000               0.000000000              -0.003727380               0.005118628               0.002452566              -0.002037592               0.002385388               0.000347797               0.000000000               0.000000000               0.000000000               0.000000000              -0.003399207               0.006011624               0.002498769              -0.002026151               0.002679237               0.000653086               0.000000000               0.000000000               0.000000000               0.000000000              -0.002980995               0.006431700               0.002284252              -0.001921832               0.002784488               0.000862657               0.000000000               0.000000000               0.000000000               0.000000000              -0.002538235               0.006590838               0.002022751              -0.001775689               0.002788820               0.001013131               0.000000000               0.000000000               0.000000000               0.000000000              -0.002108818               0.006597714               0.001783944              -0.001615518               0.002737721               0.001122204               0.000000000               0.000000000               0.000000000               0.000000000              -0.001699347               0.006517006               0.001571484              -0.001451878               0.002656273               0.001204395               0.000000000               0.000000000               0.000000000               0.000000000              -0.001316684               0.006392206               0.001376316              -0.001292780               0.002561640               0.001268861               0.000000000               0.000000000               0.000000000               0.000000000              -0.000965955               0.006232147               0.001193902              -0.001141249               0.002457778               0.001316528               0.000000000               0.000000000               0.000000000               0.000000000              -0.000637724               0.006046044               0.001021787              -0.000994900               0.002346961               0.001352061               0.000000000               0.000000000               0.000000000               0.000000000              -0.000336867               0.005844069               0.000857624              -0.000856832               0.002233614               0.001376782               0.000000000               0.000000000               0.000000000               0.000000000              -0.000084473               0.005636355               0.000691018              -0.000736220               0.002124173               0.001387953               0.000000000               0.000000000               0.000000000               0.000000000               0.000106683               0.005438477               0.000518214              -0.000639802               0.002026075               0.001386273               0.000000000               0.000000000               0.000000000               0.000000000               0.000223746               0.005262902               0.000342498              -0.000573957               0.001945602               0.001371645               0.000000000               0.000000000               0.000000000               0.000000000               0.000256121               0.005118405               0.000167324              -0.000543754               0.001887369               0.001343615               0.000000000               0.000000000               0.000000000               0.000000000               0.000235562               0.005047242               0.000077102              -0.000542568               0.001863253               0.001320685               0.000000000               0.000000000               0.000000000               0.000000000              -0.006308887               0.000288090              -0.000456582              -0.002401842               0.000896638              -0.001505204               0.000000000               0.000000000               0.000000000               0.000000000              -0.004727729               0.001962591               0.001062029              -0.002018219               0.001326927              -0.000691292               0.000000000               0.000000000               0.000000000               0.000000000              -0.003873117               0.003539281               0.002351615              -0.001894826               0.001811355              -0.000083470               0.000000000               0.000000000               0.000000000               0.000000000              -0.003281327               0.004543212               0.002575794              -0.001798396               0.002113853               0.000315457               0.000000000               0.000000000               0.000000000               0.000000000              -0.002793750               0.005165793               0.002458408              -0.001693377               0.002286372               0.000592995               0.000000000               0.000000000               0.000000000               0.000000000              -0.002345386               0.005541957               0.002242128              -0.001572261               0.002371387               0.000799125               0.000000000               0.000000000               0.000000000               0.000000000              -0.001928896               0.005755861               0.002016615              -0.001442816               0.002399539               0.000956723               0.000000000               0.000000000               0.000000000               0.000000000              -0.001542173               0.005853631               0.001805351              -0.001310016               0.002387862               0.001077846               0.000000000               0.000000000               0.000000000               0.000000000              -0.001174626               0.005873792               0.001608828              -0.001174707               0.002349480               0.001174773               0.000000000               0.000000000               0.000000000               0.000000000              -0.000824249               0.005843814               0.001426783              -0.001039568               0.002294441               0.001254873               0.000000000               0.000000000               0.000000000               0.000000000              -0.000488612               0.005772697               0.001258559              -0.000904815               0.002225818               0.001321003               0.000000000               0.000000000               0.000000000               0.000000000              -0.000169437               0.005665121               0.001092825              -0.000771678               0.002145580               0.001373903               0.000000000               0.000000000               0.000000000               0.000000000               0.000123777               0.005534770               0.000914369              -0.000645428               0.002060048               0.001414619               0.000000000               0.000000000               0.000000000               0.000000000               0.000373838               0.005393454               0.000718553              -0.000533991               0.001975797               0.001441806               0.000000000               0.000000000               0.000000000               0.000000000               0.000560759               0.005249469               0.000501809              -0.000445898               0.001898438               0.001452540               0.000000000               0.000000000               0.000000000               0.000000000               0.000666155               0.005118999               0.000260775              -0.000390066               0.001836338               0.001446272               0.000000000               0.000000000               0.000000000               0.000000000               0.000690462               0.005057172               0.000133419              -0.000373222               0.001810115               0.001436892               0.000000000               0.000000000               0.000000000               0.000000000              -0.008137285              -0.000409988              -0.000773417              -0.003000231               0.000863408              -0.002136823               0.000000000               0.000000000               0.000000000               0.000000000              -0.005662171               0.000894553               0.000699431              -0.002235131               0.001043220              -0.001191910               0.000000000               0.000000000               0.000000000               0.000000000              -0.004007950               0.002076232               0.002008390              -0.001762508               0.001279570              -0.000482937               0.000000000               0.000000000               0.000000000               0.000000000              -0.003094022               0.003066449               0.002334862              -0.001543562               0.001536658              -0.000006903               0.000000000               0.000000000               0.000000000               0.000000000              -0.002493940               0.003811477               0.002308114              -0.001411660               0.001741032               0.000329372               0.000000000               0.000000000               0.000000000               0.000000000              -0.002027224               0.004359535               0.002157268              -0.001305149               0.001888213               0.000583064               0.000000000               0.000000000               0.000000000               0.000000000              -0.001621218               0.004755991               0.001973520              -0.001202454               0.001986132               0.000783678               0.000000000               0.000000000               0.000000000               0.000000000              -0.001253945               0.005027054               0.001790291              -0.001098609               0.002041870               0.000943261               0.000000000               0.000000000               0.000000000               0.000000000              -0.000905491               0.005194911               0.001618382              -0.000988921               0.002061260               0.001072338               0.000000000               0.000000000               0.000000000               0.000000000              -0.000562996               0.005294344               0.001459671              -0.000872915               0.002055735               0.001182820               0.000000000               0.000000000               0.000000000               0.000000000              -0.000223872               0.005345262               0.001311505              -0.000752108               0.002032439               0.001280330               0.000000000               0.000000000               0.000000000               0.000000000               0.000109773               0.005354683               0.001164699              -0.000628170               0.001994266               0.001366097               0.000000000               0.000000000               0.000000000               0.000000000               0.000438943               0.005326805               0.001003412              -0.000501246               0.001942666               0.001441420               0.000000000               0.000000000               0.000000000               0.000000000               0.000756344               0.005267345               0.000815766              -0.000374789               0.001880693               0.001505905               0.000000000               0.000000000               0.000000000               0.000000000               0.001045788               0.005186186               0.000594082              -0.000256102               0.001814079               0.001557976               0.000000000               0.000000000               0.000000000               0.000000000               0.001287941               0.005096077               0.000323473              -0.000154032               0.001750019               0.001595988               0.000000000               0.000000000               0.000000000               0.000000000               0.001422815               0.005062168               0.000179278              -0.000099215               0.001720444               0.001621229               0.000000000               0.000000000               0.000000000               0.000000000              -0.009675594              -0.000798116              -0.000763274              -0.003528581               0.000910149              -0.002618432               0.000000000               0.000000000               0.000000000               0.000000000              -0.006472845               0.000115922               0.000397360              -0.002441805               0.000852570              -0.001589235               0.000000000               0.000000000               0.000000000               0.000000000              -0.004127808               0.000884763               0.001459742              -0.001658521               0.000847755              -0.000810767               0.000000000               0.000000000               0.000000000               0.000000000              -0.002906080               0.001792110               0.001775440              -0.001313792               0.001035293              -0.000278499               0.000000000               0.000000000               0.000000000               0.000000000              -0.002176957               0.002591182               0.001803061              -0.001140255               0.001243803               0.000103548               0.000000000               0.000000000               0.000000000               0.000000000              -0.001673913               0.003253481               0.001717630              -0.001034401               0.001429282               0.000394882               0.000000000               0.000000000               0.000000000               0.000000000              -0.001270371               0.003785515               0.001592280              -0.000949577               0.001578351               0.000628774               0.000000000               0.000000000               0.000000000               0.000000000              -0.000915074               0.004195108               0.001458415              -0.000867540               0.001687535               0.000819995               0.000000000               0.000000000               0.000000000               0.000000000              -0.000585518               0.004491174               0.001330983              -0.000780965               0.001757364               0.000976399               0.000000000               0.000000000               0.000000000               0.000000000              -0.000258573               0.004707236               0.001214248              -0.000685368               0.001797519               0.001112151               0.000000000               0.000000000               0.000000000               0.000000000               0.000080496               0.004873687               0.001105391              -0.000579024               0.001817554               0.001238530               0.000000000               0.000000000               0.000000000               0.000000000               0.000429827               0.004995340               0.000996054              -0.000463232               0.001819507               0.001356275               0.000000000               0.000000000               0.000000000               0.000000000               0.000790903               0.005072969               0.000875040              -0.000337532               0.001803484               0.001465951               0.000000000               0.000000000               0.000000000               0.000000000               0.001175018               0.005109657               0.000730917              -0.000198075               0.001769227               0.001571152               0.000000000               0.000000000               0.000000000               0.000000000               0.001581277               0.005103841               0.000548662              -0.000045001               0.001716264               0.001671262               0.000000000               0.000000000               0.000000000               0.000000000               0.002000676               0.005062406               0.000307213               0.000117451               0.001648301               0.001765753               0.000000000               0.000000000               0.000000000               0.000000000               0.002296843               0.005066256               0.000179874               0.000228032               0.001612724               0.001840756               0.000000000               0.000000000               0.000000000               0.000000000              -0.010708747              -0.000980058              -0.000463457              -0.003893270               0.000971064              -0.002922206               0.000000000               0.000000000               0.000000000               0.000000000              -0.007028639              -0.000354420               0.000174450              -0.002591435               0.000745667              -0.001845769               0.000000000               0.000000000               0.000000000               0.000000000              -0.004216784               0.000108824               0.000768282              -0.001594896               0.000567902              -0.001026993               0.000000000               0.000000000               0.000000000               0.000000000              -0.002771891               0.000931529               0.000961138              -0.001155899               0.000695804              -0.000460095               0.000000000               0.000000000               0.000000000               0.000000000              -0.001938205               0.001742588               0.000992213              -0.000944649               0.000895739              -0.000048910               0.000000000               0.000000000               0.000000000               0.000000000              -0.001393439               0.002459333               0.000957069              -0.000829954               0.001096420               0.000266466               0.000000000               0.000000000               0.000000000               0.000000000              -0.000987520               0.003064944               0.000895835              -0.000753436               0.001272783               0.000519346               0.000000000               0.000000000               0.000000000               0.000000000              -0.000643929               0.003560697               0.000824459              -0.000686559               0.001415740               0.000729181               0.000000000               0.000000000               0.000000000               0.000000000              -0.000327938               0.003948580               0.000754654              -0.000616548               0.001521696               0.000905148               0.000000000               0.000000000               0.000000000               0.000000000              -0.000013489               0.004255152               0.000694059              -0.000536951               0.001597353               0.001060402               0.000000000               0.000000000               0.000000000               0.000000000               0.000318747               0.004509658               0.000638001              -0.000444176               0.001651263               0.001207087               0.000000000               0.000000000               0.000000000               0.000000000               0.000676204               0.004714514               0.000578356              -0.000335737               0.001683401               0.001347664               0.000000000               0.000000000               0.000000000               0.000000000               0.001066713               0.004866114               0.000513782              -0.000208246               0.001691437               0.001483191               0.000000000               0.000000000               0.000000000               0.000000000               0.001505173               0.004972557               0.000437879              -0.000057130               0.001676546               0.001619416               0.000000000               0.000000000               0.000000000               0.000000000               0.002006465               0.005030917               0.000334869               0.000123559               0.001635769               0.001759328               0.000000000               0.000000000               0.000000000               0.000000000               0.002586046               0.005032730               0.000189475               0.000340673               0.001564002               0.001904675               0.000000000               0.000000000               0.000000000               0.000000000               0.003037018               0.005069302               0.000113768               0.000505214               0.001521346               0.002026560               0.000000000               0.000000000               0.000000000               0.000000000              -0.011075058              -0.001032627               0.000000000              -0.004024066               0.000997140              -0.003026926               0.000000000               0.000000000               0.000000000               0.000000000              -0.007227960              -0.000511556              -0.000000000              -0.002646539               0.000711656              -0.001934883               0.000000000               0.000000000               0.000000000               0.000000000              -0.004251221              -0.000159694              -0.000000000              -0.001574245               0.000471514              -0.001102731               0.000000000               0.000000000               0.000000000               0.000000000              -0.002722622               0.000627091               0.000000000              -0.001099368               0.000575482              -0.000523886               0.000000000               0.000000000               0.000000000               0.000000000              -0.001848706               0.001436416              -0.000000000              -0.000872815               0.000769738              -0.000103077               0.000000000               0.000000000               0.000000000               0.000000000              -0.001283584               0.002168953              -0.000000000              -0.000752461               0.000973797               0.000221336               0.000000000               0.000000000               0.000000000               0.000000000              -0.000875965               0.002798107              -0.000000000              -0.000678249               0.001158776               0.000480527               0.000000000               0.000000000               0.000000000               0.000000000              -0.000540318               0.003323968              -0.000000000              -0.000618114               0.001314016               0.000695902               0.000000000               0.000000000               0.000000000               0.000000000              -0.000229242               0.003744273              -0.000000000              -0.000553999               0.001432745               0.000878746               0.000000000               0.000000000               0.000000000               0.000000000               0.000081082               0.004084710              -0.000000000              -0.000480182               0.001521617               0.001041435               0.000000000               0.000000000               0.000000000               0.000000000               0.000406706               0.004374014              -0.000000000              -0.000394236               0.001589402               0.001195166               0.000000000               0.000000000               0.000000000               0.000000000               0.000764991               0.004609083              -0.000000000              -0.000289263               0.001632767               0.001343503               0.000000000               0.000000000               0.000000000               0.000000000               0.001169595               0.004786138               0.000000000              -0.000159669               0.001648587               0.001488918               0.000000000               0.000000000               0.000000000               0.000000000               0.001631641               0.004917290               0.000000000              -0.000002796               0.001640012               0.001637216               0.000000000               0.000000000               0.000000000               0.000000000               0.002170569               0.005000652              -0.000000000               0.000188880               0.001603907               0.001792787               0.000000000               0.000000000               0.000000000               0.000000000               0.002816990               0.005021087              -0.000000000               0.000428731               0.001530769               0.001959500               0.000000000               0.000000000               0.000000000               0.000000000               0.003334568               0.005071488              -0.000000000               0.000616521               0.001484972               0.002101493               0.000000000               0.000000000               0.000000000               0.000000000               0.002174954               0.023461528               0.000000000              -0.002117078               0.008526124               0.006409046               0.000000000               0.000000000               0.000000000               0.000000000               0.002163302               0.018340316               0.000000000              -0.001481297               0.006607143               0.005125846               0.000000000               0.000000000               0.000000000               0.000000000               0.002849501               0.014201871              -0.000000000              -0.000706669               0.004969466               0.004262797               0.000000000               0.000000000               0.000000000               0.000000000               0.002741365               0.011879407              -0.000000000              -0.000456913               0.004112067               0.003655154               0.000000000               0.000000000               0.000000000               0.000000000               0.002397732               0.010437643               0.000000000              -0.000405555               0.003614365               0.003208810               0.000000000               0.000000000               0.000000000               0.000000000               0.002005097               0.009451860               0.000000000              -0.000429570               0.003293778               0.002864208               0.000000000               0.000000000               0.000000000               0.000000000               0.001635319               0.008718553              -0.000000000              -0.000476573               0.003065013               0.002588440               0.000000000               0.000000000               0.000000000               0.000000000               0.001308844               0.008135191              -0.000000000              -0.000526081               0.002887064               0.002360983               0.000000000               0.000000000               0.000000000               0.000000000               0.001028699               0.007635829               0.000000000              -0.000568715               0.002734822               0.002166107               0.000000000               0.000000000               0.000000000               0.000000000               0.000794582               0.007174974               0.000000000              -0.000598902               0.002591268               0.001992366               0.000000000               0.000000000               0.000000000               0.000000000               0.000597761               0.006729214               0.000000000              -0.000616990               0.002448712               0.001831722               0.000000000               0.000000000               0.000000000               0.000000000               0.000428082               0.006292450               0.000000000              -0.000626024               0.002306137               0.001680113               0.000000000               0.000000000               0.000000000               0.000000000               0.000279985               0.005851376               0.000000000              -0.000626426               0.002159248               0.001532822               0.000000000               0.000000000               0.000000000               0.000000000               0.000158322               0.005382894               0.000000000              -0.000613490               0.001998777               0.001385287               0.000000000               0.000000000               0.000000000               0.000000000               0.000070537               0.004871177               0.000000000              -0.000582444               0.001817858               0.001235413               0.000000000               0.000000000               0.000000000               0.000000000               0.000020458               0.004288115              -0.000000000              -0.000528341               0.001605471               0.001077130               0.000000000               0.000000000               0.000000000               0.000000000              -0.000041635               0.003838481               0.000000000              -0.000495422               0.001444622               0.000949200               0.000000000               0.000000000               0.000000000               0.000000000               0.002251093               0.022976107              -0.001605703              -0.002027849               0.008334575               0.006306727               0.000000000               0.000000000               0.000000000               0.000000000               0.002118729               0.018024804              -0.000798855              -0.001458574               0.006494399               0.005035825               0.000000000               0.000000000               0.000000000               0.000000000               0.002677057               0.014060912               0.000001254              -0.000753716               0.004938163               0.004184447               0.000000000               0.000000000               0.000000000               0.000000000               0.002521952               0.011832202               0.000337969              -0.000533292               0.004121792               0.003588500               0.000000000               0.000000000               0.000000000               0.000000000               0.002166022               0.010435647               0.000474263              -0.000492197               0.003642580               0.003150383               0.000000000               0.000000000               0.000000000               0.000000000               0.001777583               0.009469048               0.000517344              -0.000517036               0.003328663               0.002811627               0.000000000               0.000000000               0.000000000               0.000000000               0.001420198               0.008741651               0.000520122              -0.000560131               0.003100565               0.002540434               0.000000000               0.000000000               0.000000000               0.000000000               0.001113529               0.008157695               0.000505724              -0.000602137               0.002919917               0.002317780               0.000000000               0.000000000               0.000000000               0.000000000               0.000855851               0.007657261               0.000479595              -0.000636212               0.002764465               0.002128253               0.000000000               0.000000000               0.000000000               0.000000000               0.000642212               0.007197978               0.000445763              -0.000658916               0.002618941               0.001960024               0.000000000               0.000000000               0.000000000               0.000000000               0.000463959               0.006756829               0.000414104              -0.000670617               0.002475793               0.001805176               0.000000000               0.000000000               0.000000000               0.000000000               0.000313082               0.006324195               0.000385024              -0.000673117               0.002332416               0.001659299               0.000000000               0.000000000               0.000000000               0.000000000               0.000188496               0.005885837               0.000346612              -0.000665042               0.002183607               0.001518565               0.000000000               0.000000000               0.000000000               0.000000000               0.000093015               0.005424927               0.000296518              -0.000643234               0.002022702               0.001379468               0.000000000               0.000000000               0.000000000               0.000000000               0.000031003               0.004929326               0.000229567              -0.000604538               0.001844605               0.001240067               0.000000000               0.000000000               0.000000000               0.000000000               0.000003745               0.004381788               0.000131452              -0.000546318               0.001642687               0.001096370               0.000000000               0.000000000               0.000000000               0.000000000              -0.000044749               0.003971462               0.000083104              -0.000513212               0.001494878               0.000981666               0.000000000               0.000000000               0.000000000               0.000000000               0.002444830               0.021599321              -0.002990806              -0.001783101               0.007794068               0.006010967               0.000000000               0.000000000               0.000000000               0.000000000               0.001980979               0.017137770              -0.001489138              -0.001399351               0.006178983               0.004779632               0.000000000               0.000000000               0.000000000               0.000000000               0.002184048               0.013675220              -0.000011734              -0.000890382               0.004855155               0.003964773               0.000000000               0.000000000               0.000000000               0.000000000               0.001899201               0.011700929               0.000585954              -0.000750414               0.004150409               0.003399995               0.000000000               0.000000000               0.000000000               0.000000000               0.001520269               0.010425506               0.000817013              -0.000733086               0.003719496               0.002986410               0.000000000               0.000000000               0.000000000               0.000000000               0.001160003               0.009514702               0.000884912              -0.000754335               0.003422980               0.002668645               0.000000000               0.000000000               0.000000000               0.000000000               0.000851474               0.008807366               0.000884236              -0.000781616               0.003196298               0.002414682               0.000000000               0.000000000               0.000000000               0.000000000               0.000605095               0.008223673               0.000857469              -0.000801047               0.003008212               0.002207166               0.000000000               0.000000000               0.000000000               0.000000000               0.000409945               0.007718765               0.000810963              -0.000811115               0.002843268               0.002032153               0.000000000               0.000000000               0.000000000               0.000000000               0.000251937               0.007256436               0.000751596              -0.000812576               0.002689647               0.001877070               0.000000000               0.000000000               0.000000000               0.000000000               0.000124459               0.006820192               0.000695292              -0.000805850               0.002541991               0.001736141               0.000000000               0.000000000               0.000000000               0.000000000               0.000028124               0.006396210               0.000640790              -0.000788978               0.002395041               0.001606063               0.000000000               0.000000000               0.000000000               0.000000000              -0.000035145               0.005971326               0.000570898              -0.000759594               0.002243620               0.001484026               0.000000000               0.000000000               0.000000000               0.000000000              -0.000068114               0.005538813               0.000481443              -0.000717893               0.002085550               0.001367657               0.000000000               0.000000000               0.000000000               0.000000000              -0.000070314               0.005095453               0.000365053              -0.000663298               0.001919567               0.001256269               0.000000000               0.000000000               0.000000000               0.000000000              -0.000044282               0.004643920               0.000204638              -0.000597094               0.001746989               0.001149895               0.000000000               0.000000000               0.000000000               0.000000000              -0.000059510               0.004329221               0.000126331              -0.000563467               0.001630882               0.001067414               0.000000000               0.000000000               0.000000000               0.000000000               0.002641949               0.019518023              -0.003972778              -0.001449021               0.006988949               0.005539928               0.000000000               0.000000000               0.000000000               0.000000000               0.001715735               0.015816706              -0.001987020              -0.001333685               0.005716744               0.004383059               0.000000000               0.000000000               0.000000000               0.000000000               0.001422490               0.013108443              -0.000057361              -0.001105119               0.004737810               0.003632691               0.000000000               0.000000000               0.000000000               0.000000000               0.000987387               0.011490519               0.000681965              -0.001066042               0.004185482               0.003119440               0.000000000               0.000000000               0.000000000               0.000000000               0.000609189               0.010382117               0.000951672              -0.001069316               0.003817110               0.002747793               0.000000000               0.000000000               0.000000000               0.000000000               0.000314154               0.009548548               0.001021969              -0.001075758               0.003541404               0.002465645               0.000000000               0.000000000               0.000000000               0.000000000               0.000096080               0.008870712               0.001009417              -0.001072807               0.003314477               0.002241670               0.000000000               0.000000000               0.000000000               0.000000000              -0.000057034               0.008290840               0.000969961              -0.001057741               0.003116166               0.002058425               0.000000000               0.000000000               0.000000000               0.000000000              -0.000162369               0.007773725               0.000912513              -0.001032602               0.002935416               0.001902815               0.000000000               0.000000000               0.000000000               0.000000000              -0.000230671               0.007302969               0.000843904              -0.000999371               0.002767422               0.001768052               0.000000000               0.000000000               0.000000000               0.000000000              -0.000267890               0.006868078               0.000778939              -0.000958966               0.002608992               0.001650026               0.000000000               0.000000000               0.000000000               0.000000000              -0.000276879               0.006453004               0.000711556              -0.000910453               0.002454464               0.001544011               0.000000000               0.000000000               0.000000000               0.000000000              -0.000258073               0.006049963               0.000626924              -0.000853021               0.002300974               0.001447954               0.000000000               0.000000000               0.000000000               0.000000000              -0.000212483               0.005663621               0.000519966              -0.000787632               0.002150399               0.001362767               0.000000000               0.000000000               0.000000000               0.000000000              -0.000150951               0.005296377               0.000384224              -0.000718652               0.002004992               0.001286340               0.000000000               0.000000000               0.000000000               0.000000000              -0.000079946               0.004964508               0.000210177              -0.000650542               0.001871667               0.001221125               0.000000000               0.000000000               0.000000000               0.000000000              -0.000064021               0.004762495               0.000125291              -0.000619318               0.001793922               0.001174604               0.000000000               0.000000000               0.000000000               0.000000000               0.002693101               0.016963915              -0.004476774              -0.001110577               0.006024773               0.004914196               0.000000000               0.000000000               0.000000000               0.000000000               0.001289821               0.014223387              -0.002276171              -0.001294239               0.005172494               0.003878255               0.000000000               0.000000000               0.000000000               0.000000000               0.000480621               0.012413563              -0.000165698              -0.001371459               0.004594966               0.003223507               0.000000000               0.000000000               0.000000000               0.000000000              -0.000058653               0.011185660               0.000592335              -0.001420199               0.004201916               0.002781717               0.000000000               0.000000000               0.000000000               0.000000000              -0.000382640               0.010254230               0.000850567              -0.001425265               0.003893131               0.002467865               0.000000000               0.000000000               0.000000000               0.000000000              -0.000571744               0.009494974               0.000910684              -0.001401272               0.003632050               0.002230778               0.000000000               0.000000000               0.000000000               0.000000000              -0.000671394               0.008844622               0.000892133              -0.001357347               0.003400627               0.002043280               0.000000000               0.000000000               0.000000000               0.000000000              -0.000705268               0.008271542               0.000851178              -0.001298415               0.003189958               0.001891543               0.000000000               0.000000000               0.000000000               0.000000000              -0.000696271               0.007750967               0.000799964              -0.001229970               0.002993620               0.001763650               0.000000000               0.000000000               0.000000000               0.000000000              -0.000657831               0.007276171               0.000743345              -0.001156205               0.002810768               0.001654563               0.000000000               0.000000000               0.000000000               0.000000000              -0.000593119               0.006841153               0.000686100              -0.001077561               0.002639548               0.001561987               0.000000000               0.000000000               0.000000000               0.000000000              -0.000503065               0.006434167               0.000620557              -0.000992918               0.002475673               0.001482755               0.000000000               0.000000000               0.000000000               0.000000000              -0.000394989               0.006054050               0.000539070              -0.000904875               0.002319622               0.001414747               0.000000000               0.000000000               0.000000000               0.000000000              -0.000279643               0.005710363               0.000436753              -0.000818659               0.002176322               0.001357662               0.000000000               0.000000000               0.000000000               0.000000000              -0.000171008               0.005415932               0.000308752              -0.000741118               0.002052332               0.001311214               0.000000000               0.000000000               0.000000000               0.000000000              -0.000078401               0.005193063               0.000161304              -0.000678532               0.001957181               0.001278649               0.000000000               0.000000000               0.000000000               0.000000000              -0.000047725               0.005083698               0.000091602              -0.000653358               0.001912335               0.001258977               0.000000000               0.000000000               0.000000000               0.000000000               0.002486195               0.014194136              -0.004510582              -0.000841946               0.005011979               0.004170033               0.000000000               0.000000000               0.000000000               0.000000000               0.000700629               0.012519977              -0.002380979              -0.001302260               0.004607370               0.003305110               0.000000000               0.000000000               0.000000000               0.000000000              -0.000532345               0.011642701              -0.000361391              -0.001654963               0.004432516               0.002777553               0.000000000               0.000000000               0.000000000               0.000000000              -0.001081286               0.010781563               0.000322875              -0.001753173               0.004178210               0.002425036               0.000000000               0.000000000               0.000000000               0.000000000              -0.001288733               0.010005203               0.000547775              -0.001733921               0.003913008               0.002179087               0.000000000               0.000000000               0.000000000               0.000000000              -0.001332233               0.009309318               0.000604587              -0.001663248               0.003657491               0.001994243               0.000000000               0.000000000               0.000000000               0.000000000              -0.001290679               0.008684169               0.000599325              -0.001569522               0.003417868               0.001848346               0.000000000               0.000000000               0.000000000               0.000000000              -0.001198634               0.008117719               0.000580790              -0.001464199               0.003193946               0.001729747               0.000000000               0.000000000               0.000000000               0.000000000              -0.001075379               0.007604973               0.000554810              -0.001353886               0.002986261               0.001632375               0.000000000               0.000000000               0.000000000               0.000000000              -0.000935924               0.007138271               0.000522666              -0.001243253               0.002793817               0.001550565               0.000000000               0.000000000               0.000000000               0.000000000              -0.000778966               0.006710222               0.000484484              -0.001130887               0.002613681               0.001482794               0.000000000               0.000000000               0.000000000               0.000000000              -0.000603549               0.006314457               0.000433780              -0.001015636               0.002443343               0.001427708               0.000000000               0.000000000               0.000000000               0.000000000              -0.000428835               0.005958881               0.000367608              -0.000905671               0.002288164               0.001382493               0.000000000               0.000000000               0.000000000               0.000000000              -0.000273782               0.005656733               0.000284324              -0.000809758               0.002155478               0.001345720               0.000000000               0.000000000               0.000000000               0.000000000              -0.000149103               0.005424010               0.000187781              -0.000733913               0.002052623               0.001318710               0.000000000               0.000000000               0.000000000               0.000000000              -0.000059717               0.005272398               0.000089978              -0.000681442               0.001984596               0.001303154               0.000000000               0.000000000               0.000000000               0.000000000              -0.000030092               0.005209241               0.000046634              -0.000662438               0.001957209               0.001294771               0.000000000               0.000000000               0.000000000               0.000000000               0.001952225               0.011450826              -0.004148411              -0.000699271               0.004049993               0.003350722               0.000000000               0.000000000               0.000000000               0.000000000              -0.000021953               0.010850342              -0.002354685              -0.001364523               0.004071585               0.002707062               0.000000000               0.000000000               0.000000000               0.000000000              -0.001503604               0.010839694              -0.000652473              -0.001918809               0.004252798               0.002333990               0.000000000               0.000000000               0.000000000               0.000000000              -0.001950513               0.010286111              -0.000085605              -0.002017201               0.004101070               0.002083869               0.000000000               0.000000000               0.000000000               0.000000000              -0.001990141               0.009633627               0.000116978              -0.001950501               0.003861344               0.001910843               0.000000000               0.000000000               0.000000000               0.000000000              -0.001871683               0.008995902               0.000192689              -0.001826364               0.003607392               0.001781028               0.000000000               0.000000000               0.000000000               0.000000000              -0.001686140               0.008397742               0.000222844              -0.001682016               0.003359891               0.001677875               0.000000000               0.000000000               0.000000000               0.000000000              -0.001473125               0.007851324               0.000242854              -0.001533834               0.003128360               0.001594526               0.000000000               0.000000000               0.000000000               0.000000000              -0.001249165               0.007356490               0.000255421              -0.001387995               0.002914804               0.001526809               0.000000000               0.000000000               0.000000000               0.000000000              -0.001022595               0.006906288               0.000255387              -0.001246756               0.002717658               0.001470902               0.000000000               0.000000000               0.000000000               0.000000000              -0.000796151               0.006488557               0.000241945              -0.001109624               0.002532705               0.001423082               0.000000000               0.000000000               0.000000000               0.000000000              -0.000573217               0.006110617               0.000213894              -0.000978781               0.002363112               0.001384331               0.000000000               0.000000000               0.000000000               0.000000000              -0.000375529               0.005788067               0.000174129              -0.000864330               0.002217446               0.001353116               0.000000000               0.000000000               0.000000000               0.000000000              -0.000218659               0.005533124               0.000124522              -0.000773636               0.002102235               0.001328599               0.000000000               0.000000000               0.000000000               0.000000000              -0.000106404               0.005349874               0.000071264              -0.000708634               0.002019485               0.001310851               0.000000000               0.000000000               0.000000000               0.000000000              -0.000037219               0.005231099               0.000027310              -0.000667843               0.001966296               0.001298454               0.000000000               0.000000000               0.000000000               0.000000000              -0.000020844               0.005175691               0.000014654              -0.000654776               0.001943472               0.001288695               0.000000000               0.000000000               0.000000000               0.000000000               0.001117362               0.008902000              -0.003501206              -0.000693741               0.003198549               0.002504809               0.000000000               0.000000000               0.000000000               0.000000000              -0.000825838               0.009314503              -0.002254601              -0.001474000               0.003596136               0.002122136               0.000000000               0.000000000               0.000000000               0.000000000              -0.002330302               0.010014672              -0.001028201              -0.002125692               0.004046755               0.001921062               0.000000000               0.000000000               0.000000000               0.000000000              -0.002581542               0.009698481              -0.000570750              -0.002180383               0.003959589               0.001779206               0.000000000               0.000000000               0.000000000               0.000000000              -0.002430391               0.009158016              -0.000357203              -0.002056143               0.003738023               0.001681879               0.000000000               0.000000000               0.000000000               0.000000000              -0.002158334               0.008580786              -0.000237009              -0.001881969               0.003487556               0.001605587               0.000000000               0.000000000               0.000000000               0.000000000              -0.001849191               0.008024106              -0.000155720              -0.001696455               0.003240160               0.001543705               0.000000000               0.000000000               0.000000000               0.000000000              -0.001538231               0.007513994              -0.000088925              -0.001516082               0.003010000               0.001493918               0.000000000               0.000000000               0.000000000               0.000000000              -0.001235666               0.007045128              -0.000036365              -0.001344012               0.002796357               0.001452344               0.000000000               0.000000000               0.000000000               0.000000000              -0.000944614               0.006607472              -0.000000305              -0.001180161               0.002595856               0.001415695               0.000000000               0.000000000               0.000000000               0.000000000              -0.000678303               0.006205628               0.000018509              -0.001030064               0.002411877               0.001381812               0.000000000               0.000000000               0.000000000               0.000000000              -0.000447787               0.005859988               0.000022898              -0.000900416               0.002253448               0.001353032               0.000000000               0.000000000               0.000000000               0.000000000              -0.000265179               0.005583118               0.000019511              -0.000797330               0.002126797               0.001329467               0.000000000               0.000000000               0.000000000               0.000000000              -0.000135621               0.005375678               0.000011764              -0.000722816               0.002032813               0.001309997               0.000000000               0.000000000               0.000000000               0.000000000              -0.000056438               0.005230665               0.000002085              -0.000674996               0.001968536               0.001293540               0.000000000               0.000000000               0.000000000               0.000000000              -0.000016575               0.005134375              -0.000002991              -0.000648011               0.001927445               0.001279434               0.000000000               0.000000000               0.000000000               0.000000000              -0.000011754               0.005085740               0.000001325              -0.000640124               0.001908604               0.001268481               0.000000000               0.000000000               0.000000000               0.000000000               0.000114674               0.006732476              -0.002687719              -0.000798557               0.002510321               0.001711764               0.000000000               0.000000000               0.000000000               0.000000000              -0.001599055               0.007940643              -0.002129698              -0.001592223               0.003177595               0.001585372               0.000000000               0.000000000               0.000000000               0.000000000              -0.002959590               0.009200114              -0.001473185              -0.002259855               0.003819959               0.001560104               0.000000000               0.000000000               0.000000000               0.000000000              -0.002999207               0.009134182              -0.001084069              -0.002266470               0.003800187               0.001533717               0.000000000               0.000000000               0.000000000               0.000000000              -0.002689325               0.008732059              -0.000832178              -0.002099999               0.003610657               0.001510658               0.000000000               0.000000000               0.000000000               0.000000000              -0.002298941               0.008237490              -0.000654775              -0.001891784               0.003376397               0.001484613               0.000000000               0.000000000               0.000000000               0.000000000              -0.001896391               0.007743592              -0.000519809              -0.001679091               0.003140869               0.001461777               0.000000000               0.000000000               0.000000000               0.000000000              -0.001513456               0.007279205              -0.000408906              -0.001477443               0.002918858               0.001441415               0.000000000               0.000000000               0.000000000               0.000000000              -0.001154329               0.006836748              -0.000318527              -0.001287464               0.002708048               0.001420584               0.000000000               0.000000000               0.000000000               0.000000000              -0.000820895               0.006413922              -0.000241474              -0.001109573               0.002507810               0.001398237               0.000000000               0.000000000               0.000000000               0.000000000              -0.000538018               0.006030209              -0.000177973              -0.000955531               0.002328560               0.001373029               0.000000000               0.000000000               0.000000000               0.000000000              -0.000315265               0.005710793              -0.000130059              -0.000832072               0.002180936               0.001348864               0.000000000               0.000000000               0.000000000               0.000000000              -0.000157077               0.005461763              -0.000090343              -0.000741622               0.002067777               0.001326155               0.000000000               0.000000000               0.000000000               0.000000000              -0.000060160               0.005279292              -0.000058127              -0.000682470               0.001987236               0.001304767               0.000000000               0.000000000               0.000000000               0.000000000              -0.000013585               0.005151394              -0.000032130              -0.000649017               0.001933453               0.001284436               0.000000000               0.000000000               0.000000000               0.000000000              -0.000004583               0.005067357              -0.000012995              -0.000635137               0.001900814               0.001265678               0.000000000               0.000000000               0.000000000               0.000000000              -0.000011082               0.005030582              -0.000003508              -0.000632977               0.001887836               0.001254859               0.000000000               0.000000000               0.000000000               0.000000000              -0.001076769               0.004716933              -0.001813471              -0.000993404               0.001903429               0.000910026               0.000000000               0.000000000               0.000000000               0.000000000              -0.002235371               0.006360902              -0.001981625              -0.001633373               0.002664737               0.001031363               0.000000000               0.000000000               0.000000000               0.000000000              -0.003306556               0.008021840              -0.001941100              -0.002242684               0.003421481               0.001178797               0.000000000               0.000000000               0.000000000               0.000000000              -0.003245703               0.008325952              -0.001634230              -0.002257878               0.003527915               0.001270038               0.000000000               0.000000000               0.000000000               0.000000000              -0.002877941               0.008179480              -0.001347820              -0.002101658               0.003427019               0.001325361               0.000000000               0.000000000               0.000000000               0.000000000              -0.002447076               0.007869679              -0.001114750              -0.001901359               0.003256986               0.001355628               0.000000000               0.000000000               0.000000000               0.000000000              -0.002017099               0.007505168              -0.000927796              -0.001694554               0.003066549               0.001371995               0.000000000               0.000000000               0.000000000               0.000000000              -0.001607936               0.007137123              -0.000774459              -0.001495113               0.002877388               0.001382275               0.000000000               0.000000000               0.000000000               0.000000000              -0.001232627               0.006774038              -0.000643293              -0.001308987               0.002694319               0.001385332               0.000000000               0.000000000               0.000000000               0.000000000              -0.000889689               0.006414940              -0.000520162              -0.001135498               0.002516791               0.001381293               0.000000000               0.000000000               0.000000000               0.000000000              -0.000592314               0.006075412              -0.000406805              -0.000981542               0.002352298               0.001370756               0.000000000               0.000000000               0.000000000               0.000000000              -0.000353934               0.005773823              -0.000309255              -0.000854451               0.002209405               0.001354954               0.000000000               0.000000000               0.000000000               0.000000000              -0.000177645               0.005520722              -0.000222579              -0.000756705               0.002092457               0.001335752               0.000000000               0.000000000               0.000000000               0.000000000              -0.000066427               0.005321116              -0.000146782              -0.000690048               0.002003703               0.001313656               0.000000000               0.000000000               0.000000000               0.000000000              -0.000013510               0.005171002              -0.000080951              -0.000651440               0.001940797               0.001289357               0.000000000               0.000000000               0.000000000               0.000000000              -0.000004282               0.005068541              -0.000030585              -0.000635172               0.001901221               0.001266049               0.000000000               0.000000000               0.000000000               0.000000000              -0.000013392               0.005023865              -0.000008878              -0.000633004               0.001885606               0.001252602               0.000000000               0.000000000               0.000000000               0.000000000              -0.002626281               0.002888014              -0.000942052              -0.001345854               0.001411279               0.000065425               0.000000000               0.000000000               0.000000000               0.000000000              -0.002951667               0.004776906              -0.001758177              -0.001703985               0.002160280               0.000456296               0.000000000               0.000000000               0.000000000               0.000000000              -0.003549562               0.006658293              -0.002306666              -0.002163368               0.002940530               0.000777163               0.000000000               0.000000000               0.000000000               0.000000000              -0.003396736               0.007311451              -0.002155025              -0.002187703               0.003166359               0.000978657               0.000000000               0.000000000               0.000000000               0.000000000              -0.003009905               0.007460914              -0.001876711              -0.002061324               0.003174054               0.001112730               0.000000000               0.000000000               0.000000000               0.000000000              -0.002568775               0.007379036              -0.001609226              -0.001885666               0.003088209               0.001202543               0.000000000               0.000000000               0.000000000               0.000000000              -0.002132215               0.007184686              -0.001383760              -0.001697662               0.002960759               0.001263096               0.000000000               0.000000000               0.000000000               0.000000000              -0.001711995               0.006944786              -0.001192966              -0.001510093               0.002818270               0.001308177               0.000000000               0.000000000               0.000000000               0.000000000              -0.001327571               0.006689496              -0.001022602              -0.001334023               0.002674484               0.001340461               0.000000000               0.000000000               0.000000000               0.000000000              -0.000978948               0.006417067              -0.000861117              -0.001169236               0.002528746               0.001359510               0.000000000               0.000000000               0.000000000               0.000000000              -0.000661696               0.006139830              -0.000707475              -0.001015612               0.002385127               0.001369515               0.000000000               0.000000000               0.000000000               0.000000000              -0.000391454               0.005870458              -0.000567521              -0.000880601               0.002250333               0.001369733               0.000000000               0.000000000               0.000000000               0.000000000              -0.000176746               0.005621683              -0.000435867              -0.000768988               0.002130205               0.001361217               0.000000000               0.000000000               0.000000000               0.000000000              -0.000029786               0.005403946              -0.000308461              -0.000686661               0.002030184               0.001343523               0.000000000               0.000000000               0.000000000               0.000000000               0.000046355               0.005226746              -0.000189681              -0.000635959               0.001954217               0.001318259               0.000000000               0.000000000               0.000000000               0.000000000               0.000057294               0.005094153              -0.000084510              -0.000615282               0.001903128               0.001287846               0.000000000               0.000000000               0.000000000               0.000000000               0.000036788               0.005031241              -0.000033401              -0.000615108               0.001882099               0.001266992               0.000000000               0.000000000               0.000000000               0.000000000              -0.004413487               0.001381586              -0.000148606              -0.001827753               0.001069773              -0.000757981               0.000000000               0.000000000               0.000000000               0.000000000              -0.003797071               0.003282179              -0.001436117              -0.001834171               0.001705438              -0.000128733               0.000000000               0.000000000               0.000000000               0.000000000              -0.003727380               0.005118628              -0.002452566              -0.002037592               0.002385388               0.000347797               0.000000000               0.000000000               0.000000000               0.000000000              -0.003399207               0.006011624              -0.002498769              -0.002026151               0.002679237               0.000653086               0.000000000               0.000000000               0.000000000               0.000000000              -0.002980995               0.006431700              -0.002284252              -0.001921832               0.002784488               0.000862657               0.000000000               0.000000000               0.000000000               0.000000000              -0.002538235               0.006590838              -0.002022751              -0.001775689               0.002788820               0.001013131               0.000000000               0.000000000               0.000000000               0.000000000              -0.002108818               0.006597714              -0.001783944              -0.001615518               0.002737721               0.001122204               0.000000000               0.000000000               0.000000000               0.000000000              -0.001699347               0.006517006              -0.001571484              -0.001451878               0.002656273               0.001204395               0.000000000               0.000000000               0.000000000               0.000000000              -0.001316684               0.006392206              -0.001376316              -0.001292780               0.002561640               0.001268861               0.000000000               0.000000000               0.000000000               0.000000000              -0.000965955               0.006232147              -0.001193902              -0.001141249               0.002457778               0.001316528               0.000000000               0.000000000               0.000000000               0.000000000              -0.000637724               0.006046044              -0.001021787              -0.000994900               0.002346961               0.001352061               0.000000000               0.000000000               0.000000000               0.000000000              -0.000336867               0.005844069              -0.000857624              -0.000856832               0.002233614               0.001376782               0.000000000               0.000000000               0.000000000               0.000000000              -0.000084473               0.005636355              -0.000691018              -0.000736220               0.002124173               0.001387953               0.000000000               0.000000000               0.000000000               0.000000000               0.000106683               0.005438477              -0.000518214              -0.000639802               0.002026075               0.001386273               0.000000000               0.000000000               0.000000000               0.000000000               0.000223746               0.005262902              -0.000342498              -0.000573957               0.001945602               0.001371645               0.000000000               0.000000000               0.000000000               0.000000000               0.000256121               0.005118405              -0.000167324              -0.000543754               0.001887369               0.001343615               0.000000000               0.000000000               0.000000000               0.000000000               0.000235562               0.005047242              -0.000077102              -0.000542568               0.001863253               0.001320685               0.000000000               0.000000000               0.000000000               0.000000000              -0.006308887               0.000288090               0.000456582              -0.002401842               0.000896638              -0.001505204               0.000000000               0.000000000               0.000000000               0.000000000              -0.004727729               0.001962591              -0.001062029              -0.002018219               0.001326927              -0.000691292               0.000000000               0.000000000               0.000000000               0.000000000              -0.003873117               0.003539281              -0.002351615              -0.001894826               0.001811355              -0.000083470               0.000000000               0.000000000               0.000000000               0.000000000              -0.003281327               0.004543212              -0.002575794              -0.001798396               0.002113853               0.000315457               0.000000000               0.000000000               0.000000000               0.000000000              -0.002793750               0.005165793              -0.002458408              -0.001693377               0.002286372               0.000592995               0.000000000               0.000000000               0.000000000               0.000000000              -0.002345386               0.005541957              -0.002242128              -0.001572261               0.002371387               0.000799125               0.000000000               0.000000000               0.000000000               0.000000000              -0.001928896               0.005755861              -0.002016615              -0.001442816               0.002399539               0.000956723               0.000000000               0.000000000               0.000000000               0.000000000              -0.001542173               0.005853631              -0.001805351              -0.001310016               0.002387862               0.001077846               0.000000000               0.000000000               0.000000000               0.000000000              -0.001174626               0.005873792              -0.001608828              -0.001174707               0.002349480               0.001174773               0.000000000               0.000000000               0.000000000               0.000000000              -0.000824249               0.005843814              -0.001426783              -0.001039568               0.002294441               0.001254873               0.000000000               0.000000000               0.000000000               0.000000000              -0.000488612               0.005772697              -0.001258559              -0.000904815               0.002225818               0.001321003               0.000000000               0.000000000               0.000000000               0.000000000              -0.000169437               0.005665121              -0.001092825              -0.000771678               0.002145580               0.001373903               0.000000000               0.000000000               0.000000000               0.000000000               0.000123777               0.005534770              -0.000914369              -0.000645428               0.002060048               0.001414619               0.000000000               0.000000000               0.000000000               0.000000000               0.000373838               0.005393454              -0.000718553              -0.000533991               0.001975797               0.001441806               0.000000000               0.000000000               0.000000000               0.000000000               0.000560759               0.005249469              -0.000501809              -0.000445898               0.001898438               0.001452540               0.000000000               0.000000000               0.000000000               0.000000000               0.000666155               0.005118999              -0.000260775              -0.000390066               0.001836338               0.001446272               0.000000000               0.000000000               0.000000000               0.000000000               0.000690462               0.005057172              -0.000133419              -0.000373222               0.001810115               0.001436892               0.000000000               0.000000000               0.000000000               0.000000000              -0.008137285              -0.000409988               0.000773417              -0.003000231               0.000863408              -0.002136823               0.000000000               0.000000000               0.000000000               0.000000000              -0.005662171               0.000894553              -0.000699431              -0.002235131               0.001043220              -0.001191910               0.000000000               0.000000000               0.000000000               0.000000000              -0.004007950               0.002076232              -0.002008390              -0.001762508               0.001279570              -0.000482937               0.000000000               0.000000000               0.000000000               0.000000000              -0.003094022               0.003066449              -0.002334862              -0.001543562               0.001536658              -0.000006903               0.000000000               0.000000000               0.000000000               0.000000000              -0.002493940               0.003811477              -0.002308114              -0.001411660               0.001741032               0.000329372               0.000000000               0.000000000               0.000000000               0.000000000              -0.002027224               0.004359535              -0.002157268              -0.001305149               0.001888213               0.000583064               0.000000000               0.000000000               0.000000000               0.000000000              -0.001621218               0.004755991              -0.001973520              -0.001202454               0.001986132               0.000783678               0.000000000               0.000000000               0.000000000               0.000000000              -0.001253945               0.005027054              -0.001790291              -0.001098609               0.002041870               0.000943261               0.000000000               0.000000000               0.000000000               0.000000000              -0.000905491               0.005194911              -0.001618382              -0.000988921               0.002061260               0.001072338               0.000000000               0.000000000               0.000000000               0.000000000              -0.000562996               0.005294344              -0.001459671              -0.000872915               0.002055735               0.001182820               0.000000000               0.000000000               0.000000000               0.000000000              -0.000223872               0.005345262              -0.001311505              -0.000752108               0.002032439               0.001280330               0.000000000               0.000000000               0.000000000               0.000000000               0.000109773               0.005354683              -0.001164699              -0.000628170               0.001994266               0.001366097               0.000000000               0.000000000               0.000000000               0.000000000               0.000438943               0.005326805              -0.001003412              -0.000501246               0.001942666               0.001441420               0.000000000               0.000000000               0.000000000               0.000000000               0.000756344               0.005267345              -0.000815766              -0.000374789               0.001880693               0.001505905               0.000000000               0.000000000               0.000000000               0.000000000               0.001045788               0.005186186              -0.000594082              -0.000256102               0.001814079               0.001557976               0.000000000               0.000000000               0.000000000               0.000000000               0.001287941               0.005096077              -0.000323473              -0.000154032               0.001750019               0.001595988               0.000000000               0.000000000               0.000000000               0.000000000               0.001422815               0.005062168              -0.000179278              -0.000099215               0.001720444               0.001621229               0.000000000               0.000000000               0.000000000               0.000000000              -0.009675594              -0.000798116               0.000763274              -0.003528581               0.000910149              -0.002618432               0.000000000               0.000000000               0.000000000               0.000000000              -0.006472845               0.000115922              -0.000397360              -0.002441805               0.000852570              -0.001589235               0.000000000               0.000000000               0.000000000               0.000000000              -0.004127808               0.000884763              -0.001459742              -0.001658521               0.000847755              -0.000810767               0.000000000               0.000000000               0.000000000               0.000000000              -0.002906080               0.001792110              -0.001775440              -0.001313792               0.001035293              -0.000278499               0.000000000               0.000000000               0.000000000               0.000000000              -0.002176957               0.002591182              -0.001803061              -0.001140255               0.001243803               0.000103548               0.000000000               0.000000000               0.000000000               0.000000000              -0.001673913               0.003253481              -0.001717630              -0.001034401               0.001429282               0.000394882               0.000000000               0.000000000               0.000000000               0.000000000              -0.001270371               0.003785515              -0.001592280              -0.000949577               0.001578351               0.000628774               0.000000000               0.000000000               0.000000000               0.000000000              -0.000915074               0.004195108              -0.001458415              -0.000867540               0.001687535               0.000819995               0.000000000               0.000000000               0.000000000               0.000000000              -0.000585518               0.004491174              -0.001330983              -0.000780965               0.001757364               0.000976399               0.000000000               0.000000000               0.000000000               0.000000000              -0.000258573               0.004707236              -0.001214248              -0.000685368               0.001797519               0.001112151               0.000000000               0.000000000               0.000000000               0.000000000               0.000080496               0.004873687              -0.001105391              -0.000579024               0.001817554               0.001238530               0.000000000               0.000000000               0.000000000               0.000000000               0.000429827               0.004995340              -0.000996054              -0.000463232               0.001819507               0.001356275               0.000000000               0.000000000               0.000000000               0.000000000               0.000790903               0.005072969              -0.000875040              -0.000337532               0.001803484               0.001465951               0.000000000               0.000000000               0.000000000               0.000000000               0.001175018               0.005109657              -0.000730917              -0.000198075               0.001769227               0.001571152               0.000000000               0.000000000               0.000000000               0.000000000               0.001581277               0.005103841              -0.000548662              -0.000045001               0.001716264               0.001671262               0.000000000               0.000000000               0.000000000               0.000000000               0.002000676               0.005062406              -0.000307213               0.000117451               0.001648301               0.001765753               0.000000000               0.000000000               0.000000000               0.000000000               0.002296843               0.005066256              -0.000179874               0.000228032               0.001612724               0.001840756               0.000000000               0.000000000               0.000000000               0.000000000              -0.010708747              -0.000980058               0.000463457              -0.003893270               0.000971064              -0.002922206               0.000000000               0.000000000               0.000000000               0.000000000              -0.007028639              -0.000354420              -0.000174450              -0.002591435               0.000745667              -0.001845769               0.000000000               0.000000000               0.000000000               0.000000000              -0.004216784               0.000108824              -0.000768282              -0.001594896               0.000567902              -0.001026993               0.000000000               0.000000000               0.000000000               0.000000000              -0.002771891               0.000931529              -0.000961138              -0.001155899               0.000695804              -0.000460095               0.000000000               0.000000000               0.000000000               0.000000000              -0.001938205               0.001742588              -0.000992213              -0.000944649               0.000895739              -0.000048910               0.000000000               0.000000000               0.000000000               0.000000000              -0.001393439               0.002459333              -0.000957069              -0.000829954               0.001096420               0.000266466               0.000000000               0.000000000               0.000000000               0.000000000              -0.000987520               0.003064944              -0.000895835              -0.000753436               0.001272783               0.000519346               0.000000000               0.000000000               0.000000000               0.000000000              -0.000643929               0.003560697              -0.000824459              -0.000686559               0.001415740               0.000729181               0.000000000               0.000000000               0.000000000               0.000000000              -0.000327938               0.003948580              -0.000754654              -0.000616548               0.001521696               0.000905148               0.000000000               0.000000000               0.000000000               0.000000000              -0.000013489               0.004255152              -0.000694059              -0.000536951               0.001597353               0.001060402               0.000000000               0.000000000               0.000000000               0.000000000               0.000318747               0.004509658              -0.000638001              -0.000444176               0.001651263               0.001207087               0.000000000               0.000000000               0.000000000               0.000000000               0.000676204               0.004714514              -0.000578356              -0.000335737               0.001683401               0.001347664               0.000000000               0.000000000               0.000000000               0.000000000               0.001066713               0.004866114              -0.000513782              -0.000208246               0.001691437               0.001483191               0.000000000               0.000000000               0.000000000               0.000000000               0.001505173               0.004972557              -0.000437879              -0.000057130               0.001676546               0.001619416               0.000000000               0.000000000               0.000000000               0.000000000               0.002006465               0.005030917              -0.000334869               0.000123559               0.001635769               0.001759328               0.000000000               0.000000000               0.000000000               0.000000000               0.002586046               0.005032730              -0.000189475               0.000340673               0.001564002               0.001904675               0.000000000               0.000000000               0.000000000               0.000000000               0.003037018               0.005069302              -0.000113768               0.000505214               0.001521346               0.002026560               0.000000000               0.000000000               0.000000000               0.000000000               0.000000000               0.000000000               0.000000000               0.000000000               0.000000000               0.000000000               0.000000000               0.000000000               0.000000000               0.000000000               0.000000000               0.000000000               0.000000000               0.000000000               0.000000000               0.000000000               0.000000000               0.000000000               0.000000000               0.000000000               0.000000000               0.000000000               0.000000000               0.000000000               0.000000000               0.000000000               0.000000000               0.000000000               0.000000000               0.000000000               0.000000000               0.000000000               0.000000000               0.000000000               0.000000000               0.000000000               0.000000000               0.000000000               0.000000000               0.000000000               0.000000000               0.000000000               0.000000000               0.000000000               0.000000000               0.000000000               0.000000000               0.000000000               0.000000000               0.000000000               0.000000000               0.000000000               0.000000000               0.000000000               0.000000000               0.000000000               0.000000000               0.000000000               0.000000000               0.000000000               0.000000000               0.000000000               0.000000000               0.000000000               0.000000000               0.000000000               0.000000000               0.000000000               0.000000000               0.000000000               0.000000000               0.000000000               0.000000000               0.000000000               0.000000000               0.000000000               0.000000000               0.000000000               0.000000000               0.000000000               0.000000000               0.000000000               0.000000000               0.000000000               0.000000000               0.000000000               0.000000000               0.000000000               0.000000000               0.000000000               0.000000000               0.000000000               0.000000000               0.000000000               0.000000000               0.000000000               0.000000000               0.000000000               0.000000000               0.000000000               0.000000000               0.000000000               0.000000000               0.000000000               0.000000000               0.000000000               0.000000000               0.000000000               0.000000000               0.000000000               0.000000000               0.000000000               0.000000000               0.000000000               0.000000000               0.000000000               0.000000000               0.000000000               0.000000000               0.000000000               0.000000000               0.000000000               0.000000000               0.000000000               0.000000000               0.000000000               0.000000000               0.000000000               0.000000000               0.000000000               0.000000000               0.000000000               0.000000000               0.000000000               0.000000000               0.000000000               0.000000000               0.000000000               0.000000000               0.000000000               0.000000000               0.000000000               0.000000000               0.000000000               0.000000000               0.000000000               0.000000000               0.000000000               0.000000000               0.000000000               0.000000000               0.000000000               0.000000000               0.000000000               0.000000000               0.000000000               0.000000000               0.000000000               0.000000000               0.000000000               0.000000000               0.000000000               0.000000000               0.000000000               0.000000000               0.000000000               0.000000000               0.000000000               0.000000000               0.000000000               0.000000000               0.000000000               0.000000000               0.000000000               0.000000000               0.000000000               0.000000000               0.000000000               0.000000000               0.000000000               0.000000000               0.000000000               0.000000000               0.000000000               0.000000000               0.000000000               0.000000000               0.000000000               0.000000000               0.000000000               0.000000000               0.000000000               0.000000000               0.000000000               0.000000000               0.000000000               0.000000000               0.000000000               0.000000000               0.000000000               0.000000000               0.000000000               0.000000000               0.000000000               0.000000000               0.000000000               0.000000000               0.000000000               0.000000000               0.000000000               0.000000000               0.000000000               0.000000000               0.000000000               0.000000000               0.000000000               0.000000000               0.000000000               0.000000000               0.000000000               0.000000000               0.000000000               0.000000000               0.000000000               0.000000000               0.000000000               0.000000000               0.000000000               0.000000000               0.000000000               0.000000000               0.000000000               0.000000000               0.000000000               0.000000000               0.000000000               0.000000000               0.000000000               0.000000000               0.000000000               0.000000000               0.000000000               0.000000000               0.000000000               0.000000000               0.000000000               0.000000000               0.000000000               0.000000000               0.000000000               0.000000000               0.000000000               0.000000000               0.000000000               0.000000000               0.000000000               0.000000000               0.000000000               0.000000000               0.000000000               0.000000000               0.000000000               0.000000000               0.000000000               0.000000000               0.000000000               0.000000000               0.000000000               0.000000000               0.000000000               0.000000000               0.000000000               0.000000000               0.000000000               0.000000000               0.000000000               0.000000000               0.000000000               0.000000000               0.000000000               0.000000000               0.000000000               0.000000000               0.000000000               0.000000000               0.000000000               0.000000000               0.000000000               0.000000000               0.000000000               0.000000000               0.000000000               0.000000000               0.000000000               0.000000000               0.000000000               0.000000000               0.000000000               0.000000000               0.000000000               0.000000000               0.000000000               0.000000000               0.000000000               0.000000000               0.000000000               0.000000000               0.000000000               0.000000000               0.000000000               0.000000000               0.000000000               0.000000000               0.000000000               0.000000000               0.000000000               0.000000000               0.000000000               0.000000000               0.000000000               0.000000000               0.000000000               0.000000000               0.000000000               0.000000000               0.000000000               0.000000000               0.000000000               0.000000000               0.000000000               0.000000000               0.000000000               0.000000000               0.000000000               0.000000000               0.000000000               0.000000000               0.000000000               0.000000000               0.000000000               0.002251093               0.022976107               0.001605703              -0.002027849               0.008334575               0.006306727               0.000000000               0.000000000               0.000000000               0.000000000               0.002118729               0.018024804               0.000798855              -0.001458574               0.006494399               0.005035825               0.000000000               0.000000000               0.000000000               0.000000000               0.002677057               0.014060912              -0.000001254              -0.000753716               0.004938163               0.004184447               0.000000000               0.000000000               0.000000000               0.000000000               0.002521952               0.011832202              -0.000337969              -0.000533292               0.004121792               0.003588500               0.000000000               0.000000000               0.000000000               0.000000000               0.002166022               0.010435647              -0.000474263              -0.000492197               0.003642580               0.003150383               0.000000000               0.000000000               0.000000000               0.000000000               0.001777583               0.009469048              -0.000517344              -0.000517036               0.003328663               0.002811627               0.000000000               0.000000000               0.000000000               0.000000000               0.001420198               0.008741651              -0.000520122              -0.000560131               0.003100565               0.002540434               0.000000000               0.000000000               0.000000000               0.000000000               0.001113529               0.008157695              -0.000505724              -0.000602137               0.002919917               0.002317780               0.000000000               0.000000000               0.000000000               0.000000000               0.000855851               0.007657261              -0.000479595              -0.000636212               0.002764465               0.002128253               0.000000000               0.000000000               0.000000000               0.000000000               0.000642212               0.007197978              -0.000445763              -0.000658916               0.002618941               0.001960024               0.000000000               0.000000000               0.000000000               0.000000000               0.000463959               0.006756829              -0.000414104              -0.000670617               0.002475793               0.001805176               0.000000000               0.000000000               0.000000000               0.000000000               0.000313082               0.006324195              -0.000385024              -0.000673117               0.002332416               0.001659299               0.000000000               0.000000000               0.000000000               0.000000000               0.000188496               0.005885837              -0.000346612              -0.000665042               0.002183607               0.001518565               0.000000000               0.000000000               0.000000000               0.000000000               0.000093015               0.005424927              -0.000296518              -0.000643234               0.002022702               0.001379468               0.000000000               0.000000000               0.000000000               0.000000000               0.000031003               0.004929326              -0.000229567              -0.000604538               0.001844605               0.001240067               0.000000000               0.000000000               0.000000000               0.000000000               0.000003745               0.004381788              -0.000131452              -0.000546318               0.001642687               0.001096370               0.000000000               0.000000000               0.000000000               0.000000000              -0.000044749               0.003971462              -0.000083104              -0.000513212               0.001494878               0.000981666               0.000000000               0.000000000               0.000000000               0.000000000               0.002444830               0.021599321               0.002990806              -0.001783101               0.007794068               0.006010967               0.000000000               0.000000000               0.000000000               0.000000000               0.001980979               0.017137770               0.001489138              -0.001399351               0.006178983               0.004779632               0.000000000               0.000000000               0.000000000               0.000000000               0.002184048               0.013675220               0.000011734              -0.000890382               0.004855155               0.003964773               0.000000000               0.000000000               0.000000000               0.000000000               0.001899201               0.011700929              -0.000585954              -0.000750414               0.004150409               0.003399995               0.000000000               0.000000000               0.000000000               0.000000000               0.001520269               0.010425506              -0.000817013              -0.000733086               0.003719496               0.002986410               0.000000000               0.000000000               0.000000000               0.000000000               0.001160003               0.009514702              -0.000884912              -0.000754335               0.003422980               0.002668645               0.000000000               0.000000000               0.000000000               0.000000000               0.000851474               0.008807366              -0.000884236              -0.000781616               0.003196298               0.002414682               0.000000000               0.000000000               0.000000000               0.000000000               0.000605095               0.008223673              -0.000857469              -0.000801047               0.003008212               0.002207166               0.000000000               0.000000000               0.000000000               0.000000000               0.000409945               0.007718765              -0.000810963              -0.000811115               0.002843268               0.002032153               0.000000000               0.000000000               0.000000000               0.000000000               0.000251937               0.007256436              -0.000751596              -0.000812576               0.002689647               0.001877070               0.000000000               0.000000000               0.000000000               0.000000000               0.000124459               0.006820192              -0.000695292              -0.000805850               0.002541991               0.001736141               0.000000000               0.000000000               0.000000000               0.000000000               0.000028124               0.006396210              -0.000640790              -0.000788978               0.002395041               0.001606063               0.000000000               0.000000000               0.000000000               0.000000000              -0.000035145               0.005971326              -0.000570898              -0.000759594               0.002243620               0.001484026               0.000000000               0.000000000               0.000000000               0.000000000              -0.000068114               0.005538813              -0.000481443              -0.000717893               0.002085550               0.001367657               0.000000000               0.000000000               0.000000000               0.000000000              -0.000070314               0.005095453              -0.000365053              -0.000663298               0.001919567               0.001256269               0.000000000               0.000000000               0.000000000               0.000000000              -0.000044282               0.004643920              -0.000204638              -0.000597094               0.001746989               0.001149895               0.000000000               0.000000000               0.000000000               0.000000000              -0.000059510               0.004329221              -0.000126331              -0.000563467               0.001630882               0.001067414               0.000000000               0.000000000               0.000000000               0.000000000               0.002641949               0.019518023               0.003972778              -0.001449021               0.006988949               0.005539928               0.000000000               0.000000000               0.000000000               0.000000000               0.001715735               0.015816706               0.001987020              -0.001333685               0.005716744               0.004383059               0.000000000               0.000000000               0.000000000               0.000000000               0.001422490               0.013108443               0.000057361              -0.001105119               0.004737810               0.003632691               0.000000000               0.000000000               0.000000000               0.000000000               0.000987387               0.011490519              -0.000681965              -0.001066042               0.004185482               0.003119440               0.000000000               0.000000000               0.000000000               0.000000000               0.000609189               0.010382117              -0.000951672              -0.001069316               0.003817110               0.002747793               0.000000000               0.000000000               0.000000000               0.000000000               0.000314154               0.009548548              -0.001021969              -0.001075758               0.003541404               0.002465645               0.000000000               0.000000000               0.000000000               0.000000000               0.000096080               0.008870712              -0.001009417              -0.001072807               0.003314477               0.002241670               0.000000000               0.000000000               0.000000000               0.000000000              -0.000057034               0.008290840              -0.000969961              -0.001057741               0.003116166               0.002058425               0.000000000               0.000000000               0.000000000               0.000000000              -0.000162369               0.007773725              -0.000912513              -0.001032602               0.002935416               0.001902815               0.000000000               0.000000000               0.000000000               0.000000000              -0.000230671               0.007302969              -0.000843904              -0.000999371               0.002767422               0.001768052               0.000000000               0.000000000               0.000000000               0.000000000              -0.000267890               0.006868078              -0.000778939              -0.000958966               0.002608992               0.001650026               0.000000000               0.000000000               0.000000000               0.000000000              -0.000276879               0.006453004              -0.000711556              -0.000910453               0.002454464               0.001544011               0.000000000               0.000000000               0.000000000               0.000000000              -0.000258073               0.006049963              -0.000626924              -0.000853021               0.002300974               0.001447954               0.000000000               0.000000000               0.000000000               0.000000000              -0.000212483               0.005663621              -0.000519966              -0.000787632               0.002150399               0.001362767               0.000000000               0.000000000               0.000000000               0.000000000              -0.000150951               0.005296377              -0.000384224              -0.000718652               0.002004992               0.001286340               0.000000000               0.000000000               0.000000000               0.000000000              -0.000079946               0.004964508              -0.000210177              -0.000650542               0.001871667               0.001221125               0.000000000               0.000000000               0.000000000               0.000000000              -0.000064021               0.004762495              -0.000125291              -0.000619318               0.001793922               0.001174604               0.000000000               0.000000000               0.000000000               0.000000000               0.002693101               0.016963915               0.004476774              -0.001110577               0.006024773               0.004914196               0.000000000               0.000000000               0.000000000               0.000000000               0.001289821               0.014223387               0.002276171              -0.001294239               0.005172494               0.003878255               0.000000000               0.000000000               0.000000000               0.000000000               0.000480621               0.012413563               0.000165698              -0.001371459               0.004594966               0.003223507               0.000000000               0.000000000               0.000000000               0.000000000              -0.000058653               0.011185660              -0.000592335              -0.001420199               0.004201916               0.002781717               0.000000000               0.000000000               0.000000000               0.000000000              -0.000382640               0.010254230              -0.000850567              -0.001425265               0.003893131               0.002467865               0.000000000               0.000000000               0.000000000               0.000000000              -0.000571744               0.009494974              -0.000910684              -0.001401272               0.003632050               0.002230778               0.000000000               0.000000000               0.000000000               0.000000000              -0.000671394               0.008844622              -0.000892133              -0.001357347               0.003400627               0.002043280               0.000000000               0.000000000               0.000000000               0.000000000              -0.000705268               0.008271542              -0.000851178              -0.001298415               0.003189958               0.001891543               0.000000000               0.000000000               0.000000000               0.000000000              -0.000696271               0.007750967              -0.000799964              -0.001229970               0.002993620               0.001763650               0.000000000               0.000000000               0.000000000               0.000000000              -0.000657831               0.007276171              -0.000743345              -0.001156205               0.002810768               0.001654563               0.000000000               0.000000000               0.000000000               0.000000000              -0.000593119               0.006841153              -0.000686100              -0.001077561               0.002639548               0.001561987               0.000000000               0.000000000               0.000000000               0.000000000              -0.000503065               0.006434167              -0.000620557              -0.000992918               0.002475673               0.001482755               0.000000000               0.000000000               0.000000000               0.000000000              -0.000394989               0.006054050              -0.000539070              -0.000904875               0.002319622               0.001414747               0.000000000               0.000000000               0.000000000               0.000000000              -0.000279643               0.005710363              -0.000436753              -0.000818659               0.002176322               0.001357662               0.000000000               0.000000000               0.000000000               0.000000000              -0.000171008               0.005415932              -0.000308752              -0.000741118               0.002052332               0.001311214               0.000000000               0.000000000               0.000000000               0.000000000              -0.000078401               0.005193063              -0.000161304              -0.000678532               0.001957181               0.001278649               0.000000000               0.000000000               0.000000000               0.000000000              -0.000047725               0.005083698              -0.000091602              -0.000653358               0.001912335               0.001258977               0.000000000               0.000000000               0.000000000               0.000000000               0.002486195               0.014194136               0.004510582              -0.000841946               0.005011979               0.004170033               0.000000000               0.000000000               0.000000000               0.000000000               0.000700629               0.012519977               0.002380979              -0.001302260               0.004607370               0.003305110               0.000000000               0.000000000               0.000000000               0.000000000              -0.000532345               0.011642701               0.000361391              -0.001654963               0.004432516               0.002777553               0.000000000               0.000000000               0.000000000               0.000000000              -0.001081286               0.010781563              -0.000322875              -0.001753173               0.004178210               0.002425036               0.000000000               0.000000000               0.000000000               0.000000000              -0.001288733               0.010005203              -0.000547775              -0.001733921               0.003913008               0.002179087               0.000000000               0.000000000               0.000000000               0.000000000              -0.001332233               0.009309318              -0.000604587              -0.001663248               0.003657491               0.001994243               0.000000000               0.000000000               0.000000000               0.000000000              -0.001290679               0.008684169              -0.000599325              -0.001569522               0.003417868               0.001848346               0.000000000               0.000000000               0.000000000               0.000000000              -0.001198634               0.008117719              -0.000580790              -0.001464199               0.003193946               0.001729747               0.000000000               0.000000000               0.000000000               0.000000000              -0.001075379               0.007604973              -0.000554810              -0.001353886               0.002986261               0.001632375               0.000000000               0.000000000               0.000000000               0.000000000              -0.000935924               0.007138271              -0.000522666              -0.001243253               0.002793817               0.001550565               0.000000000               0.000000000               0.000000000               0.000000000              -0.000778966               0.006710222              -0.000484484              -0.001130887               0.002613681               0.001482794               0.000000000               0.000000000               0.000000000               0.000000000              -0.000603549               0.006314457              -0.000433780              -0.001015636               0.002443343               0.001427708               0.000000000               0.000000000               0.000000000               0.000000000              -0.000428835               0.005958881              -0.000367608              -0.000905671               0.002288164               0.001382493               0.000000000               0.000000000               0.000000000               0.000000000              -0.000273782               0.005656733              -0.000284324              -0.000809758               0.002155478               0.001345720               0.000000000               0.000000000               0.000000000               0.000000000              -0.000149103               0.005424010              -0.000187781              -0.000733913               0.002052623               0.001318710               0.000000000               0.000000000               0.000000000               0.000000000              -0.000059717               0.005272398              -0.000089978              -0.000681442               0.001984596               0.001303154               0.000000000               0.000000000               0.000000000               0.000000000              -0.000030092               0.005209241              -0.000046634              -0.000662438               0.001957209               0.001294771               0.000000000               0.000000000               0.000000000               0.000000000               0.001952225               0.011450826               0.004148411              -0.000699271               0.004049993               0.003350722               0.000000000               0.000000000               0.000000000               0.000000000              -0.000021953               0.010850342               0.002354685              -0.001364523               0.004071585               0.002707062               0.000000000               0.000000000               0.000000000               0.000000000              -0.001503604               0.010839694               0.000652473              -0.001918809               0.004252798               0.002333990               0.000000000               0.000000000               0.000000000               0.000000000              -0.001950513               0.010286111               0.000085605              -0.002017201               0.004101070               0.002083869               0.000000000               0.000000000               0.000000000               0.000000000              -0.001990141               0.009633627              -0.000116978              -0.001950501               0.003861344               0.001910843               0.000000000               0.000000000               0.000000000               0.000000000              -0.001871683               0.008995902              -0.000192689              -0.001826364               0.003607392               0.001781028               0.000000000               0.000000000               0.000000000               0.000000000              -0.001686140               0.008397742              -0.000222844              -0.001682016               0.003359891               0.001677875               0.000000000               0.000000000               0.000000000               0.000000000              -0.001473125               0.007851324              -0.000242854              -0.001533834               0.003128360               0.001594526               0.000000000               0.000000000               0.000000000               0.000000000              -0.001249165               0.007356490              -0.000255421              -0.001387995               0.002914804               0.001526809               0.000000000               0.000000000               0.000000000               0.000000000              -0.001022595               0.006906288              -0.000255387              -0.001246756               0.002717658               0.001470902               0.000000000               0.000000000               0.000000000               0.000000000              -0.000796151               0.006488557              -0.000241945              -0.001109624               0.002532705               0.001423082               0.000000000               0.000000000               0.000000000               0.000000000              -0.000573217               0.006110617              -0.000213894              -0.000978781               0.002363112               0.001384331               0.000000000               0.000000000               0.000000000               0.000000000              -0.000375529               0.005788067              -0.000174129              -0.000864330               0.002217446               0.001353116               0.000000000               0.000000000               0.000000000               0.000000000              -0.000218659               0.005533124              -0.000124522              -0.000773636               0.002102235               0.001328599               0.000000000               0.000000000               0.000000000               0.000000000              -0.000106404               0.005349874              -0.000071264              -0.000708634               0.002019485               0.001310851               0.000000000               0.000000000               0.000000000               0.000000000              -0.000037219               0.005231099              -0.000027310              -0.000667843               0.001966296               0.001298454               0.000000000               0.000000000               0.000000000               0.000000000              -0.000020844               0.005175691              -0.000014654              -0.000654776               0.001943472               0.001288695               0.000000000               0.000000000               0.000000000               0.000000000               0.001117362               0.008902000               0.003501206              -0.000693741               0.003198549               0.002504809               0.000000000               0.000000000               0.000000000               0.000000000              -0.000825838               0.009314503               0.002254601              -0.001474000               0.003596136               0.002122136               0.000000000               0.000000000               0.000000000               0.000000000              -0.002330302               0.010014672               0.001028201              -0.002125692               0.004046755               0.001921062               0.000000000               0.000000000               0.000000000               0.000000000              -0.002581542               0.009698481               0.000570750              -0.002180383               0.003959589               0.001779206               0.000000000               0.000000000               0.000000000               0.000000000              -0.002430391               0.009158016               0.000357203              -0.002056143               0.003738023               0.001681879               0.000000000               0.000000000               0.000000000               0.000000000              -0.002158334               0.008580786               0.000237009              -0.001881969               0.003487556               0.001605587               0.000000000               0.000000000               0.000000000               0.000000000              -0.001849191               0.008024106               0.000155720              -0.001696455               0.003240160               0.001543705               0.000000000               0.000000000               0.000000000               0.000000000              -0.001538231               0.007513994               0.000088925              -0.001516082               0.003010000               0.001493918               0.000000000               0.000000000               0.000000000               0.000000000              -0.001235666               0.007045128               0.000036365              -0.001344012               0.002796357               0.001452344               0.000000000               0.000000000               0.000000000               0.000000000              -0.000944614               0.006607472               0.000000305              -0.001180161               0.002595856               0.001415695               0.000000000               0.000000000               0.000000000               0.000000000              -0.000678303               0.006205628              -0.000018509              -0.001030064               0.002411877               0.001381812               0.000000000               0.000000000               0.000000000               0.000000000              -0.000447787               0.005859988              -0.000022898              -0.000900416               0.002253448               0.001353032               0.000000000               0.000000000               0.000000000               0.000000000              -0.000265179               0.005583118              -0.000019511              -0.000797330               0.002126797               0.001329467               0.000000000               0.000000000               0.000000000               0.000000000              -0.000135621               0.005375678              -0.000011764              -0.000722816               0.002032813               0.001309997               0.000000000               0.000000000               0.000000000               0.000000000              -0.000056438               0.005230665              -0.000002085              -0.000674996               0.001968536               0.001293540               0.000000000               0.000000000               0.000000000               0.000000000              -0.000016575               0.005134375               0.000002991              -0.000648011               0.001927445               0.001279434               0.000000000               0.000000000               0.000000000               0.000000000              -0.000011754               0.005085740              -0.000001325              -0.000640124               0.001908604               0.001268481               0.000000000               0.000000000               0.000000000               0.000000000               0.000114674               0.006732476               0.002687719              -0.000798557               0.002510321               0.001711764               0.000000000               0.000000000               0.000000000               0.000000000              -0.001599055               0.007940643               0.002129698              -0.001592223               0.003177595               0.001585372               0.000000000               0.000000000               0.000000000               0.000000000              -0.002959590               0.009200114               0.001473185              -0.002259855               0.003819959               0.001560104               0.000000000               0.000000000               0.000000000               0.000000000              -0.002999207               0.009134182               0.001084069              -0.002266470               0.003800187               0.001533717               0.000000000               0.000000000               0.000000000               0.000000000              -0.002689325               0.008732059               0.000832178              -0.002099999               0.003610657               0.001510658               0.000000000               0.000000000               0.000000000               0.000000000              -0.002298941               0.008237490               0.000654775              -0.001891784               0.003376397               0.001484613               0.000000000               0.000000000               0.000000000               0.000000000              -0.001896391               0.007743592               0.000519809              -0.001679091               0.003140869               0.001461777               0.000000000               0.000000000               0.000000000               0.000000000              -0.001513456               0.007279205               0.000408906              -0.001477443               0.002918858               0.001441415               0.000000000               0.000000000               0.000000000               0.000000000              -0.001154329               0.006836748               0.000318527              -0.001287464               0.002708048               0.001420584               0.000000000               0.000000000               0.000000000               0.000000000              -0.000820895               0.006413922               0.000241474              -0.001109573               0.002507810               0.001398237               0.000000000               0.000000000               0.000000000               0.000000000              -0.000538018               0.006030209               0.000177973              -0.000955531               0.002328560               0.001373029               0.000000000               0.000000000               0.000000000               0.000000000              -0.000315265               0.005710793               0.000130059              -0.000832072               0.002180936               0.001348864               0.000000000               0.000000000               0.000000000               0.000000000              -0.000157077               0.005461763               0.000090343              -0.000741622               0.002067777               0.001326155               0.000000000               0.000000000               0.000000000               0.000000000              -0.000060160               0.005279292               0.000058127              -0.000682470               0.001987236               0.001304767               0.000000000               0.000000000               0.000000000               0.000000000              -0.000013585               0.005151394               0.000032130              -0.000649017               0.001933453               0.001284436               0.000000000               0.000000000               0.000000000               0.000000000              -0.000004583               0.005067357               0.000012995              -0.000635137               0.001900814               0.001265678               0.000000000               0.000000000               0.000000000               0.000000000              -0.000011082               0.005030582               0.000003508              -0.000632977               0.001887836               0.001254859               0.000000000               0.000000000               0.000000000               0.000000000              -0.001076769               0.004716933               0.001813471              -0.000993404               0.001903429               0.000910026               0.000000000               0.000000000               0.000000000               0.000000000              -0.002235371               0.006360902               0.001981625              -0.001633373               0.002664737               0.001031363               0.000000000               0.000000000               0.000000000               0.000000000              -0.003306556               0.008021840               0.001941100              -0.002242684               0.003421481               0.001178797               0.000000000               0.000000000               0.000000000               0.000000000              -0.003245703               0.008325952               0.001634230              -0.002257878               0.003527915               0.001270038               0.000000000               0.000000000               0.000000000               0.000000000              -0.002877941               0.008179480               0.001347820              -0.002101658               0.003427019               0.001325361               0.000000000               0.000000000               0.000000000               0.000000000              -0.002447076               0.007869679               0.001114750              -0.001901359               0.003256986               0.001355628               0.000000000               0.000000000               0.000000000               0.000000000              -0.002017099               0.007505168               0.000927796              -0.001694554               0.003066549               0.001371995               0.000000000               0.000000000               0.000000000               0.000000000              -0.001607936               0.007137123               0.000774459              -0.001495113               0.002877388               0.001382275               0.000000000               0.000000000               0.000000000               0.000000000              -0.001232627               0.006774038               0.000643293              -0.001308987               0.002694319               0.001385332               0.000000000               0.000000000               0.000000000               0.000000000              -0.000889689               0.006414940               0.000520162              -0.001135498               0.002516791               0.001381293               0.000000000               0.000000000               0.000000000               0.000000000              -0.000592314               0.006075412               0.000406805              -0.000981542               0.002352298               0.001370756               0.000000000               0.000000000               0.000000000               0.000000000              -0.000353934               0.005773823               0.000309255              -0.000854451               0.002209405               0.001354954               0.000000000               0.000000000               0.000000000               0.000000000              -0.000177645               0.005520722               0.000222579              -0.000756705               0.002092457               0.001335752               0.000000000               0.000000000               0.000000000               0.000000000              -0.000066427               0.005321116               0.000146782              -0.000690048               0.002003703               0.001313656               0.000000000               0.000000000               0.000000000               0.000000000              -0.000013510               0.005171002               0.000080951              -0.000651440               0.001940797               0.001289357               0.000000000               0.000000000               0.000000000               0.000000000              -0.000004282               0.005068541               0.000030585              -0.000635172               0.001901221               0.001266049               0.000000000               0.000000000               0.000000000               0.000000000              -0.000013392               0.005023865               0.000008878              -0.000633004               0.001885606               0.001252602               0.000000000               0.000000000               0.000000000               0.000000000              -0.002626281               0.002888014               0.000942052              -0.001345854               0.001411279               0.000065425               0.000000000               0.000000000               0.000000000               0.000000000              -0.002951667               0.004776906               0.001758177              -0.001703985               0.002160280               0.000456296               0.000000000               0.000000000               0.000000000               0.000000000              -0.003549562               0.006658293               0.002306666              -0.002163368               0.002940530               0.000777163               0.000000000               0.000000000               0.000000000               0.000000000              -0.003396736               0.007311451               0.002155025              -0.002187703               0.003166359               0.000978657               0.000000000               0.000000000               0.000000000               0.000000000              -0.003009905               0.007460914               0.001876711              -0.002061324               0.003174054               0.001112730               0.000000000               0.000000000               0.000000000               0.000000000              -0.002568775               0.007379036               0.001609226              -0.001885666               0.003088209               0.001202543               0.000000000               0.000000000               0.000000000               0.000000000              -0.002132215               0.007184686               0.001383760              -0.001697662               0.002960759               0.001263096               0.000000000               0.000000000               0.000000000               0.000000000              -0.001711995               0.006944786               0.001192966              -0.001510093               0.002818270               0.001308177               0.000000000               0.000000000               0.000000000               0.000000000              -0.001327571               0.006689496               0.001022602              -0.001334023               0.002674484               0.001340461               0.000000000               0.000000000               0.000000000               0.000000000              -0.000978948               0.006417067               0.000861117              -0.001169236               0.002528746               0.001359510               0.000000000               0.000000000               0.000000000               0.000000000              -0.000661696               0.006139830               0.000707475              -0.001015612               0.002385127               0.001369515               0.000000000               0.000000000               0.000000000               0.000000000              -0.000391454               0.005870458               0.000567521              -0.000880601               0.002250333               0.001369733               0.000000000               0.000000000               0.000000000               0.000000000              -0.000176746               0.005621683               0.000435867              -0.000768988               0.002130205               0.001361217               0.000000000               0.000000000               0.000000000               0.000000000              -0.000029786               0.005403946               0.000308461              -0.000686661               0.002030184               0.001343523               0.000000000               0.000000000               0.000000000               0.000000000               0.000046355               0.005226746               0.000189681              -0.000635959               0.001954217               0.001318259               0.000000000               0.000000000               0.000000000               0.000000000               0.000057294               0.005094153               0.000084510              -0.000615282               0.001903128               0.001287846               0.000000000               0.000000000               0.000000000               0.000000000               0.000036788               0.005031241               0.000033401              -0.000615108               0.001882099               0.001266992               0.000000000               0.000000000               0.000000000               0.000000000              -0.004413487               0.001381586               0.000148606              -0.001827753               0.001069773              -0.000757981               0.000000000               0.000000000               0.000000000               0.000000000              -0.003797071               0.003282179               0.001436117              -0.001834171               0.001705438              -0.000128733               0.000000000               0.000000000               0.000000000               0.000000000              -0.003727380               0.005118628               0.002452566              -0.002037592               0.002385388               0.000347797               0.000000000               0.000000000               0.000000000               0.000000000              -0.003399207               0.006011624               0.002498769              -0.002026151               0.002679237               0.000653086               0.000000000               0.000000000               0.000000000               0.000000000              -0.002980995               0.006431700               0.002284252              -0.001921832               0.002784488               0.000862657               0.000000000               0.000000000               0.000000000               0.000000000              -0.002538235               0.006590838               0.002022751              -0.001775689               0.002788820               0.001013131               0.000000000               0.000000000               0.000000000               0.000000000              -0.002108818               0.006597714               0.001783944              -0.001615518               0.002737721               0.001122204               0.000000000               0.000000000               0.000000000               0.000000000              -0.001699347               0.006517006               0.001571484              -0.001451878               0.002656273               0.001204395               0.000000000               0.000000000               0.000000000               0.000000000              -0.001316684               0.006392206               0.001376316              -0.001292780               0.002561640               0.001268861               0.000000000               0.000000000               0.000000000               0.000000000              -0.000965955               0.006232147               0.001193902              -0.001141249               0.002457778               0.001316528               0.000000000               0.000000000               0.000000000               0.000000000              -0.000637724               0.006046044               0.001021787              -0.000994900               0.002346961               0.001352061               0.000000000               0.000000000               0.000000000               0.000000000              -0.000336867               0.005844069               0.000857624              -0.000856832               0.002233614               0.001376782               0.000000000               0.000000000               0.000000000               0.000000000              -0.000084473               0.005636355               0.000691018              -0.000736220               0.002124173               0.001387953               0.000000000               0.000000000               0.000000000               0.000000000               0.000106683               0.005438477               0.000518214              -0.000639802               0.002026075               0.001386273               0.000000000               0.000000000               0.000000000               0.000000000               0.000223746               0.005262902               0.000342498              -0.000573957               0.001945602               0.001371645               0.000000000               0.000000000               0.000000000               0.000000000               0.000256121               0.005118405               0.000167324              -0.000543754               0.001887369               0.001343615               0.000000000               0.000000000               0.000000000               0.000000000               0.000235562               0.005047242               0.000077102              -0.000542568               0.001863253               0.001320685               0.000000000               0.000000000               0.000000000               0.000000000              -0.006308887               0.000288090              -0.000456582              -0.002401842               0.000896638              -0.001505204               0.000000000               0.000000000               0.000000000               0.000000000              -0.004727729               0.001962591               0.001062029              -0.002018219               0.001326927              -0.000691292               0.000000000               0.000000000               0.000000000               0.000000000              -0.003873117               0.003539281               0.002351615              -0.001894826               0.001811355              -0.000083470               0.000000000               0.000000000               0.000000000               0.000000000              -0.003281327               0.004543212               0.002575794              -0.001798396               0.002113853               0.000315457               0.000000000               0.000000000               0.000000000               0.000000000              -0.002793750               0.005165793               0.002458408              -0.001693377               0.002286372               0.000592995               0.000000000               0.000000000               0.000000000               0.000000000              -0.002345386               0.005541957               0.002242128              -0.001572261               0.002371387               0.000799125               0.000000000               0.000000000               0.000000000               0.000000000              -0.001928896               0.005755861               0.002016615              -0.001442816               0.002399539               0.000956723               0.000000000               0.000000000               0.000000000               0.000000000              -0.001542173               0.005853631               0.001805351              -0.001310016               0.002387862               0.001077846               0.000000000               0.000000000               0.000000000               0.000000000              -0.001174626               0.005873792               0.001608828              -0.001174707               0.002349480               0.001174773               0.000000000               0.000000000               0.000000000               0.000000000              -0.000824249               0.005843814               0.001426783              -0.001039568               0.002294441               0.001254873               0.000000000               0.000000000               0.000000000               0.000000000              -0.000488612               0.005772697               0.001258559              -0.000904815               0.002225818               0.001321003               0.000000000               0.000000000               0.000000000               0.000000000              -0.000169437               0.005665121               0.001092825              -0.000771678               0.002145580               0.001373903               0.000000000               0.000000000               0.000000000               0.000000000               0.000123777               0.005534770               0.000914369              -0.000645428               0.002060048               0.001414619               0.000000000               0.000000000               0.000000000               0.000000000               0.000373838               0.005393454               0.000718553              -0.000533991               0.001975797               0.001441806               0.000000000               0.000000000               0.000000000               0.000000000               0.000560759               0.005249469               0.000501809              -0.000445898               0.001898438               0.001452540               0.000000000               0.000000000               0.000000000               0.000000000               0.000666155               0.005118999               0.000260775              -0.000390066               0.001836338               0.001446272               0.000000000               0.000000000               0.000000000               0.000000000               0.000690462               0.005057172               0.000133419              -0.000373222               0.001810115               0.001436892               0.000000000               0.000000000               0.000000000               0.000000000              -0.008137285              -0.000409988              -0.000773417              -0.003000231               0.000863408              -0.002136823               0.000000000               0.000000000               0.000000000               0.000000000              -0.005662171               0.000894553               0.000699431              -0.002235131               0.001043220              -0.001191910               0.000000000               0.000000000               0.000000000               0.000000000              -0.004007950               0.002076232               0.002008390              -0.001762508               0.001279570              -0.000482937               0.000000000               0.000000000               0.000000000               0.000000000              -0.003094022               0.003066449               0.002334862              -0.001543562               0.001536658              -0.000006903               0.000000000               0.000000000               0.000000000               0.000000000              -0.002493940               0.003811477               0.002308114              -0.001411660               0.001741032               0.000329372               0.000000000               0.000000000               0.000000000               0.000000000              -0.002027224               0.004359535               0.002157268              -0.001305149               0.001888213               0.000583064               0.000000000               0.000000000               0.000000000               0.000000000              -0.001621218               0.004755991               0.001973520              -0.001202454               0.001986132               0.000783678               0.000000000               0.000000000               0.000000000               0.000000000              -0.001253945               0.005027054               0.001790291              -0.001098609               0.002041870               0.000943261               0.000000000               0.000000000               0.000000000               0.000000000              -0.000905491               0.005194911               0.001618382              -0.000988921               0.002061260               0.001072338               0.000000000               0.000000000               0.000000000               0.000000000              -0.000562996               0.005294344               0.001459671              -0.000872915               0.002055735               0.001182820               0.000000000               0.000000000               0.000000000               0.000000000              -0.000223872               0.005345262               0.001311505              -0.000752108               0.002032439               0.001280330               0.000000000               0.000000000               0.000000000               0.000000000               0.000109773               0.005354683               0.001164699              -0.000628170               0.001994266               0.001366097               0.000000000               0.000000000               0.000000000               0.000000000               0.000438943               0.005326805               0.001003412              -0.000501246               0.001942666               0.001441420               0.000000000               0.000000000               0.000000000               0.000000000               0.000756344               0.005267345               0.000815766              -0.000374789               0.001880693               0.001505905               0.000000000               0.000000000               0.000000000               0.000000000               0.001045788               0.005186186               0.000594082              -0.000256102               0.001814079               0.001557976               0.000000000               0.000000000               0.000000000               0.000000000               0.001287941               0.005096077               0.000323473              -0.000154032               0.001750019               0.001595988               0.000000000               0.000000000               0.000000000               0.000000000               0.001422815               0.005062168               0.000179278              -0.000099215               0.001720444               0.001621229               0.000000000               0.000000000               0.000000000               0.000000000              -0.009675594              -0.000798116              -0.000763274              -0.003528581               0.000910149              -0.002618432               0.000000000               0.000000000               0.000000000               0.000000000              -0.006472845               0.000115922               0.000397360              -0.002441805               0.000852570              -0.001589235               0.000000000               0.000000000               0.000000000               0.000000000              -0.004127808               0.000884763               0.001459742              -0.001658521               0.000847755              -0.000810767               0.000000000               0.000000000               0.000000000               0.000000000              -0.002906080               0.001792110               0.001775440              -0.001313792               0.001035293              -0.000278499               0.000000000               0.000000000               0.000000000               0.000000000              -0.002176957               0.002591182               0.001803061              -0.001140255               0.001243803               0.000103548               0.000000000               0.000000000               0.000000000               0.000000000              -0.001673913               0.003253481               0.001717630              -0.001034401               0.001429282               0.000394882               0.000000000               0.000000000               0.000000000               0.000000000              -0.001270371               0.003785515               0.001592280              -0.000949577               0.001578351               0.000628774               0.000000000               0.000000000               0.000000000               0.000000000              -0.000915074               0.004195108               0.001458415              -0.000867540               0.001687535               0.000819995               0.000000000               0.000000000               0.000000000               0.000000000              -0.000585518               0.004491174               0.001330983              -0.000780965               0.001757364               0.000976399               0.000000000               0.000000000               0.000000000               0.000000000              -0.000258573               0.004707236               0.001214248              -0.000685368               0.001797519               0.001112151               0.000000000               0.000000000               0.000000000               0.000000000               0.000080496               0.004873687               0.001105391              -0.000579024               0.001817554               0.001238530               0.000000000               0.000000000               0.000000000               0.000000000               0.000429827               0.004995340               0.000996054              -0.000463232               0.001819507               0.001356275               0.000000000               0.000000000               0.000000000               0.000000000               0.000790903               0.005072969               0.000875040              -0.000337532               0.001803484               0.001465951               0.000000000               0.000000000               0.000000000               0.000000000               0.001175018               0.005109657               0.000730917              -0.000198075               0.001769227               0.001571152               0.000000000               0.000000000               0.000000000               0.000000000               0.001581277               0.005103841               0.000548662              -0.000045001               0.001716264               0.001671262               0.000000000               0.000000000               0.000000000               0.000000000               0.002000676               0.005062406               0.000307213               0.000117451               0.001648301               0.001765753               0.000000000               0.000000000               0.000000000               0.000000000               0.002296843               0.005066256               0.000179874               0.000228032               0.001612724               0.001840756               0.000000000               0.000000000               0.000000000               0.000000000              -0.010708747              -0.000980058              -0.000463457              -0.003893270               0.000971064              -0.002922206               0.000000000               0.000000000               0.000000000               0.000000000              -0.007028639              -0.000354420               0.000174450              -0.002591435               0.000745667              -0.001845769               0.000000000               0.000000000               0.000000000               0.000000000              -0.004216784               0.000108824               0.000768282              -0.001594896               0.000567902              -0.001026993               0.000000000               0.000000000               0.000000000               0.000000000              -0.002771891               0.000931529               0.000961138              -0.001155899               0.000695804              -0.000460095               0.000000000               0.000000000               0.000000000               0.000000000              -0.001938205               0.001742588               0.000992213              -0.000944649               0.000895739              -0.000048910               0.000000000               0.000000000               0.000000000               0.000000000              -0.001393439               0.002459333               0.000957069              -0.000829954               0.001096420               0.000266466               0.000000000               0.000000000               0.000000000               0.000000000              -0.000987520               0.003064944               0.000895835              -0.000753436               0.001272783               0.000519346               0.000000000               0.000000000               0.000000000               0.000000000              -0.000643929               0.003560697               0.000824459              -0.000686559               0.001415740               0.000729181               0.000000000               0.000000000               0.000000000               0.000000000              -0.000327938               0.003948580               0.000754654              -0.000616548               0.001521696               0.000905148               0.000000000               0.000000000               0.000000000               0.000000000              -0.000013489               0.004255152               0.000694059              -0.000536951               0.001597353               0.001060402               0.000000000               0.000000000               0.000000000               0.000000000               0.000318747               0.004509658               0.000638001              -0.000444176               0.001651263               0.001207087               0.000000000               0.000000000               0.000000000               0.000000000               0.000676204               0.004714514               0.000578356              -0.000335737               0.001683401               0.001347664               0.000000000               0.000000000               0.000000000               0.000000000               0.001066713               0.004866114               0.000513782              -0.000208246               0.001691437               0.001483191               0.000000000               0.000000000               0.000000000               0.000000000               0.001505173               0.004972557               0.000437879              -0.000057130               0.001676546               0.001619416               0.000000000               0.000000000               0.000000000               0.000000000               0.002006465               0.005030917               0.000334869               0.000123559               0.001635769               0.001759328               0.000000000               0.000000000               0.000000000               0.000000000               0.002586046               0.005032730               0.000189475               0.000340673               0.001564002               0.001904675               0.000000000               0.000000000               0.000000000               0.000000000               0.003037018               0.005069302               0.000113768               0.000505214               0.001521346               0.002026560               0.000000000               0.000000000               0.000000000               0.000000000               0.000000000               0.000000000               0.000000000               0.000000000               0.000000000               0.000000000               0.000000000               0.000000000               0.000000000               0.000000000               0.000000000               0.000000000               0.000000000               0.000000000               0.000000000               0.000000000               0.000000000               0.000000000               0.000000000               0.000000000               0.000000000               0.000000000               0.000000000               0.000000000               0.000000000               0.000000000               0.000000000               0.000000000               0.000000000               0.000000000               0.000000000               0.000000000               0.000000000               0.000000000               0.000000000               0.000000000               0.000000000               0.000000000               0.000000000               0.000000000               0.000000000               0.000000000               0.000000000               0.000000000               0.000000000               0.000000000               0.000000000               0.000000000               0.000000000               0.000000000               0.000000000               0.000000000               0.000000000               0.000000000               0.000000000               0.000000000               0.000000000               0.000000000               0.000000000               0.000000000               0.000000000               0.000000000               0.000000000               0.000000000               0.000000000               0.000000000               0.000000000               0.000000000               0.000000000               0.000000000               0.000000000               0.000000000               0.000000000               0.000000000               0.000000000               0.000000000               0.000000000               0.000000000               0.000000000               0.000000000               0.000000000               0.000000000               0.000000000               0.000000000               0.000000000               0.000000000               0.000000000               0.000000000               0.000000000               0.000000000               0.000000000               0.000000000               0.000000000               0.000000000               0.000000000               0.000000000               0.000000000               0.000000000               0.000000000               0.000000000               0.000000000               0.000000000               0.000000000               0.000000000               0.000000000               0.000000000               0.000000000               0.000000000               0.000000000               0.000000000               0.000000000               0.000000000               0.000000000               0.000000000               0.000000000               0.000000000               0.000000000               0.000000000               0.000000000               0.000000000               0.000000000               0.000000000               0.000000000               0.000000000               0.000000000               0.000000000               0.000000000               0.000000000               0.000000000               0.000000000               0.000000000               0.000000000               0.000000000               0.000000000               0.000000000               0.000000000               0.000000000               0.000000000               0.000000000               0.000000000               0.000000000               0.000000000               0.000000000               0.000000000               0.000000000               0.000000000               0.000000000               0.000000000               0.000000000               0.000000000               0.000000000               0.000000000               0.000000000               0.000000000               0.000000000               0.000000000               0.000000000               0.000000000               0.000000000               0.000000000               0.000000000               0.000000000               0.000000000               0.000000000               0.000000000               0.000000000               0.000000000               0.000000000               0.000000000               0.000000000 </DataArray>
</PointData>
</Piece>
</UnstructuredGrid> </VTKFile>
