<?xml version="1.0"?>
<VTKFile type="UnstructuredGrid" version="0.1">
<UnstructuredGrid>
<Piece NumberOfPoints="      1156" NumberOfCells="      1024">
<Points>
<DataArray type="Float64"                                    Name="coordinates"                                                      NumberOfComponents=" 3" format="ascii">
              0.133000000               0.000000000               0.000000000               0.155937500               0.000000000               0.000000000               0.178875000               0.000000000               0.000000000               0.201812500               0.000000000               0.000000000               0.224750000               0.000000000               0.000000000               0.247687500               0.000000000               0.000000000               0.270625000               0.000000000               0.000000000               0.293562500               0.000000000               0.000000000               0.316500000               0.000000000               0.000000000               0.339437500               0.000000000               0.000000000               0.362375000               0.000000000               0.000000000               0.385312500               0.000000000               0.000000000               0.408250000               0.000000000               0.000000000               0.431187500               0.000000000               0.000000000               0.454125000               0.000000000               0.000000000               0.477062500               0.000000000               0.000000000               0.500000000               0.000000000               0.000000000               0.132359569               0.013036280               0.000000000               0.155337096               0.016127762               0.000000000               0.178314623               0.019219245               0.000000000               0.201292150               0.022310727               0.000000000               0.224269676               0.025402210               0.000000000               0.247247203               0.028493692               0.000000000               0.270224730               0.031585175               0.000000000               0.293202257               0.034676657               0.000000000               0.316179784               0.037768140               0.000000000               0.339157311               0.040859622               0.000000000               0.362134838               0.043951105               0.000000000               0.385112365               0.047042587               0.000000000               0.408089892               0.050134070               0.000000000               0.431067419               0.053225552               0.000000000               0.454044946               0.056317035               0.000000000               0.477022473               0.059408517               0.000000000               0.500000000               0.062500000               0.000000000               0.130444442               0.025947013               0.000000000               0.153541665               0.032137825               0.000000000               0.176638887               0.038328636               0.000000000               0.199736109               0.044519448               0.000000000               0.222833332               0.050710260               0.000000000               0.245930554               0.056901071               0.000000000               0.269027776               0.063091883               0.000000000               0.292124999               0.069282695               0.000000000               0.315222221               0.075473506               0.000000000               0.338319444               0.081664318               0.000000000               0.361416666               0.087855130               0.000000000               0.384513888               0.094045942               0.000000000               0.407611111               0.100236753               0.000000000               0.430708333               0.106427565               0.000000000               0.453805555               0.112618377               0.000000000               0.476902778               0.118809188               0.000000000               0.500000000               0.125000000               0.000000000               0.127273065               0.038607862               0.000000000               0.150568498               0.047913621               0.000000000               0.173863932               0.057219379               0.000000000               0.197159365               0.066525138               0.000000000               0.220454798               0.075830897               0.000000000               0.243750232               0.085136655               0.000000000               0.267045665               0.094442414               0.000000000               0.290341099               0.103748172               0.000000000               0.313636532               0.113053931               0.000000000               0.336931966               0.122359690               0.000000000               0.360227399               0.131665448               0.000000000               0.383522833               0.140971207               0.000000000               0.406818266               0.150276966               0.000000000               0.430113700               0.159582724               0.000000000               0.453409133               0.168888483               0.000000000               0.476704567               0.178194241               0.000000000               0.500000000               0.187500000               0.000000000               0.122875978               0.050896897               0.000000000               0.146446229               0.063340840               0.000000000               0.170016481               0.075784784               0.000000000               0.193586732               0.088228728               0.000000000               0.217156983               0.100672672               0.000000000               0.240727235               0.113116616               0.000000000               0.264297486               0.125560560               0.000000000               0.287867738               0.138004504               0.000000000               0.311437989               0.150448448               0.000000000               0.335008240               0.162892392               0.000000000               0.358578492               0.175336336               0.000000000               0.382148743               0.187780280               0.000000000               0.405718994               0.200224224               0.000000000               0.429289246               0.212668168               0.000000000               0.452859497               0.225112112               0.000000000               0.476429749               0.237556056               0.000000000               0.500000000               0.250000000               0.000000000               0.117295528               0.062695766               0.000000000               0.141214558               0.078308531               0.000000000               0.165133587               0.093921295               0.000000000               0.189052617               0.109534060               0.000000000               0.212971646               0.125146824               0.000000000               0.236890676               0.140759589               0.000000000               0.260809705               0.156372354               0.000000000               0.284728735               0.171985118               0.000000000               0.308647764               0.187597883               0.000000000               0.332566794               0.203210648               0.000000000               0.356485823               0.218823412               0.000000000               0.380404853               0.234436177               0.000000000               0.404323882               0.250048941               0.000000000               0.428242912               0.265661706               0.000000000               0.452161941               0.281274471               0.000000000               0.476080971               0.296887235               0.000000000               0.500000000               0.312500000               0.000000000               0.110585458               0.073890841               0.000000000               0.134923867               0.092710163               0.000000000               0.159262276               0.111529486               0.000000000               0.183600685               0.130348808               0.000000000               0.207939094               0.149168131               0.000000000               0.232277503               0.167987453               0.000000000               0.256615912               0.186806776               0.000000000               0.280954320               0.205626098               0.000000000               0.305292729               0.224445420               0.000000000               0.329631138               0.243264743               0.000000000               0.353969547               0.262084065               0.000000000               0.378307956               0.280903388               0.000000000               0.402646365               0.299722710               0.000000000               0.426984773               0.318542033               0.000000000               0.451323182               0.337361355               0.000000000               0.475661591               0.356180678               0.000000000               0.500000000               0.375000000               0.000000000               0.102810390               0.084374307               0.000000000               0.127634741               0.106444663               0.000000000               0.152459092               0.128515018               0.000000000               0.177283442               0.150585374               0.000000000               0.202107793               0.172655730               0.000000000               0.226932143               0.194726086               0.000000000               0.251756494               0.216796442               0.000000000               0.276580845               0.238866798               0.000000000               0.301405195               0.260937153               0.000000000               0.326229546               0.283007509               0.000000000               0.351053896               0.305077865               0.000000000               0.375878247               0.327148221               0.000000000               0.400702598               0.349218577               0.000000000               0.425526948               0.371288933               0.000000000               0.450351299               0.393359288               0.000000000               0.475175649               0.415429644               0.000000000               0.500000000               0.437500000               0.000000000               0.094045202               0.094045202               0.000000000               0.119417377               0.119417377               0.000000000               0.144789552               0.144789552               0.000000000               0.170161727               0.170161727               0.000000000               0.195533901               0.195533901               0.000000000               0.220906076               0.220906076               0.000000000               0.246278251               0.246278251               0.000000000               0.271650426               0.271650426               0.000000000               0.297022601               0.297022601               0.000000000               0.322394776               0.322394776               0.000000000               0.347766951               0.347766951               0.000000000               0.373139126               0.373139126               0.000000000               0.398511300               0.398511300               0.000000000               0.423883475               0.423883475               0.000000000               0.449255650               0.449255650               0.000000000               0.474627825               0.474627825               0.000000000               0.500000000               0.500000000               0.000000000               0.084374307               0.102810390               0.000000000               0.106444663               0.127634741               0.000000000               0.128515018               0.152459092               0.000000000               0.150585374               0.177283442               0.000000000               0.172655730               0.202107793               0.000000000               0.194726086               0.226932143               0.000000000               0.216796442               0.251756494               0.000000000               0.238866798               0.276580845               0.000000000               0.260937153               0.301405195               0.000000000               0.283007509               0.326229546               0.000000000               0.305077865               0.351053896               0.000000000               0.327148221               0.375878247               0.000000000               0.349218577               0.400702598               0.000000000               0.371288933               0.425526948               0.000000000               0.393359288               0.450351299               0.000000000               0.415429644               0.475175649               0.000000000               0.437500000               0.500000000               0.000000000               0.073890841               0.110585458               0.000000000               0.092710163               0.134923867               0.000000000               0.111529486               0.159262276               0.000000000               0.130348808               0.183600685               0.000000000               0.149168131               0.207939094               0.000000000               0.167987453               0.232277503               0.000000000               0.186806776               0.256615912               0.000000000               0.205626098               0.280954320               0.000000000               0.224445420               0.305292729               0.000000000               0.243264743               0.329631138               0.000000000               0.262084065               0.353969547               0.000000000               0.280903388               0.378307956               0.000000000               0.299722710               0.402646365               0.000000000               0.318542033               0.426984773               0.000000000               0.337361355               0.451323182               0.000000000               0.356180678               0.475661591               0.000000000               0.375000000               0.500000000               0.000000000               0.062695766               0.117295528               0.000000000               0.078308531               0.141214558               0.000000000               0.093921295               0.165133587               0.000000000               0.109534060               0.189052617               0.000000000               0.125146824               0.212971646               0.000000000               0.140759589               0.236890676               0.000000000               0.156372354               0.260809705               0.000000000               0.171985118               0.284728735               0.000000000               0.187597883               0.308647764               0.000000000               0.203210648               0.332566794               0.000000000               0.218823412               0.356485823               0.000000000               0.234436177               0.380404853               0.000000000               0.250048941               0.404323882               0.000000000               0.265661706               0.428242912               0.000000000               0.281274471               0.452161941               0.000000000               0.296887235               0.476080971               0.000000000               0.312500000               0.500000000               0.000000000               0.050896897               0.122875978               0.000000000               0.063340840               0.146446229               0.000000000               0.075784784               0.170016481               0.000000000               0.088228728               0.193586732               0.000000000               0.100672672               0.217156983               0.000000000               0.113116616               0.240727235               0.000000000               0.125560560               0.264297486               0.000000000               0.138004504               0.287867738               0.000000000               0.150448448               0.311437989               0.000000000               0.162892392               0.335008240               0.000000000               0.175336336               0.358578492               0.000000000               0.187780280               0.382148743               0.000000000               0.200224224               0.405718994               0.000000000               0.212668168               0.429289246               0.000000000               0.225112112               0.452859497               0.000000000               0.237556056               0.476429749               0.000000000               0.250000000               0.500000000               0.000000000               0.038607862               0.127273065               0.000000000               0.047913621               0.150568498               0.000000000               0.057219379               0.173863932               0.000000000               0.066525138               0.197159365               0.000000000               0.075830897               0.220454798               0.000000000               0.085136655               0.243750232               0.000000000               0.094442414               0.267045665               0.000000000               0.103748172               0.290341099               0.000000000               0.113053931               0.313636532               0.000000000               0.122359690               0.336931966               0.000000000               0.131665448               0.360227399               0.000000000               0.140971207               0.383522833               0.000000000               0.150276966               0.406818266               0.000000000               0.159582724               0.430113700               0.000000000               0.168888483               0.453409133               0.000000000               0.178194241               0.476704567               0.000000000               0.187500000               0.500000000               0.000000000               0.025947013               0.130444442               0.000000000               0.032137825               0.153541665               0.000000000               0.038328636               0.176638887               0.000000000               0.044519448               0.199736109               0.000000000               0.050710260               0.222833332               0.000000000               0.056901071               0.245930554               0.000000000               0.063091883               0.269027776               0.000000000               0.069282695               0.292124999               0.000000000               0.075473506               0.315222221               0.000000000               0.081664318               0.338319444               0.000000000               0.087855130               0.361416666               0.000000000               0.094045942               0.384513888               0.000000000               0.100236753               0.407611111               0.000000000               0.106427565               0.430708333               0.000000000               0.112618377               0.453805555               0.000000000               0.118809188               0.476902778               0.000000000               0.125000000               0.500000000               0.000000000               0.013036280               0.132359569               0.000000000               0.016127762               0.155337096               0.000000000               0.019219245               0.178314623               0.000000000               0.022310727               0.201292150               0.000000000               0.025402210               0.224269676               0.000000000               0.028493692               0.247247203               0.000000000               0.031585175               0.270224730               0.000000000               0.034676657               0.293202257               0.000000000               0.037768140               0.316179784               0.000000000               0.040859622               0.339157311               0.000000000               0.043951105               0.362134838               0.000000000               0.047042587               0.385112365               0.000000000               0.050134070               0.408089892               0.000000000               0.053225552               0.431067419               0.000000000               0.056317035               0.454044946               0.000000000               0.059408517               0.477022473               0.000000000               0.062500000               0.500000000               0.000000000               0.000000000               0.133000000               0.000000000               0.000000000               0.155937500               0.000000000               0.000000000               0.178875000               0.000000000               0.000000000               0.201812500               0.000000000               0.000000000               0.224750000               0.000000000               0.000000000               0.247687500               0.000000000               0.000000000               0.270625000               0.000000000               0.000000000               0.293562500               0.000000000               0.000000000               0.316500000               0.000000000               0.000000000               0.339437500               0.000000000               0.000000000               0.362375000               0.000000000               0.000000000               0.385312500               0.000000000               0.000000000               0.408250000               0.000000000               0.000000000               0.431187500               0.000000000               0.000000000               0.454125000               0.000000000               0.000000000               0.477062500               0.000000000               0.000000000               0.500000000               0.000000000               0.133000000               0.000000000               0.000000000               0.155937500               0.000000000               0.000000000               0.178875000               0.000000000               0.000000000               0.201812500               0.000000000               0.000000000               0.224750000               0.000000000               0.000000000               0.247687500               0.000000000               0.000000000               0.270625000               0.000000000               0.000000000               0.293562500               0.000000000               0.000000000               0.316500000               0.000000000               0.000000000               0.339437500               0.000000000               0.000000000               0.362375000               0.000000000               0.000000000               0.385312500               0.000000000               0.000000000               0.408250000               0.000000000               0.000000000               0.431187500               0.000000000               0.000000000               0.454125000               0.000000000               0.000000000               0.477062500               0.000000000               0.000000000               0.500000000               0.000000000               0.000000000               0.132359569              -0.013036280               0.000000000               0.155337096              -0.016127762               0.000000000               0.178314623              -0.019219245               0.000000000               0.201292150              -0.022310727               0.000000000               0.224269676              -0.025402210               0.000000000               0.247247203              -0.028493692               0.000000000               0.270224730              -0.031585175               0.000000000               0.293202257              -0.034676657               0.000000000               0.316179784              -0.037768140               0.000000000               0.339157311              -0.040859622               0.000000000               0.362134838              -0.043951105               0.000000000               0.385112365              -0.047042587               0.000000000               0.408089892              -0.050134070               0.000000000               0.431067419              -0.053225552               0.000000000               0.454044946              -0.056317035               0.000000000               0.477022473              -0.059408517               0.000000000               0.500000000              -0.062500000               0.000000000               0.130444442              -0.025947013               0.000000000               0.153541665              -0.032137825               0.000000000               0.176638887              -0.038328636               0.000000000               0.199736109              -0.044519448               0.000000000               0.222833332              -0.050710260               0.000000000               0.245930554              -0.056901071               0.000000000               0.269027776              -0.063091883               0.000000000               0.292124999              -0.069282695               0.000000000               0.315222221              -0.075473506               0.000000000               0.338319444              -0.081664318               0.000000000               0.361416666              -0.087855130               0.000000000               0.384513888              -0.094045942               0.000000000               0.407611111              -0.100236753               0.000000000               0.430708333              -0.106427565               0.000000000               0.453805555              -0.112618377               0.000000000               0.476902778              -0.118809188               0.000000000               0.500000000              -0.125000000               0.000000000               0.127273065              -0.038607862               0.000000000               0.150568498              -0.047913621               0.000000000               0.173863932              -0.057219379               0.000000000               0.197159365              -0.066525138               0.000000000               0.220454798              -0.075830897               0.000000000               0.243750232              -0.085136655               0.000000000               0.267045665              -0.094442414               0.000000000               0.290341099              -0.103748172               0.000000000               0.313636532              -0.113053931               0.000000000               0.336931966              -0.122359690               0.000000000               0.360227399              -0.131665448               0.000000000               0.383522833              -0.140971207               0.000000000               0.406818266              -0.150276966               0.000000000               0.430113700              -0.159582724               0.000000000               0.453409133              -0.168888483               0.000000000               0.476704567              -0.178194241               0.000000000               0.500000000              -0.187500000               0.000000000               0.122875978              -0.050896897               0.000000000               0.146446229              -0.063340840               0.000000000               0.170016481              -0.075784784               0.000000000               0.193586732              -0.088228728               0.000000000               0.217156983              -0.100672672               0.000000000               0.240727235              -0.113116616               0.000000000               0.264297486              -0.125560560               0.000000000               0.287867738              -0.138004504               0.000000000               0.311437989              -0.150448448               0.000000000               0.335008240              -0.162892392               0.000000000               0.358578492              -0.175336336               0.000000000               0.382148743              -0.187780280               0.000000000               0.405718994              -0.200224224               0.000000000               0.429289246              -0.212668168               0.000000000               0.452859497              -0.225112112               0.000000000               0.476429749              -0.237556056               0.000000000               0.500000000              -0.250000000               0.000000000               0.117295528              -0.062695766               0.000000000               0.141214558              -0.078308531               0.000000000               0.165133587              -0.093921295               0.000000000               0.189052617              -0.109534060               0.000000000               0.212971646              -0.125146824               0.000000000               0.236890676              -0.140759589               0.000000000               0.260809705              -0.156372354               0.000000000               0.284728735              -0.171985118               0.000000000               0.308647764              -0.187597883               0.000000000               0.332566794              -0.203210648               0.000000000               0.356485823              -0.218823412               0.000000000               0.380404853              -0.234436177               0.000000000               0.404323882              -0.250048941               0.000000000               0.428242912              -0.265661706               0.000000000               0.452161941              -0.281274471               0.000000000               0.476080971              -0.296887235               0.000000000               0.500000000              -0.312500000               0.000000000               0.110585458              -0.073890841               0.000000000               0.134923867              -0.092710163               0.000000000               0.159262276              -0.111529486               0.000000000               0.183600685              -0.130348808               0.000000000               0.207939094              -0.149168131               0.000000000               0.232277503              -0.167987453               0.000000000               0.256615912              -0.186806776               0.000000000               0.280954320              -0.205626098               0.000000000               0.305292729              -0.224445420               0.000000000               0.329631138              -0.243264743               0.000000000               0.353969547              -0.262084065               0.000000000               0.378307956              -0.280903388               0.000000000               0.402646365              -0.299722710               0.000000000               0.426984773              -0.318542033               0.000000000               0.451323182              -0.337361355               0.000000000               0.475661591              -0.356180678               0.000000000               0.500000000              -0.375000000               0.000000000               0.102810390              -0.084374307               0.000000000               0.127634741              -0.106444663               0.000000000               0.152459092              -0.128515018               0.000000000               0.177283442              -0.150585374               0.000000000               0.202107793              -0.172655730               0.000000000               0.226932143              -0.194726086               0.000000000               0.251756494              -0.216796442               0.000000000               0.276580845              -0.238866798               0.000000000               0.301405195              -0.260937153               0.000000000               0.326229546              -0.283007509               0.000000000               0.351053896              -0.305077865               0.000000000               0.375878247              -0.327148221               0.000000000               0.400702598              -0.349218577               0.000000000               0.425526948              -0.371288933               0.000000000               0.450351299              -0.393359288               0.000000000               0.475175649              -0.415429644               0.000000000               0.500000000              -0.437500000               0.000000000               0.094045202              -0.094045202               0.000000000               0.119417377              -0.119417377               0.000000000               0.144789552              -0.144789552               0.000000000               0.170161727              -0.170161727               0.000000000               0.195533901              -0.195533901               0.000000000               0.220906076              -0.220906076               0.000000000               0.246278251              -0.246278251               0.000000000               0.271650426              -0.271650426               0.000000000               0.297022601              -0.297022601               0.000000000               0.322394776              -0.322394776               0.000000000               0.347766951              -0.347766951               0.000000000               0.373139126              -0.373139126               0.000000000               0.398511300              -0.398511300               0.000000000               0.423883475              -0.423883475               0.000000000               0.449255650              -0.449255650               0.000000000               0.474627825              -0.474627825               0.000000000               0.500000000              -0.500000000               0.000000000               0.084374307              -0.102810390               0.000000000               0.106444663              -0.127634741               0.000000000               0.128515018              -0.152459092               0.000000000               0.150585374              -0.177283442               0.000000000               0.172655730              -0.202107793               0.000000000               0.194726086              -0.226932143               0.000000000               0.216796442              -0.251756494               0.000000000               0.238866798              -0.276580845               0.000000000               0.260937153              -0.301405195               0.000000000               0.283007509              -0.326229546               0.000000000               0.305077865              -0.351053896               0.000000000               0.327148221              -0.375878247               0.000000000               0.349218577              -0.400702598               0.000000000               0.371288933              -0.425526948               0.000000000               0.393359288              -0.450351299               0.000000000               0.415429644              -0.475175649               0.000000000               0.437500000              -0.500000000               0.000000000               0.073890841              -0.110585458               0.000000000               0.092710163              -0.134923867               0.000000000               0.111529486              -0.159262276               0.000000000               0.130348808              -0.183600685               0.000000000               0.149168131              -0.207939094               0.000000000               0.167987453              -0.232277503               0.000000000               0.186806776              -0.256615912               0.000000000               0.205626098              -0.280954320               0.000000000               0.224445420              -0.305292729               0.000000000               0.243264743              -0.329631138               0.000000000               0.262084065              -0.353969547               0.000000000               0.280903388              -0.378307956               0.000000000               0.299722710              -0.402646365               0.000000000               0.318542033              -0.426984773               0.000000000               0.337361355              -0.451323182               0.000000000               0.356180678              -0.475661591               0.000000000               0.375000000              -0.500000000               0.000000000               0.062695766              -0.117295528               0.000000000               0.078308531              -0.141214558               0.000000000               0.093921295              -0.165133587               0.000000000               0.109534060              -0.189052617               0.000000000               0.125146824              -0.212971646               0.000000000               0.140759589              -0.236890676               0.000000000               0.156372354              -0.260809705               0.000000000               0.171985118              -0.284728735               0.000000000               0.187597883              -0.308647764               0.000000000               0.203210648              -0.332566794               0.000000000               0.218823412              -0.356485823               0.000000000               0.234436177              -0.380404853               0.000000000               0.250048941              -0.404323882               0.000000000               0.265661706              -0.428242912               0.000000000               0.281274471              -0.452161941               0.000000000               0.296887235              -0.476080971               0.000000000               0.312500000              -0.500000000               0.000000000               0.050896897              -0.122875978               0.000000000               0.063340840              -0.146446229               0.000000000               0.075784784              -0.170016481               0.000000000               0.088228728              -0.193586732               0.000000000               0.100672672              -0.217156983               0.000000000               0.113116616              -0.240727235               0.000000000               0.125560560              -0.264297486               0.000000000               0.138004504              -0.287867738               0.000000000               0.150448448              -0.311437989               0.000000000               0.162892392              -0.335008240               0.000000000               0.175336336              -0.358578492               0.000000000               0.187780280              -0.382148743               0.000000000               0.200224224              -0.405718994               0.000000000               0.212668168              -0.429289246               0.000000000               0.225112112              -0.452859497               0.000000000               0.237556056              -0.476429749               0.000000000               0.250000000              -0.500000000               0.000000000               0.038607862              -0.127273065               0.000000000               0.047913621              -0.150568498               0.000000000               0.057219379              -0.173863932               0.000000000               0.066525138              -0.197159365               0.000000000               0.075830897              -0.220454798               0.000000000               0.085136655              -0.243750232               0.000000000               0.094442414              -0.267045665               0.000000000               0.103748172              -0.290341099               0.000000000               0.113053931              -0.313636532               0.000000000               0.122359690              -0.336931966               0.000000000               0.131665448              -0.360227399               0.000000000               0.140971207              -0.383522833               0.000000000               0.150276966              -0.406818266               0.000000000               0.159582724              -0.430113700               0.000000000               0.168888483              -0.453409133               0.000000000               0.178194241              -0.476704567               0.000000000               0.187500000              -0.500000000               0.000000000               0.025947013              -0.130444442               0.000000000               0.032137825              -0.153541665               0.000000000               0.038328636              -0.176638887               0.000000000               0.044519448              -0.199736109               0.000000000               0.050710260              -0.222833332               0.000000000               0.056901071              -0.245930554               0.000000000               0.063091883              -0.269027776               0.000000000               0.069282695              -0.292124999               0.000000000               0.075473506              -0.315222221               0.000000000               0.081664318              -0.338319444               0.000000000               0.087855130              -0.361416666               0.000000000               0.094045942              -0.384513888               0.000000000               0.100236753              -0.407611111               0.000000000               0.106427565              -0.430708333               0.000000000               0.112618377              -0.453805555               0.000000000               0.118809188              -0.476902778               0.000000000               0.125000000              -0.500000000               0.000000000               0.013036280              -0.132359569               0.000000000               0.016127762              -0.155337096               0.000000000               0.019219245              -0.178314623               0.000000000               0.022310727              -0.201292150               0.000000000               0.025402210              -0.224269676               0.000000000               0.028493692              -0.247247203               0.000000000               0.031585175              -0.270224730               0.000000000               0.034676657              -0.293202257               0.000000000               0.037768140              -0.316179784               0.000000000               0.040859622              -0.339157311               0.000000000               0.043951105              -0.362134838               0.000000000               0.047042587              -0.385112365               0.000000000               0.050134070              -0.408089892               0.000000000               0.053225552              -0.431067419               0.000000000               0.056317035              -0.454044946               0.000000000               0.059408517              -0.477022473               0.000000000               0.062500000              -0.500000000               0.000000000               0.000000000              -0.133000000               0.000000000               0.000000000              -0.155937500               0.000000000               0.000000000              -0.178875000               0.000000000               0.000000000              -0.201812500               0.000000000               0.000000000              -0.224750000               0.000000000               0.000000000              -0.247687500               0.000000000               0.000000000              -0.270625000               0.000000000               0.000000000              -0.293562500               0.000000000               0.000000000              -0.316500000               0.000000000               0.000000000              -0.339437500               0.000000000               0.000000000              -0.362375000               0.000000000               0.000000000              -0.385312500               0.000000000               0.000000000              -0.408250000               0.000000000               0.000000000              -0.431187500               0.000000000               0.000000000              -0.454125000               0.000000000               0.000000000              -0.477062500               0.000000000               0.000000000              -0.500000000               0.000000000              -0.133000000               0.000000000               0.000000000              -0.155937500               0.000000000               0.000000000              -0.178875000               0.000000000               0.000000000              -0.201812500               0.000000000               0.000000000              -0.224750000               0.000000000               0.000000000              -0.247687500               0.000000000               0.000000000              -0.270625000               0.000000000               0.000000000              -0.293562500               0.000000000               0.000000000              -0.316500000               0.000000000               0.000000000              -0.339437500               0.000000000               0.000000000              -0.362375000               0.000000000               0.000000000              -0.385312500               0.000000000               0.000000000              -0.408250000               0.000000000               0.000000000              -0.431187500               0.000000000               0.000000000              -0.454125000               0.000000000               0.000000000              -0.477062500               0.000000000               0.000000000              -0.500000000               0.000000000               0.000000000              -0.132359569              -0.013036280               0.000000000              -0.155337096              -0.016127762               0.000000000              -0.178314623              -0.019219245               0.000000000              -0.201292150              -0.022310727               0.000000000              -0.224269676              -0.025402210               0.000000000              -0.247247203              -0.028493692               0.000000000              -0.270224730              -0.031585175               0.000000000              -0.293202257              -0.034676657               0.000000000              -0.316179784              -0.037768140               0.000000000              -0.339157311              -0.040859622               0.000000000              -0.362134838              -0.043951105               0.000000000              -0.385112365              -0.047042587               0.000000000              -0.408089892              -0.050134070               0.000000000              -0.431067419              -0.053225552               0.000000000              -0.454044946              -0.056317035               0.000000000              -0.477022473              -0.059408517               0.000000000              -0.500000000              -0.062500000               0.000000000              -0.130444442              -0.025947013               0.000000000              -0.153541665              -0.032137825               0.000000000              -0.176638887              -0.038328636               0.000000000              -0.199736109              -0.044519448               0.000000000              -0.222833332              -0.050710260               0.000000000              -0.245930554              -0.056901071               0.000000000              -0.269027776              -0.063091883               0.000000000              -0.292124999              -0.069282695               0.000000000              -0.315222221              -0.075473506               0.000000000              -0.338319444              -0.081664318               0.000000000              -0.361416666              -0.087855130               0.000000000              -0.384513888              -0.094045942               0.000000000              -0.407611111              -0.100236753               0.000000000              -0.430708333              -0.106427565               0.000000000              -0.453805555              -0.112618377               0.000000000              -0.476902778              -0.118809188               0.000000000              -0.500000000              -0.125000000               0.000000000              -0.127273065              -0.038607862               0.000000000              -0.150568498              -0.047913621               0.000000000              -0.173863932              -0.057219379               0.000000000              -0.197159365              -0.066525138               0.000000000              -0.220454798              -0.075830897               0.000000000              -0.243750232              -0.085136655               0.000000000              -0.267045665              -0.094442414               0.000000000              -0.290341099              -0.103748172               0.000000000              -0.313636532              -0.113053931               0.000000000              -0.336931966              -0.122359690               0.000000000              -0.360227399              -0.131665448               0.000000000              -0.383522833              -0.140971207               0.000000000              -0.406818266              -0.150276966               0.000000000              -0.430113700              -0.159582724               0.000000000              -0.453409133              -0.168888483               0.000000000              -0.476704567              -0.178194241               0.000000000              -0.500000000              -0.187500000               0.000000000              -0.122875978              -0.050896897               0.000000000              -0.146446229              -0.063340840               0.000000000              -0.170016481              -0.075784784               0.000000000              -0.193586732              -0.088228728               0.000000000              -0.217156983              -0.100672672               0.000000000              -0.240727235              -0.113116616               0.000000000              -0.264297486              -0.125560560               0.000000000              -0.287867738              -0.138004504               0.000000000              -0.311437989              -0.150448448               0.000000000              -0.335008240              -0.162892392               0.000000000              -0.358578492              -0.175336336               0.000000000              -0.382148743              -0.187780280               0.000000000              -0.405718994              -0.200224224               0.000000000              -0.429289246              -0.212668168               0.000000000              -0.452859497              -0.225112112               0.000000000              -0.476429749              -0.237556056               0.000000000              -0.500000000              -0.250000000               0.000000000              -0.117295528              -0.062695766               0.000000000              -0.141214558              -0.078308531               0.000000000              -0.165133587              -0.093921295               0.000000000              -0.189052617              -0.109534060               0.000000000              -0.212971646              -0.125146824               0.000000000              -0.236890676              -0.140759589               0.000000000              -0.260809705              -0.156372354               0.000000000              -0.284728735              -0.171985118               0.000000000              -0.308647764              -0.187597883               0.000000000              -0.332566794              -0.203210648               0.000000000              -0.356485823              -0.218823412               0.000000000              -0.380404853              -0.234436177               0.000000000              -0.404323882              -0.250048941               0.000000000              -0.428242912              -0.265661706               0.000000000              -0.452161941              -0.281274471               0.000000000              -0.476080971              -0.296887235               0.000000000              -0.500000000              -0.312500000               0.000000000              -0.110585458              -0.073890841               0.000000000              -0.134923867              -0.092710163               0.000000000              -0.159262276              -0.111529486               0.000000000              -0.183600685              -0.130348808               0.000000000              -0.207939094              -0.149168131               0.000000000              -0.232277503              -0.167987453               0.000000000              -0.256615912              -0.186806776               0.000000000              -0.280954320              -0.205626098               0.000000000              -0.305292729              -0.224445420               0.000000000              -0.329631138              -0.243264743               0.000000000              -0.353969547              -0.262084065               0.000000000              -0.378307956              -0.280903388               0.000000000              -0.402646365              -0.299722710               0.000000000              -0.426984773              -0.318542033               0.000000000              -0.451323182              -0.337361355               0.000000000              -0.475661591              -0.356180678               0.000000000              -0.500000000              -0.375000000               0.000000000              -0.102810390              -0.084374307               0.000000000              -0.127634741              -0.106444663               0.000000000              -0.152459092              -0.128515018               0.000000000              -0.177283442              -0.150585374               0.000000000              -0.202107793              -0.172655730               0.000000000              -0.226932143              -0.194726086               0.000000000              -0.251756494              -0.216796442               0.000000000              -0.276580845              -0.238866798               0.000000000              -0.301405195              -0.260937153               0.000000000              -0.326229546              -0.283007509               0.000000000              -0.351053896              -0.305077865               0.000000000              -0.375878247              -0.327148221               0.000000000              -0.400702598              -0.349218577               0.000000000              -0.425526948              -0.371288933               0.000000000              -0.450351299              -0.393359288               0.000000000              -0.475175649              -0.415429644               0.000000000              -0.500000000              -0.437500000               0.000000000              -0.094045202              -0.094045202               0.000000000              -0.119417377              -0.119417377               0.000000000              -0.144789552              -0.144789552               0.000000000              -0.170161727              -0.170161727               0.000000000              -0.195533901              -0.195533901               0.000000000              -0.220906076              -0.220906076               0.000000000              -0.246278251              -0.246278251               0.000000000              -0.271650426              -0.271650426               0.000000000              -0.297022601              -0.297022601               0.000000000              -0.322394776              -0.322394776               0.000000000              -0.347766951              -0.347766951               0.000000000              -0.373139126              -0.373139126               0.000000000              -0.398511300              -0.398511300               0.000000000              -0.423883475              -0.423883475               0.000000000              -0.449255650              -0.449255650               0.000000000              -0.474627825              -0.474627825               0.000000000              -0.500000000              -0.500000000               0.000000000              -0.084374307              -0.102810390               0.000000000              -0.106444663              -0.127634741               0.000000000              -0.128515018              -0.152459092               0.000000000              -0.150585374              -0.177283442               0.000000000              -0.172655730              -0.202107793               0.000000000              -0.194726086              -0.226932143               0.000000000              -0.216796442              -0.251756494               0.000000000              -0.238866798              -0.276580845               0.000000000              -0.260937153              -0.301405195               0.000000000              -0.283007509              -0.326229546               0.000000000              -0.305077865              -0.351053896               0.000000000              -0.327148221              -0.375878247               0.000000000              -0.349218577              -0.400702598               0.000000000              -0.371288933              -0.425526948               0.000000000              -0.393359288              -0.450351299               0.000000000              -0.415429644              -0.475175649               0.000000000              -0.437500000              -0.500000000               0.000000000              -0.073890841              -0.110585458               0.000000000              -0.092710163              -0.134923867               0.000000000              -0.111529486              -0.159262276               0.000000000              -0.130348808              -0.183600685               0.000000000              -0.149168131              -0.207939094               0.000000000              -0.167987453              -0.232277503               0.000000000              -0.186806776              -0.256615912               0.000000000              -0.205626098              -0.280954320               0.000000000              -0.224445420              -0.305292729               0.000000000              -0.243264743              -0.329631138               0.000000000              -0.262084065              -0.353969547               0.000000000              -0.280903388              -0.378307956               0.000000000              -0.299722710              -0.402646365               0.000000000              -0.318542033              -0.426984773               0.000000000              -0.337361355              -0.451323182               0.000000000              -0.356180678              -0.475661591               0.000000000              -0.375000000              -0.500000000               0.000000000              -0.062695766              -0.117295528               0.000000000              -0.078308531              -0.141214558               0.000000000              -0.093921295              -0.165133587               0.000000000              -0.109534060              -0.189052617               0.000000000              -0.125146824              -0.212971646               0.000000000              -0.140759589              -0.236890676               0.000000000              -0.156372354              -0.260809705               0.000000000              -0.171985118              -0.284728735               0.000000000              -0.187597883              -0.308647764               0.000000000              -0.203210648              -0.332566794               0.000000000              -0.218823412              -0.356485823               0.000000000              -0.234436177              -0.380404853               0.000000000              -0.250048941              -0.404323882               0.000000000              -0.265661706              -0.428242912               0.000000000              -0.281274471              -0.452161941               0.000000000              -0.296887235              -0.476080971               0.000000000              -0.312500000              -0.500000000               0.000000000              -0.050896897              -0.122875978               0.000000000              -0.063340840              -0.146446229               0.000000000              -0.075784784              -0.170016481               0.000000000              -0.088228728              -0.193586732               0.000000000              -0.100672672              -0.217156983               0.000000000              -0.113116616              -0.240727235               0.000000000              -0.125560560              -0.264297486               0.000000000              -0.138004504              -0.287867738               0.000000000              -0.150448448              -0.311437989               0.000000000              -0.162892392              -0.335008240               0.000000000              -0.175336336              -0.358578492               0.000000000              -0.187780280              -0.382148743               0.000000000              -0.200224224              -0.405718994               0.000000000              -0.212668168              -0.429289246               0.000000000              -0.225112112              -0.452859497               0.000000000              -0.237556056              -0.476429749               0.000000000              -0.250000000              -0.500000000               0.000000000              -0.038607862              -0.127273065               0.000000000              -0.047913621              -0.150568498               0.000000000              -0.057219379              -0.173863932               0.000000000              -0.066525138              -0.197159365               0.000000000              -0.075830897              -0.220454798               0.000000000              -0.085136655              -0.243750232               0.000000000              -0.094442414              -0.267045665               0.000000000              -0.103748172              -0.290341099               0.000000000              -0.113053931              -0.313636532               0.000000000              -0.122359690              -0.336931966               0.000000000              -0.131665448              -0.360227399               0.000000000              -0.140971207              -0.383522833               0.000000000              -0.150276966              -0.406818266               0.000000000              -0.159582724              -0.430113700               0.000000000              -0.168888483              -0.453409133               0.000000000              -0.178194241              -0.476704567               0.000000000              -0.187500000              -0.500000000               0.000000000              -0.025947013              -0.130444442               0.000000000              -0.032137825              -0.153541665               0.000000000              -0.038328636              -0.176638887               0.000000000              -0.044519448              -0.199736109               0.000000000              -0.050710260              -0.222833332               0.000000000              -0.056901071              -0.245930554               0.000000000              -0.063091883              -0.269027776               0.000000000              -0.069282695              -0.292124999               0.000000000              -0.075473506              -0.315222221               0.000000000              -0.081664318              -0.338319444               0.000000000              -0.087855130              -0.361416666               0.000000000              -0.094045942              -0.384513888               0.000000000              -0.100236753              -0.407611111               0.000000000              -0.106427565              -0.430708333               0.000000000              -0.112618377              -0.453805555               0.000000000              -0.118809188              -0.476902778               0.000000000              -0.125000000              -0.500000000               0.000000000              -0.013036280              -0.132359569               0.000000000              -0.016127762              -0.155337096               0.000000000              -0.019219245              -0.178314623               0.000000000              -0.022310727              -0.201292150               0.000000000              -0.025402210              -0.224269676               0.000000000              -0.028493692              -0.247247203               0.000000000              -0.031585175              -0.270224730               0.000000000              -0.034676657              -0.293202257               0.000000000              -0.037768140              -0.316179784               0.000000000              -0.040859622              -0.339157311               0.000000000              -0.043951105              -0.362134838               0.000000000              -0.047042587              -0.385112365               0.000000000              -0.050134070              -0.408089892               0.000000000              -0.053225552              -0.431067419               0.000000000              -0.056317035              -0.454044946               0.000000000              -0.059408517              -0.477022473               0.000000000              -0.062500000              -0.500000000               0.000000000               0.000000000              -0.133000000               0.000000000               0.000000000              -0.155937500               0.000000000               0.000000000              -0.178875000               0.000000000               0.000000000              -0.201812500               0.000000000               0.000000000              -0.224750000               0.000000000               0.000000000              -0.247687500               0.000000000               0.000000000              -0.270625000               0.000000000               0.000000000              -0.293562500               0.000000000               0.000000000              -0.316500000               0.000000000               0.000000000              -0.339437500               0.000000000               0.000000000              -0.362375000               0.000000000               0.000000000              -0.385312500               0.000000000               0.000000000              -0.408250000               0.000000000               0.000000000              -0.431187500               0.000000000               0.000000000              -0.454125000               0.000000000               0.000000000              -0.477062500               0.000000000               0.000000000              -0.500000000               0.000000000              -0.133000000               0.000000000               0.000000000              -0.155937500               0.000000000               0.000000000              -0.178875000               0.000000000               0.000000000              -0.201812500               0.000000000               0.000000000              -0.224750000               0.000000000               0.000000000              -0.247687500               0.000000000               0.000000000              -0.270625000               0.000000000               0.000000000              -0.293562500               0.000000000               0.000000000              -0.316500000               0.000000000               0.000000000              -0.339437500               0.000000000               0.000000000              -0.362375000               0.000000000               0.000000000              -0.385312500               0.000000000               0.000000000              -0.408250000               0.000000000               0.000000000              -0.431187500               0.000000000               0.000000000              -0.454125000               0.000000000               0.000000000              -0.477062500               0.000000000               0.000000000              -0.500000000               0.000000000               0.000000000              -0.132359569               0.013036280               0.000000000              -0.155337096               0.016127762               0.000000000              -0.178314623               0.019219245               0.000000000              -0.201292150               0.022310727               0.000000000              -0.224269676               0.025402210               0.000000000              -0.247247203               0.028493692               0.000000000              -0.270224730               0.031585175               0.000000000              -0.293202257               0.034676657               0.000000000              -0.316179784               0.037768140               0.000000000              -0.339157311               0.040859622               0.000000000              -0.362134838               0.043951105               0.000000000              -0.385112365               0.047042587               0.000000000              -0.408089892               0.050134070               0.000000000              -0.431067419               0.053225552               0.000000000              -0.454044946               0.056317035               0.000000000              -0.477022473               0.059408517               0.000000000              -0.500000000               0.062500000               0.000000000              -0.130444442               0.025947013               0.000000000              -0.153541665               0.032137825               0.000000000              -0.176638887               0.038328636               0.000000000              -0.199736109               0.044519448               0.000000000              -0.222833332               0.050710260               0.000000000              -0.245930554               0.056901071               0.000000000              -0.269027776               0.063091883               0.000000000              -0.292124999               0.069282695               0.000000000              -0.315222221               0.075473506               0.000000000              -0.338319444               0.081664318               0.000000000              -0.361416666               0.087855130               0.000000000              -0.384513888               0.094045942               0.000000000              -0.407611111               0.100236753               0.000000000              -0.430708333               0.106427565               0.000000000              -0.453805555               0.112618377               0.000000000              -0.476902778               0.118809188               0.000000000              -0.500000000               0.125000000               0.000000000              -0.127273065               0.038607862               0.000000000              -0.150568498               0.047913621               0.000000000              -0.173863932               0.057219379               0.000000000              -0.197159365               0.066525138               0.000000000              -0.220454798               0.075830897               0.000000000              -0.243750232               0.085136655               0.000000000              -0.267045665               0.094442414               0.000000000              -0.290341099               0.103748172               0.000000000              -0.313636532               0.113053931               0.000000000              -0.336931966               0.122359690               0.000000000              -0.360227399               0.131665448               0.000000000              -0.383522833               0.140971207               0.000000000              -0.406818266               0.150276966               0.000000000              -0.430113700               0.159582724               0.000000000              -0.453409133               0.168888483               0.000000000              -0.476704567               0.178194241               0.000000000              -0.500000000               0.187500000               0.000000000              -0.122875978               0.050896897               0.000000000              -0.146446229               0.063340840               0.000000000              -0.170016481               0.075784784               0.000000000              -0.193586732               0.088228728               0.000000000              -0.217156983               0.100672672               0.000000000              -0.240727235               0.113116616               0.000000000              -0.264297486               0.125560560               0.000000000              -0.287867738               0.138004504               0.000000000              -0.311437989               0.150448448               0.000000000              -0.335008240               0.162892392               0.000000000              -0.358578492               0.175336336               0.000000000              -0.382148743               0.187780280               0.000000000              -0.405718994               0.200224224               0.000000000              -0.429289246               0.212668168               0.000000000              -0.452859497               0.225112112               0.000000000              -0.476429749               0.237556056               0.000000000              -0.500000000               0.250000000               0.000000000              -0.117295528               0.062695766               0.000000000              -0.141214558               0.078308531               0.000000000              -0.165133587               0.093921295               0.000000000              -0.189052617               0.109534060               0.000000000              -0.212971646               0.125146824               0.000000000              -0.236890676               0.140759589               0.000000000              -0.260809705               0.156372354               0.000000000              -0.284728735               0.171985118               0.000000000              -0.308647764               0.187597883               0.000000000              -0.332566794               0.203210648               0.000000000              -0.356485823               0.218823412               0.000000000              -0.380404853               0.234436177               0.000000000              -0.404323882               0.250048941               0.000000000              -0.428242912               0.265661706               0.000000000              -0.452161941               0.281274471               0.000000000              -0.476080971               0.296887235               0.000000000              -0.500000000               0.312500000               0.000000000              -0.110585458               0.073890841               0.000000000              -0.134923867               0.092710163               0.000000000              -0.159262276               0.111529486               0.000000000              -0.183600685               0.130348808               0.000000000              -0.207939094               0.149168131               0.000000000              -0.232277503               0.167987453               0.000000000              -0.256615912               0.186806776               0.000000000              -0.280954320               0.205626098               0.000000000              -0.305292729               0.224445420               0.000000000              -0.329631138               0.243264743               0.000000000              -0.353969547               0.262084065               0.000000000              -0.378307956               0.280903388               0.000000000              -0.402646365               0.299722710               0.000000000              -0.426984773               0.318542033               0.000000000              -0.451323182               0.337361355               0.000000000              -0.475661591               0.356180678               0.000000000              -0.500000000               0.375000000               0.000000000              -0.102810390               0.084374307               0.000000000              -0.127634741               0.106444663               0.000000000              -0.152459092               0.128515018               0.000000000              -0.177283442               0.150585374               0.000000000              -0.202107793               0.172655730               0.000000000              -0.226932143               0.194726086               0.000000000              -0.251756494               0.216796442               0.000000000              -0.276580845               0.238866798               0.000000000              -0.301405195               0.260937153               0.000000000              -0.326229546               0.283007509               0.000000000              -0.351053896               0.305077865               0.000000000              -0.375878247               0.327148221               0.000000000              -0.400702598               0.349218577               0.000000000              -0.425526948               0.371288933               0.000000000              -0.450351299               0.393359288               0.000000000              -0.475175649               0.415429644               0.000000000              -0.500000000               0.437500000               0.000000000              -0.094045202               0.094045202               0.000000000              -0.119417377               0.119417377               0.000000000              -0.144789552               0.144789552               0.000000000              -0.170161727               0.170161727               0.000000000              -0.195533901               0.195533901               0.000000000              -0.220906076               0.220906076               0.000000000              -0.246278251               0.246278251               0.000000000              -0.271650426               0.271650426               0.000000000              -0.297022601               0.297022601               0.000000000              -0.322394776               0.322394776               0.000000000              -0.347766951               0.347766951               0.000000000              -0.373139126               0.373139126               0.000000000              -0.398511300               0.398511300               0.000000000              -0.423883475               0.423883475               0.000000000              -0.449255650               0.449255650               0.000000000              -0.474627825               0.474627825               0.000000000              -0.500000000               0.500000000               0.000000000              -0.084374307               0.102810390               0.000000000              -0.106444663               0.127634741               0.000000000              -0.128515018               0.152459092               0.000000000              -0.150585374               0.177283442               0.000000000              -0.172655730               0.202107793               0.000000000              -0.194726086               0.226932143               0.000000000              -0.216796442               0.251756494               0.000000000              -0.238866798               0.276580845               0.000000000              -0.260937153               0.301405195               0.000000000              -0.283007509               0.326229546               0.000000000              -0.305077865               0.351053896               0.000000000              -0.327148221               0.375878247               0.000000000              -0.349218577               0.400702598               0.000000000              -0.371288933               0.425526948               0.000000000              -0.393359288               0.450351299               0.000000000              -0.415429644               0.475175649               0.000000000              -0.437500000               0.500000000               0.000000000              -0.073890841               0.110585458               0.000000000              -0.092710163               0.134923867               0.000000000              -0.111529486               0.159262276               0.000000000              -0.130348808               0.183600685               0.000000000              -0.149168131               0.207939094               0.000000000              -0.167987453               0.232277503               0.000000000              -0.186806776               0.256615912               0.000000000              -0.205626098               0.280954320               0.000000000              -0.224445420               0.305292729               0.000000000              -0.243264743               0.329631138               0.000000000              -0.262084065               0.353969547               0.000000000              -0.280903388               0.378307956               0.000000000              -0.299722710               0.402646365               0.000000000              -0.318542033               0.426984773               0.000000000              -0.337361355               0.451323182               0.000000000              -0.356180678               0.475661591               0.000000000              -0.375000000               0.500000000               0.000000000              -0.062695766               0.117295528               0.000000000              -0.078308531               0.141214558               0.000000000              -0.093921295               0.165133587               0.000000000              -0.109534060               0.189052617               0.000000000              -0.125146824               0.212971646               0.000000000              -0.140759589               0.236890676               0.000000000              -0.156372354               0.260809705               0.000000000              -0.171985118               0.284728735               0.000000000              -0.187597883               0.308647764               0.000000000              -0.203210648               0.332566794               0.000000000              -0.218823412               0.356485823               0.000000000              -0.234436177               0.380404853               0.000000000              -0.250048941               0.404323882               0.000000000              -0.265661706               0.428242912               0.000000000              -0.281274471               0.452161941               0.000000000              -0.296887235               0.476080971               0.000000000              -0.312500000               0.500000000               0.000000000              -0.050896897               0.122875978               0.000000000              -0.063340840               0.146446229               0.000000000              -0.075784784               0.170016481               0.000000000              -0.088228728               0.193586732               0.000000000              -0.100672672               0.217156983               0.000000000              -0.113116616               0.240727235               0.000000000              -0.125560560               0.264297486               0.000000000              -0.138004504               0.287867738               0.000000000              -0.150448448               0.311437989               0.000000000              -0.162892392               0.335008240               0.000000000              -0.175336336               0.358578492               0.000000000              -0.187780280               0.382148743               0.000000000              -0.200224224               0.405718994               0.000000000              -0.212668168               0.429289246               0.000000000              -0.225112112               0.452859497               0.000000000              -0.237556056               0.476429749               0.000000000              -0.250000000               0.500000000               0.000000000              -0.038607862               0.127273065               0.000000000              -0.047913621               0.150568498               0.000000000              -0.057219379               0.173863932               0.000000000              -0.066525138               0.197159365               0.000000000              -0.075830897               0.220454798               0.000000000              -0.085136655               0.243750232               0.000000000              -0.094442414               0.267045665               0.000000000              -0.103748172               0.290341099               0.000000000              -0.113053931               0.313636532               0.000000000              -0.122359690               0.336931966               0.000000000              -0.131665448               0.360227399               0.000000000              -0.140971207               0.383522833               0.000000000              -0.150276966               0.406818266               0.000000000              -0.159582724               0.430113700               0.000000000              -0.168888483               0.453409133               0.000000000              -0.178194241               0.476704567               0.000000000              -0.187500000               0.500000000               0.000000000              -0.025947013               0.130444442               0.000000000              -0.032137825               0.153541665               0.000000000              -0.038328636               0.176638887               0.000000000              -0.044519448               0.199736109               0.000000000              -0.050710260               0.222833332               0.000000000              -0.056901071               0.245930554               0.000000000              -0.063091883               0.269027776               0.000000000              -0.069282695               0.292124999               0.000000000              -0.075473506               0.315222221               0.000000000              -0.081664318               0.338319444               0.000000000              -0.087855130               0.361416666               0.000000000              -0.094045942               0.384513888               0.000000000              -0.100236753               0.407611111               0.000000000              -0.106427565               0.430708333               0.000000000              -0.112618377               0.453805555               0.000000000              -0.118809188               0.476902778               0.000000000              -0.125000000               0.500000000               0.000000000              -0.013036280               0.132359569               0.000000000              -0.016127762               0.155337096               0.000000000              -0.019219245               0.178314623               0.000000000              -0.022310727               0.201292150               0.000000000              -0.025402210               0.224269676               0.000000000              -0.028493692               0.247247203               0.000000000              -0.031585175               0.270224730               0.000000000              -0.034676657               0.293202257               0.000000000              -0.037768140               0.316179784               0.000000000              -0.040859622               0.339157311               0.000000000              -0.043951105               0.362134838               0.000000000              -0.047042587               0.385112365               0.000000000              -0.050134070               0.408089892               0.000000000              -0.053225552               0.431067419               0.000000000              -0.056317035               0.454044946               0.000000000              -0.059408517               0.477022473               0.000000000              -0.062500000               0.500000000               0.000000000               0.000000000               0.133000000               0.000000000               0.000000000               0.155937500               0.000000000               0.000000000               0.178875000               0.000000000               0.000000000               0.201812500               0.000000000               0.000000000               0.224750000               0.000000000               0.000000000               0.247687500               0.000000000               0.000000000               0.270625000               0.000000000               0.000000000               0.293562500               0.000000000               0.000000000               0.316500000               0.000000000               0.000000000               0.339437500               0.000000000               0.000000000               0.362375000               0.000000000               0.000000000               0.385312500               0.000000000               0.000000000               0.408250000               0.000000000               0.000000000               0.431187500               0.000000000               0.000000000               0.454125000               0.000000000               0.000000000               0.477062500               0.000000000               0.000000000               0.500000000               0.000000000 </DataArray>
</Points>
<Cells>
<DataArray type="Int32"                                    Name="connectivity"                                                      NumberOfComponents=" 1" format="ascii">
         0          1         18         17          1          2         19         18          2          3         20         19          3          4         21         20          4          5         22         21          5          6         23         22          6          7         24         23          7          8         25         24          8          9         26         25          9         10         27         26         10         11         28         27         11         12         29         28         12         13         30         29         13         14         31         30         14         15         32         31         15         16         33         32         17         18         35         34         18         19         36         35         19         20         37         36         20         21         38         37         21         22         39         38         22         23         40         39         23         24         41         40         24         25         42         41         25         26         43         42         26         27         44         43         27         28         45         44         28         29         46         45         29         30         47         46         30         31         48         47         31         32         49         48         32         33         50         49         34         35         52         51         35         36         53         52         36         37         54         53         37         38         55         54         38         39         56         55         39         40         57         56         40         41         58         57         41         42         59         58         42         43         60         59         43         44         61         60         44         45         62         61         45         46         63         62         46         47         64         63         47         48         65         64         48         49         66         65         49         50         67         66         51         52         69         68         52         53         70         69         53         54         71         70         54         55         72         71         55         56         73         72         56         57         74         73         57         58         75         74         58         59         76         75         59         60         77         76         60         61         78         77         61         62         79         78         62         63         80         79         63         64         81         80         64         65         82         81         65         66         83         82         66         67         84         83         68         69         86         85         69         70         87         86         70         71         88         87         71         72         89         88         72         73         90         89         73         74         91         90         74         75         92         91         75         76         93         92         76         77         94         93         77         78         95         94         78         79         96         95         79         80         97         96         80         81         98         97         81         82         99         98         82         83        100         99         83         84        101        100         85         86        103        102         86         87        104        103         87         88        105        104         88         89        106        105         89         90        107        106         90         91        108        107         91         92        109        108         92         93        110        109         93         94        111        110         94         95        112        111         95         96        113        112         96         97        114        113         97         98        115        114         98         99        116        115         99        100        117        116        100        101        118        117        102        103        120        119        103        104        121        120        104        105        122        121        105        106        123        122        106        107        124        123        107        108        125        124        108        109        126        125        109        110        127        126        110        111        128        127        111        112        129        128        112        113        130        129        113        114        131        130        114        115        132        131        115        116        133        132        116        117        134        133        117        118        135        134        119        120        137        136        120        121        138        137        121        122        139        138        122        123        140        139        123        124        141        140        124        125        142        141        125        126        143        142        126        127        144        143        127        128        145        144        128        129        146        145        129        130        147        146        130        131        148        147        131        132        149        148        132        133        150        149        133        134        151        150        134        135        152        151        136        137        154        153        137        138        155        154        138        139        156        155        139        140        157        156        140        141        158        157        141        142        159        158        142        143        160        159        143        144        161        160        144        145        162        161        145        146        163        162        146        147        164        163        147        148        165        164        148        149        166        165        149        150        167        166        150        151        168        167        151        152        169        168        153        154        171        170        154        155        172        171        155        156        173        172        156        157        174        173        157        158        175        174        158        159        176        175        159        160        177        176        160        161        178        177        161        162        179        178        162        163        180        179        163        164        181        180        164        165        182        181        165        166        183        182        166        167        184        183        167        168        185        184        168        169        186        185        170        171        188        187        171        172        189        188        172        173        190        189        173        174        191        190        174        175        192        191        175        176        193        192        176        177        194        193        177        178        195        194        178        179        196        195        179        180        197        196        180        181        198        197        181        182        199        198        182        183        200        199        183        184        201        200        184        185        202        201        185        186        203        202        187        188        205        204        188        189        206        205        189        190        207        206        190        191        208        207        191        192        209        208        192        193        210        209        193        194        211        210        194        195        212        211        195        196        213        212        196        197        214        213        197        198        215        214        198        199        216        215        199        200        217        216        200        201        218        217        201        202        219        218        202        203        220        219        204        205        222        221        205        206        223        222        206        207        224        223        207        208        225        224        208        209        226        225        209        210        227        226        210        211        228        227        211        212        229        228        212        213        230        229        213        214        231        230        214        215        232        231        215        216        233        232        216        217        234        233        217        218        235        234        218        219        236        235        219        220        237        236        221        222        239        238        222        223        240        239        223        224        241        240        224        225        242        241        225        226        243        242        226        227        244        243        227        228        245        244        228        229        246        245        229        230        247        246        230        231        248        247        231        232        249        248        232        233        250        249        233        234        251        250        234        235        252        251        235        236        253        252        236        237        254        253        238        239        256        255        239        240        257        256        240        241        258        257        241        242        259        258        242        243        260        259        243        244        261        260        244        245        262        261        245        246        263        262        246        247        264        263        247        248        265        264        248        249        266        265        249        250        267        266        250        251        268        267        251        252        269        268        252        253        270        269        253        254        271        270        255        256        273        272        256        257        274        273        257        258        275        274        258        259        276        275        259        260        277        276        260        261        278        277        261        262        279        278        262        263        280        279        263        264        281        280        264        265        282        281        265        266        283        282        266        267        284        283        267        268        285        284        268        269        286        285        269        270        287        286        270        271        288        287        306        307          1          0        307        308          2          1        308        309          3          2        309        310          4          3        310        311          5          4        311        312          6          5        312        313          7          6        313        314          8          7        314        315          9          8        315        316         10          9        316        317         11         10        317        318         12         11        318        319         13         12        319        320         14         13        320        321         15         14        321        322         16         15        323        324        307        306        324        325        308        307        325        326        309        308        326        327        310        309        327        328        311        310        328        329        312        311        329        330        313        312        330        331        314        313        331        332        315        314        332        333        316        315        333        334        317        316        334        335        318        317        335        336        319        318        336        337        320        319        337        338        321        320        338        339        322        321        340        341        324        323        341        342        325        324        342        343        326        325        343        344        327        326        344        345        328        327        345        346        329        328        346        347        330        329        347        348        331        330        348        349        332        331        349        350        333        332        350        351        334        333        351        352        335        334        352        353        336        335        353        354        337        336        354        355        338        337        355        356        339        338        357        358        341        340        358        359        342        341        359        360        343        342        360        361        344        343        361        362        345        344        362        363        346        345        363        364        347        346        364        365        348        347        365        366        349        348        366        367        350        349        367        368        351        350        368        369        352        351        369        370        353        352        370        371        354        353        371        372        355        354        372        373        356        355        374        375        358        357        375        376        359        358        376        377        360        359        377        378        361        360        378        379        362        361        379        380        363        362        380        381        364        363        381        382        365        364        382        383        366        365        383        384        367        366        384        385        368        367        385        386        369        368        386        387        370        369        387        388        371        370        388        389        372        371        389        390        373        372        391        392        375        374        392        393        376        375        393        394        377        376        394        395        378        377        395        396        379        378        396        397        380        379        397        398        381        380        398        399        382        381        399        400        383        382        400        401        384        383        401        402        385        384        402        403        386        385        403        404        387        386        404        405        388        387        405        406        389        388        406        407        390        389        408        409        392        391        409        410        393        392        410        411        394        393        411        412        395        394        412        413        396        395        413        414        397        396        414        415        398        397        415        416        399        398        416        417        400        399        417        418        401        400        418        419        402        401        419        420        403        402        420        421        404        403        421        422        405        404        422        423        406        405        423        424        407        406        425        426        409        408        426        427        410        409        427        428        411        410        428        429        412        411        429        430        413        412        430        431        414        413        431        432        415        414        432        433        416        415        433        434        417        416        434        435        418        417        435        436        419        418        436        437        420        419        437        438        421        420        438        439        422        421        439        440        423        422        440        441        424        423        442        443        426        425        443        444        427        426        444        445        428        427        445        446        429        428        446        447        430        429        447        448        431        430        448        449        432        431        449        450        433        432        450        451        434        433        451        452        435        434        452        453        436        435        453        454        437        436        454        455        438        437        455        456        439        438        456        457        440        439        457        458        441        440        459        460        443        442        460        461        444        443        461        462        445        444        462        463        446        445        463        464        447        446        464        465        448        447        465        466        449        448        466        467        450        449        467        468        451        450        468        469        452        451        469        470        453        452        470        471        454        453        471        472        455        454        472        473        456        455        473        474        457        456        474        475        458        457        476        477        460        459        477        478        461        460        478        479        462        461        479        480        463        462        480        481        464        463        481        482        465        464        482        483        466        465        483        484        467        466        484        485        468        467        485        486        469        468        486        487        470        469        487        488        471        470        488        489        472        471        489        490        473        472        490        491        474        473        491        492        475        474        493        494        477        476        494        495        478        477        495        496        479        478        496        497        480        479        497        498        481        480        498        499        482        481        499        500        483        482        500        501        484        483        501        502        485        484        502        503        486        485        503        504        487        486        504        505        488        487        505        506        489        488        506        507        490        489        507        508        491        490        508        509        492        491        510        511        494        493        511        512        495        494        512        513        496        495        513        514        497        496        514        515        498        497        515        516        499        498        516        517        500        499        517        518        501        500        518        519        502        501        519        520        503        502        520        521        504        503        521        522        505        504        522        523        506        505        523        524        507        506        524        525        508        507        525        526        509        508        527        528        511        510        528        529        512        511        529        530        513        512        530        531        514        513        531        532        515        514        532        533        516        515        533        534        517        516        534        535        518        517        535        536        519        518        536        537        520        519        537        538        521        520        538        539        522        521        539        540        523        522        540        541        524        523        541        542        525        524        542        543        526        525        544        545        528        527        545        546        529        528        546        547        530        529        547        548        531        530        548        549        532        531        549        550        533        532        550        551        534        533        551        552        535        534        552        553        536        535        553        554        537        536        554        555        538        537        555        556        539        538        556        557        540        539        557        558        541        540        558        559        542        541        559        560        543        542        561        562        545        544        562        563        546        545        563        564        547        546        564        565        548        547        565        566        549        548        566        567        550        549        567        568        551        550        568        569        552        551        569        570        553        552        570        571        554        553        571        572        555        554        572        573        556        555        573        574        557        556        574        575        558        557        575        576        559        558        576        577        560        559        578        579        596        595        579        580        597        596        580        581        598        597        581        582        599        598        582        583        600        599        583        584        601        600        584        585        602        601        585        586        603        602        586        587        604        603        587        588        605        604        588        589        606        605        589        590        607        606        590        591        608        607        591        592        609        608        592        593        610        609        593        594        611        610        595        596        613        612        596        597        614        613        597        598        615        614        598        599        616        615        599        600        617        616        600        601        618        617        601        602        619        618        602        603        620        619        603        604        621        620        604        605        622        621        605        606        623        622        606        607        624        623        607        608        625        624        608        609        626        625        609        610        627        626        610        611        628        627        612        613        630        629        613        614        631        630        614        615        632        631        615        616        633        632        616        617        634        633        617        618        635        634        618        619        636        635        619        620        637        636        620        621        638        637        621        622        639        638        622        623        640        639        623        624        641        640        624        625        642        641        625        626        643        642        626        627        644        643        627        628        645        644        629        630        647        646        630        631        648        647        631        632        649        648        632        633        650        649        633        634        651        650        634        635        652        651        635        636        653        652        636        637        654        653        637        638        655        654        638        639        656        655        639        640        657        656        640        641        658        657        641        642        659        658        642        643        660        659        643        644        661        660        644        645        662        661        646        647        664        663        647        648        665        664        648        649        666        665        649        650        667        666        650        651        668        667        651        652        669        668        652        653        670        669        653        654        671        670        654        655        672        671        655        656        673        672        656        657        674        673        657        658        675        674        658        659        676        675        659        660        677        676        660        661        678        677        661        662        679        678        663        664        681        680        664        665        682        681        665        666        683        682        666        667        684        683        667        668        685        684        668        669        686        685        669        670        687        686        670        671        688        687        671        672        689        688        672        673        690        689        673        674        691        690        674        675        692        691        675        676        693        692        676        677        694        693        677        678        695        694        678        679        696        695        680        681        698        697        681        682        699        698        682        683        700        699        683        684        701        700        684        685        702        701        685        686        703        702        686        687        704        703        687        688        705        704        688        689        706        705        689        690        707        706        690        691        708        707        691        692        709        708        692        693        710        709        693        694        711        710        694        695        712        711        695        696        713        712        697        698        715        714        698        699        716        715        699        700        717        716        700        701        718        717        701        702        719        718        702        703        720        719        703        704        721        720        704        705        722        721        705        706        723        722        706        707        724        723        707        708        725        724        708        709        726        725        709        710        727        726        710        711        728        727        711        712        729        728        712        713        730        729        714        715        732        731        715        716        733        732        716        717        734        733        717        718        735        734        718        719        736        735        719        720        737        736        720        721        738        737        721        722        739        738        722        723        740        739        723        724        741        740        724        725        742        741        725        726        743        742        726        727        744        743        727        728        745        744        728        729        746        745        729        730        747        746        731        732        749        748        732        733        750        749        733        734        751        750        734        735        752        751        735        736        753        752        736        737        754        753        737        738        755        754        738        739        756        755        739        740        757        756        740        741        758        757        741        742        759        758        742        743        760        759        743        744        761        760        744        745        762        761        745        746        763        762        746        747        764        763        748        749        766        765        749        750        767        766        750        751        768        767        751        752        769        768        752        753        770        769        753        754        771        770        754        755        772        771        755        756        773        772        756        757        774        773        757        758        775        774        758        759        776        775        759        760        777        776        760        761        778        777        761        762        779        778        762        763        780        779        763        764        781        780        765        766        783        782        766        767        784        783        767        768        785        784        768        769        786        785        769        770        787        786        770        771        788        787        771        772        789        788        772        773        790        789        773        774        791        790        774        775        792        791        775        776        793        792        776        777        794        793        777        778        795        794        778        779        796        795        779        780        797        796        780        781        798        797        782        783        800        799        783        784        801        800        784        785        802        801        785        786        803        802        786        787        804        803        787        788        805        804        788        789        806        805        789        790        807        806        790        791        808        807        791        792        809        808        792        793        810        809        793        794        811        810        794        795        812        811        795        796        813        812        796        797        814        813        797        798        815        814        799        800        817        816        800        801        818        817        801        802        819        818        802        803        820        819        803        804        821        820        804        805        822        821        805        806        823        822        806        807        824        823        807        808        825        824        808        809        826        825        809        810        827        826        810        811        828        827        811        812        829        828        812        813        830        829        813        814        831        830        814        815        832        831        816        817        834        833        817        818        835        834        818        819        836        835        819        820        837        836        820        821        838        837        821        822        839        838        822        823        840        839        823        824        841        840        824        825        842        841        825        826        843        842        826        827        844        843        827        828        845        844        828        829        846        845        829        830        847        846        830        831        848        847        831        832        849        848        833        834        562        561        834        835        563        562        835        836        564        563        836        837        565        564        837        838        566        565        838        839        567        566        839        840        568        567        840        841        569        568        841        842        570        569        842        843        571        570        843        844        572        571        844        845        573        572        845        846        574        573        846        847        575        574        847        848        576        575        848        849        577        576        884        885        579        578        885        886        580        579        886        887        581        580        887        888        582        581        888        889        583        582        889        890        584        583        890        891        585        584        891        892        586        585        892        893        587        586        893        894        588        587        894        895        589        588        895        896        590        589        896        897        591        590        897        898        592        591        898        899        593        592        899        900        594        593        901        902        885        884        902        903        886        885        903        904        887        886        904        905        888        887        905        906        889        888        906        907        890        889        907        908        891        890        908        909        892        891        909        910        893        892        910        911        894        893        911        912        895        894        912        913        896        895        913        914        897        896        914        915        898        897        915        916        899        898        916        917        900        899        918        919        902        901        919        920        903        902        920        921        904        903        921        922        905        904        922        923        906        905        923        924        907        906        924        925        908        907        925        926        909        908        926        927        910        909        927        928        911        910        928        929        912        911        929        930        913        912        930        931        914        913        931        932        915        914        932        933        916        915        933        934        917        916        935        936        919        918        936        937        920        919        937        938        921        920        938        939        922        921        939        940        923        922        940        941        924        923        941        942        925        924        942        943        926        925        943        944        927        926        944        945        928        927        945        946        929        928        946        947        930        929        947        948        931        930        948        949        932        931        949        950        933        932        950        951        934        933        952        953        936        935        953        954        937        936        954        955        938        937        955        956        939        938        956        957        940        939        957        958        941        940        958        959        942        941        959        960        943        942        960        961        944        943        961        962        945        944        962        963        946        945        963        964        947        946        964        965        948        947        965        966        949        948        966        967        950        949        967        968        951        950        969        970        953        952        970        971        954        953        971        972        955        954        972        973        956        955        973        974        957        956        974        975        958        957        975        976        959        958        976        977        960        959        977        978        961        960        978        979        962        961        979        980        963        962        980        981        964        963        981        982        965        964        982        983        966        965        983        984        967        966        984        985        968        967        986        987        970        969        987        988        971        970        988        989        972        971        989        990        973        972        990        991        974        973        991        992        975        974        992        993        976        975        993        994        977        976        994        995        978        977        995        996        979        978        996        997        980        979        997        998        981        980        998        999        982        981        999       1000        983        982       1000       1001        984        983       1001       1002        985        984       1003       1004        987        986       1004       1005        988        987       1005       1006        989        988       1006       1007        990        989       1007       1008        991        990       1008       1009        992        991       1009       1010        993        992       1010       1011        994        993       1011       1012        995        994       1012       1013        996        995       1013       1014        997        996       1014       1015        998        997       1015       1016        999        998       1016       1017       1000        999       1017       1018       1001       1000       1018       1019       1002       1001       1020       1021       1004       1003       1021       1022       1005       1004       1022       1023       1006       1005       1023       1024       1007       1006       1024       1025       1008       1007       1025       1026       1009       1008       1026       1027       1010       1009       1027       1028       1011       1010       1028       1029       1012       1011       1029       1030       1013       1012       1030       1031       1014       1013       1031       1032       1015       1014       1032       1033       1016       1015       1033       1034       1017       1016       1034       1035       1018       1017       1035       1036       1019       1018       1037       1038       1021       1020       1038       1039       1022       1021       1039       1040       1023       1022       1040       1041       1024       1023       1041       1042       1025       1024       1042       1043       1026       1025       1043       1044       1027       1026       1044       1045       1028       1027       1045       1046       1029       1028       1046       1047       1030       1029       1047       1048       1031       1030       1048       1049       1032       1031       1049       1050       1033       1032       1050       1051       1034       1033       1051       1052       1035       1034       1052       1053       1036       1035       1054       1055       1038       1037       1055       1056       1039       1038       1056       1057       1040       1039       1057       1058       1041       1040       1058       1059       1042       1041       1059       1060       1043       1042       1060       1061       1044       1043       1061       1062       1045       1044       1062       1063       1046       1045       1063       1064       1047       1046       1064       1065       1048       1047       1065       1066       1049       1048       1066       1067       1050       1049       1067       1068       1051       1050       1068       1069       1052       1051       1069       1070       1053       1052       1071       1072       1055       1054       1072       1073       1056       1055       1073       1074       1057       1056       1074       1075       1058       1057       1075       1076       1059       1058       1076       1077       1060       1059       1077       1078       1061       1060       1078       1079       1062       1061       1079       1080       1063       1062       1080       1081       1064       1063       1081       1082       1065       1064       1082       1083       1066       1065       1083       1084       1067       1066       1084       1085       1068       1067       1085       1086       1069       1068       1086       1087       1070       1069       1088       1089       1072       1071       1089       1090       1073       1072       1090       1091       1074       1073       1091       1092       1075       1074       1092       1093       1076       1075       1093       1094       1077       1076       1094       1095       1078       1077       1095       1096       1079       1078       1096       1097       1080       1079       1097       1098       1081       1080       1098       1099       1082       1081       1099       1100       1083       1082       1100       1101       1084       1083       1101       1102       1085       1084       1102       1103       1086       1085       1103       1104       1087       1086       1105       1106       1089       1088       1106       1107       1090       1089       1107       1108       1091       1090       1108       1109       1092       1091       1109       1110       1093       1092       1110       1111       1094       1093       1111       1112       1095       1094       1112       1113       1096       1095       1113       1114       1097       1096       1114       1115       1098       1097       1115       1116       1099       1098       1116       1117       1100       1099       1117       1118       1101       1100       1118       1119       1102       1101       1119       1120       1103       1102       1120       1121       1104       1103       1122       1123       1106       1105       1123       1124       1107       1106       1124       1125       1108       1107       1125       1126       1109       1108       1126       1127       1110       1109       1127       1128       1111       1110       1128       1129       1112       1111       1129       1130       1113       1112       1130       1131       1114       1113       1131       1132       1115       1114       1132       1133       1116       1115       1133       1134       1117       1116       1134       1135       1118       1117       1135       1136       1119       1118       1136       1137       1120       1119       1137       1138       1121       1120        272        273       1123       1122        273        274       1124       1123        274        275       1125       1124        275        276       1126       1125        276        277       1127       1126        277        278       1128       1127        278        279       1129       1128        279        280       1130       1129        280        281       1131       1130        281        282       1132       1131        282        283       1133       1132        283        284       1134       1133        284        285       1135       1134        285        286       1136       1135        286        287       1137       1136        287        288       1138       1137 </DataArray>
<DataArray type="Int32"                                    Name="offsets"                                                      NumberOfComponents=" 1" format="ascii">
         4          8         12         16         20         24         28         32         36         40         44         48         52         56         60         64         68         72         76         80         84         88         92         96        100        104        108        112        116        120        124        128        132        136        140        144        148        152        156        160        164        168        172        176        180        184        188        192        196        200        204        208        212        216        220        224        228        232        236        240        244        248        252        256        260        264        268        272        276        280        284        288        292        296        300        304        308        312        316        320        324        328        332        336        340        344        348        352        356        360        364        368        372        376        380        384        388        392        396        400        404        408        412        416        420        424        428        432        436        440        444        448        452        456        460        464        468        472        476        480        484        488        492        496        500        504        508        512        516        520        524        528        532        536        540        544        548        552        556        560        564        568        572        576        580        584        588        592        596        600        604        608        612        616        620        624        628        632        636        640        644        648        652        656        660        664        668        672        676        680        684        688        692        696        700        704        708        712        716        720        724        728        732        736        740        744        748        752        756        760        764        768        772        776        780        784        788        792        796        800        804        808        812        816        820        824        828        832        836        840        844        848        852        856        860        864        868        872        876        880        884        888        892        896        900        904        908        912        916        920        924        928        932        936        940        944        948        952        956        960        964        968        972        976        980        984        988        992        996       1000       1004       1008       1012       1016       1020       1024       1028       1032       1036       1040       1044       1048       1052       1056       1060       1064       1068       1072       1076       1080       1084       1088       1092       1096       1100       1104       1108       1112       1116       1120       1124       1128       1132       1136       1140       1144       1148       1152       1156       1160       1164       1168       1172       1176       1180       1184       1188       1192       1196       1200       1204       1208       1212       1216       1220       1224       1228       1232       1236       1240       1244       1248       1252       1256       1260       1264       1268       1272       1276       1280       1284       1288       1292       1296       1300       1304       1308       1312       1316       1320       1324       1328       1332       1336       1340       1344       1348       1352       1356       1360       1364       1368       1372       1376       1380       1384       1388       1392       1396       1400       1404       1408       1412       1416       1420       1424       1428       1432       1436       1440       1444       1448       1452       1456       1460       1464       1468       1472       1476       1480       1484       1488       1492       1496       1500       1504       1508       1512       1516       1520       1524       1528       1532       1536       1540       1544       1548       1552       1556       1560       1564       1568       1572       1576       1580       1584       1588       1592       1596       1600       1604       1608       1612       1616       1620       1624       1628       1632       1636       1640       1644       1648       1652       1656       1660       1664       1668       1672       1676       1680       1684       1688       1692       1696       1700       1704       1708       1712       1716       1720       1724       1728       1732       1736       1740       1744       1748       1752       1756       1760       1764       1768       1772       1776       1780       1784       1788       1792       1796       1800       1804       1808       1812       1816       1820       1824       1828       1832       1836       1840       1844       1848       1852       1856       1860       1864       1868       1872       1876       1880       1884       1888       1892       1896       1900       1904       1908       1912       1916       1920       1924       1928       1932       1936       1940       1944       1948       1952       1956       1960       1964       1968       1972       1976       1980       1984       1988       1992       1996       2000       2004       2008       2012       2016       2020       2024       2028       2032       2036       2040       2044       2048       2052       2056       2060       2064       2068       2072       2076       2080       2084       2088       2092       2096       2100       2104       2108       2112       2116       2120       2124       2128       2132       2136       2140       2144       2148       2152       2156       2160       2164       2168       2172       2176       2180       2184       2188       2192       2196       2200       2204       2208       2212       2216       2220       2224       2228       2232       2236       2240       2244       2248       2252       2256       2260       2264       2268       2272       2276       2280       2284       2288       2292       2296       2300       2304       2308       2312       2316       2320       2324       2328       2332       2336       2340       2344       2348       2352       2356       2360       2364       2368       2372       2376       2380       2384       2388       2392       2396       2400       2404       2408       2412       2416       2420       2424       2428       2432       2436       2440       2444       2448       2452       2456       2460       2464       2468       2472       2476       2480       2484       2488       2492       2496       2500       2504       2508       2512       2516       2520       2524       2528       2532       2536       2540       2544       2548       2552       2556       2560       2564       2568       2572       2576       2580       2584       2588       2592       2596       2600       2604       2608       2612       2616       2620       2624       2628       2632       2636       2640       2644       2648       2652       2656       2660       2664       2668       2672       2676       2680       2684       2688       2692       2696       2700       2704       2708       2712       2716       2720       2724       2728       2732       2736       2740       2744       2748       2752       2756       2760       2764       2768       2772       2776       2780       2784       2788       2792       2796       2800       2804       2808       2812       2816       2820       2824       2828       2832       2836       2840       2844       2848       2852       2856       2860       2864       2868       2872       2876       2880       2884       2888       2892       2896       2900       2904       2908       2912       2916       2920       2924       2928       2932       2936       2940       2944       2948       2952       2956       2960       2964       2968       2972       2976       2980       2984       2988       2992       2996       3000       3004       3008       3012       3016       3020       3024       3028       3032       3036       3040       3044       3048       3052       3056       3060       3064       3068       3072       3076       3080       3084       3088       3092       3096       3100       3104       3108       3112       3116       3120       3124       3128       3132       3136       3140       3144       3148       3152       3156       3160       3164       3168       3172       3176       3180       3184       3188       3192       3196       3200       3204       3208       3212       3216       3220       3224       3228       3232       3236       3240       3244       3248       3252       3256       3260       3264       3268       3272       3276       3280       3284       3288       3292       3296       3300       3304       3308       3312       3316       3320       3324       3328       3332       3336       3340       3344       3348       3352       3356       3360       3364       3368       3372       3376       3380       3384       3388       3392       3396       3400       3404       3408       3412       3416       3420       3424       3428       3432       3436       3440       3444       3448       3452       3456       3460       3464       3468       3472       3476       3480       3484       3488       3492       3496       3500       3504       3508       3512       3516       3520       3524       3528       3532       3536       3540       3544       3548       3552       3556       3560       3564       3568       3572       3576       3580       3584       3588       3592       3596       3600       3604       3608       3612       3616       3620       3624       3628       3632       3636       3640       3644       3648       3652       3656       3660       3664       3668       3672       3676       3680       3684       3688       3692       3696       3700       3704       3708       3712       3716       3720       3724       3728       3732       3736       3740       3744       3748       3752       3756       3760       3764       3768       3772       3776       3780       3784       3788       3792       3796       3800       3804       3808       3812       3816       3820       3824       3828       3832       3836       3840       3844       3848       3852       3856       3860       3864       3868       3872       3876       3880       3884       3888       3892       3896       3900       3904       3908       3912       3916       3920       3924       3928       3932       3936       3940       3944       3948       3952       3956       3960       3964       3968       3972       3976       3980       3984       3988       3992       3996       4000       4004       4008       4012       4016       4020       4024       4028       4032       4036       4040       4044       4048       4052       4056       4060       4064       4068       4072       4076       4080       4084       4088       4092       4096 </DataArray>
<DataArray type="UInt8"                                    Name="types"                                                      NumberOfComponents=" 1" format="ascii">
         9          9          9          9          9          9          9          9          9          9          9          9          9          9          9          9          9          9          9          9          9          9          9          9          9          9          9          9          9          9          9          9          9          9          9          9          9          9          9          9          9          9          9          9          9          9          9          9          9          9          9          9          9          9          9          9          9          9          9          9          9          9          9          9          9          9          9          9          9          9          9          9          9          9          9          9          9          9          9          9          9          9          9          9          9          9          9          9          9          9          9          9          9          9          9          9          9          9          9          9          9          9          9          9          9          9          9          9          9          9          9          9          9          9          9          9          9          9          9          9          9          9          9          9          9          9          9          9          9          9          9          9          9          9          9          9          9          9          9          9          9          9          9          9          9          9          9          9          9          9          9          9          9          9          9          9          9          9          9          9          9          9          9          9          9          9          9          9          9          9          9          9          9          9          9          9          9          9          9          9          9          9          9          9          9          9          9          9          9          9          9          9          9          9          9          9          9          9          9          9          9          9          9          9          9          9          9          9          9          9          9          9          9          9          9          9          9          9          9          9          9          9          9          9          9          9          9          9          9          9          9          9          9          9          9          9          9          9          9          9          9          9          9          9          9          9          9          9          9          9          9          9          9          9          9          9          9          9          9          9          9          9          9          9          9          9          9          9          9          9          9          9          9          9          9          9          9          9          9          9          9          9          9          9          9          9          9          9          9          9          9          9          9          9          9          9          9          9          9          9          9          9          9          9          9          9          9          9          9          9          9          9          9          9          9          9          9          9          9          9          9          9          9          9          9          9          9          9          9          9          9          9          9          9          9          9          9          9          9          9          9          9          9          9          9          9          9          9          9          9          9          9          9          9          9          9          9          9          9          9          9          9          9          9          9          9          9          9          9          9          9          9          9          9          9          9          9          9          9          9          9          9          9          9          9          9          9          9          9          9          9          9          9          9          9          9          9          9          9          9          9          9          9          9          9          9          9          9          9          9          9          9          9          9          9          9          9          9          9          9          9          9          9          9          9          9          9          9          9          9          9          9          9          9          9          9          9          9          9          9          9          9          9          9          9          9          9          9          9          9          9          9          9          9          9          9          9          9          9          9          9          9          9          9          9          9          9          9          9          9          9          9          9          9          9          9          9          9          9          9          9          9          9          9          9          9          9          9          9          9          9          9          9          9          9          9          9          9          9          9          9          9          9          9          9          9          9          9          9          9          9          9          9          9          9          9          9          9          9          9          9          9          9          9          9          9          9          9          9          9          9          9          9          9          9          9          9          9          9          9          9          9          9          9          9          9          9          9          9          9          9          9          9          9          9          9          9          9          9          9          9          9          9          9          9          9          9          9          9          9          9          9          9          9          9          9          9          9          9          9          9          9          9          9          9          9          9          9          9          9          9          9          9          9          9          9          9          9          9          9          9          9          9          9          9          9          9          9          9          9          9          9          9          9          9          9          9          9          9          9          9          9          9          9          9          9          9          9          9          9          9          9          9          9          9          9          9          9          9          9          9          9          9          9          9          9          9          9          9          9          9          9          9          9          9          9          9          9          9          9          9          9          9          9          9          9          9          9          9          9          9          9          9          9          9          9          9          9          9          9          9          9          9          9          9          9          9          9          9          9          9          9          9          9          9          9          9          9          9          9          9          9          9          9          9          9          9          9          9          9          9          9          9          9          9          9          9          9          9          9          9          9          9          9          9          9          9          9          9          9          9          9          9          9          9          9          9          9          9          9          9          9          9          9          9          9          9          9          9          9          9          9          9          9          9          9          9          9          9          9          9          9          9          9          9          9          9          9          9          9          9          9          9          9          9          9          9          9          9          9          9          9          9          9          9          9          9          9          9          9          9          9          9          9          9          9          9          9          9          9          9          9          9          9          9          9          9          9          9          9          9          9          9          9          9          9          9          9          9          9          9          9          9          9          9          9          9          9          9          9          9          9          9          9          9          9          9          9          9          9          9          9          9          9          9          9          9          9          9          9          9          9          9          9          9          9          9          9          9          9          9          9          9          9          9          9          9          9          9          9          9          9          9          9          9          9          9          9          9          9          9          9          9          9          9          9          9          9          9          9          9          9          9          9          9          9          9          9          9          9          9          9          9          9          9          9          9          9          9          9          9          9          9          9          9          9          9          9          9          9          9          9          9          9          9          9          9          9          9          9          9          9          9          9          9          9          9          9          9          9          9          9          9          9          9          9          9          9          9          9          9          9          9          9          9          9          9          9          9          9          9          9          9          9          9          9          9          9          9          9          9          9          9          9          9          9          9          9          9          9          9          9          9          9          9          9          9          9          9          9          9          9          9          9          9          9          9          9          9          9          9          9          9          9          9          9          9          9          9          9          9          9          9          9          9          9          9          9          9          9          9          9          9          9 </DataArray>
</Cells>
<CellData>
<DataArray type="Int32"                                    Name="material"                                                      NumberOfComponents=" 1" format="ascii">
         1          1          1          1          1          1          1          1          1          1          1          1          1          1          1          1          1          1          1          1          1          1          1          1          1          1          1          1          1          1          1          1          1          1          1          1          1          1          1          1          1          1          1          1          1          1          1          1          1          1          1          1          1          1          1          1          1          1          1          1          1          1          1          1          1          1          1          1          1          1          1          1          1          1          1          1          1          1          1          1          1          1          1          1          1          1          1          1          1          1          1          1          1          1          1          1          1          1          1          1          1          1          1          1          1          1          1          1          1          1          1          1          1          1          1          1          1          1          1          1          1          1          1          1          1          1          1          1          1          1          1          1          1          1          1          1          1          1          1          1          1          1          1          1          1          1          1          1          1          1          1          1          1          1          1          1          1          1          1          1          1          1          1          1          1          1          1          1          1          1          1          1          1          1          1          1          1          1          1          1          1          1          1          1          1          1          1          1          1          1          1          1          1          1          1          1          1          1          1          1          1          1          1          1          1          1          1          1          1          1          1          1          1          1          1          1          1          1          1          1          1          1          1          1          1          1          1          1          1          1          1          1          1          1          1          1          1          1          1          1          1          1          1          1          1          1          1          1          1          1          1          1          1          1          1          1          1          1          1          1          1          1          1          1          1          1          1          1          1          1          1          1          1          1          1          1          1          1          1          1          1          1          1          1          1          1          1          1          1          1          1          1          1          1          1          1          1          1          1          1          1          1          1          1          1          1          1          1          1          1          1          1          1          1          1          1          1          1          1          1          1          1          1          1          1          1          1          1          1          1          1          1          1          1          1          1          1          1          1          1          1          1          1          1          1          1          1          1          1          1          1          1          1          1          1          1          1          1          1          1          1          1          1          1          1          1          1          1          1          1          1          1          1          1          1          1          1          1          1          1          1          1          1          1          1          1          1          1          1          1          1          1          1          1          1          1          1          1          1          1          1          1          1          1          1          1          1          1          1          1          1          1          1          1          1          1          1          1          1          1          1          1          1          1          1          1          1          1          1          1          1          1          1          1          1          1          1          1          1          1          1          1          1          1          1          1          1          1          1          1          1          1          1          1          1          1          1          1          1          1          1          1          1          1          1          1          1          1          1          1          1          1          1          1          1          1          1          1          1          1          1          1          1          1          1          1          1          1          1          1          1          1          1          1          1          1          1          1          1          1          1          1          1          1          1          1          1          1          1          1          1          1          1          1          1          1          1          1          1          1          1          1          1          1          1          1          1          1          1          1          1          1          1          1          1          1          1          1          1          1          1          1          1          1          1          1          1          1          1          1          1          1          1          1          1          1          1          1          1          1          1          1          1          1          1          1          1          1          1          1          1          1          1          1          1          1          1          1          1          1          1          1          1          1          1          1          1          1          1          1          1          1          1          1          1          1          1          1          1          1          1          1          1          1          1          1          1          1          1          1          1          1          1          1          1          1          1          1          1          1          1          1          1          1          1          1          1          1          1          1          1          1          1          1          1          1          1          1          1          1          1          1          1          1          1          1          1          1          1          1          1          1          1          1          1          1          1          1          1          1          1          1          1          1          1          1          1          1          1          1          1          1          1          1          1          1          1          1          1          1          1          1          1          1          1          1          1          1          1          1          1          1          1          1          1          1          1          1          1          1          1          1          1          1          1          1          1          1          1          1          1          1          1          1          1          1          1          1          1          1          1          1          1          1          1          1          1          1          1          1          1          1          1          1          1          1          1          1          1          1          1          1          1          1          1          1          1          1          1          1          1          1          1          1          1          1          1          1          1          1          1          1          1          1          1          1          1          1          1          1          1          1          1          1          1          1          1          1          1          1          1          1          1          1          1          1          1          1          1          1          1          1          1          1          1          1          1          1          1          1          1          1          1          1          1          1          1          1          1          1          1          1          1          1          1          1          1          1          1          1          1          1          1          1          1          1          1          1          1          1          1          1          1          1          1          1          1          1          1          1          1          1          1          1          1          1          1          1          1          1          1          1          1          1          1          1          1          1          1          1          1          1          1          1          1          1          1          1          1          1          1          1          1          1          1          1          1          1          1          1          1          1          1          1          1          1          1          1          1          1          1          1          1          1          1          1          1          1          1          1          1          1          1          1          1          1          1          1          1          1          1          1          1          1          1          1          1          1          1          1          1          1          1          1          1          1          1          1          1          1          1          1          1          1          1          1          1          1          1          1          1          1          1          1          1          1          1          1          1          1          1          1          1          1          1          1          1          1          1          1          1          1          1          1          1          1          1          1          1          1          1          1          1          1          1          1          1          1          1          1          1          1          1          1          1          1          1          1          1          1          1          1          1          1          1          1          1          1          1          1          1          1          1          1          1          1          1          1          1          1          1          1          1          1          1          1          1          1          1          1          1          1          1          1 </DataArray>
</CellData>
<PointData>
<DataArray type="Float64"                                    Name="u"                                                      NumberOfComponents=" 3" format="ascii">
              0.000000648               0.000000000               1.000000000               0.000000020               0.000000000               1.000000000              -0.000000084              -0.000000000               1.000000000               0.000000017              -0.000000000               1.000000000               0.000000062              -0.000000000               1.000000000               0.000000000              -0.000000000               1.000000000              -0.000000051              -0.000000000               1.000000000              -0.000000129              -0.000000000               1.000000000              -0.000000239              -0.000000000               1.000000000              -0.000000292              -0.000000000               1.000000000              -0.000000246              -0.000000000               1.000000000              -0.000000123              -0.000000000               1.000000000               0.000000036              -0.000000000               1.000000000               0.000000158               0.000000000               1.000000000               0.000000137               0.000000000               1.000000000              -0.000000113               0.000000000               1.000000000              -0.000000658               0.000000000               1.000000000               0.000000619               0.000001903               1.000000000               0.000000000               0.000001714               1.000000000              -0.000000078               0.000001784               1.000000000               0.000000005               0.000002039               1.000000000               0.000000073               0.000002491               1.000000000               0.000000041               0.000002824               1.000000000              -0.000000069               0.000003078               1.000000000              -0.000000161               0.000003387               1.000000000              -0.000000192               0.000003570               1.000000000              -0.000000179               0.000003657               1.000000000              -0.000000108               0.000003689               1.000000000               0.000000007               0.000003726               1.000000000               0.000000096               0.000003868               1.000000000               0.000000092               0.000004183               1.000000000              -0.000000086               0.000004721               1.000000000              -0.000000533               0.000005487               1.000000000              -0.000001331               0.000006433               1.000000000               0.000000540               0.000003874               1.000000000              -0.000000005               0.000003452               1.000000000              -0.000000016               0.000003580               1.000000000               0.000000027               0.000004113               1.000000000              -0.000000016               0.000004974               1.000000000              -0.000000062               0.000005679               1.000000000              -0.000000053               0.000006207               1.000000000               0.000000023               0.000006841               1.000000000               0.000000114               0.000007281               1.000000000               0.000000169               0.000007640               1.000000000               0.000000167               0.000007979               1.000000000               0.000000048               0.000008382               1.000000000              -0.000000268               0.000009005               1.000000000              -0.000000837               0.000009964               1.000000000              -0.000001695               0.000011350               1.000000000              -0.000002889               0.000013228               1.000000000              -0.000004478               0.000015647               1.000000000               0.000000448               0.000005901               1.000000000               0.000000060               0.000005192               1.000000000               0.000000067               0.000005404               1.000000000               0.000000095               0.000006296               1.000000000               0.000000021               0.000007640               1.000000000              -0.000000028               0.000008705               1.000000000              -0.000000035               0.000009628               1.000000000              -0.000000039               0.000010633               1.000000000              -0.000000012               0.000011516               1.000000000              -0.000000089               0.000012437               1.000000000              -0.000000375               0.000013484               1.000000000              -0.000000917               0.000014799               1.000000000              -0.000001835               0.000016502               1.000000000              -0.000003186               0.000018691               1.000000000              -0.000004966               0.000021458               1.000000000              -0.000007185               0.000024890               1.000000000              -0.000009835               0.000029069               1.000000000               0.000000414               0.000007989               1.000000000               0.000000241               0.000006975               1.000000000               0.000000281               0.000007377               1.000000000               0.000000232               0.000008707               1.000000000              -0.000000016               0.000010564               1.000000000              -0.000000165               0.000012199               1.000000000              -0.000000214               0.000013722               1.000000000              -0.000000273               0.000015330               1.000000000              -0.000000438               0.000017004               1.000000000              -0.000000893               0.000018836               1.000000000              -0.000001692               0.000021037               1.000000000              -0.000002891               0.000023713               1.000000000              -0.000004580               0.000026975               1.000000000              -0.000006785               0.000030889               1.000000000              -0.000009491               0.000035509               1.000000000              -0.000012681               0.000040864               1.000000000              -0.000016323               0.000046982               1.000000000               0.000000425               0.000010166               1.000000000               0.000000519               0.000008896               1.000000000               0.000000534               0.000009579               1.000000000               0.000000297               0.000011463               1.000000000              -0.000000038               0.000014033               1.000000000              -0.000000187               0.000016545               1.000000000              -0.000000324               0.000018867               1.000000000              -0.000000584               0.000021450               1.000000000              -0.000001119               0.000024232               1.000000000              -0.000002085               0.000027353               1.000000000              -0.000003540               0.000031068               1.000000000              -0.000005498               0.000035425               1.000000000              -0.000008014               0.000040531               1.000000000              -0.000011098               0.000046402               1.000000000              -0.000014684               0.000053046               1.000000000              -0.000018763               0.000060460               1.000000000              -0.000023307               0.000068619               1.000000000               0.000000421               0.000012434               1.000000000               0.000000829               0.000010979               1.000000000               0.000000774               0.000012064               1.000000000               0.000000418               0.000014736               1.000000000              -0.000000039               0.000018247               1.000000000              -0.000000383               0.000021643               1.000000000              -0.000000673               0.000025011               1.000000000              -0.000001214               0.000028817               1.000000000              -0.000002160               0.000032993               1.000000000              -0.000003694               0.000037734               1.000000000              -0.000005781               0.000043222               1.000000000              -0.000008445               0.000049554               1.000000000              -0.000011754               0.000056714               1.000000000              -0.000015640               0.000064736               1.000000000              -0.000020057               0.000073604               1.000000000              -0.000024994               0.000083293               1.000000000              -0.000030403               0.000093777               1.000000000               0.000000470               0.000014813               1.000000000               0.000001174               0.000013232               1.000000000               0.000000998               0.000014869               1.000000000               0.000000395               0.000018401               1.000000000              -0.000000312               0.000022906               1.000000000              -0.000000730               0.000027351               1.000000000              -0.000001132               0.000031964               1.000000000              -0.000001954               0.000037227               1.000000000              -0.000003378               0.000043026               1.000000000              -0.000005453               0.000049651               1.000000000              -0.000008111               0.000057247               1.000000000              -0.000011462               0.000065814               1.000000000              -0.000015450               0.000075400               1.000000000              -0.000020036               0.000085971               1.000000000              -0.000025186               0.000097516               1.000000000              -0.000030882               0.000109926               1.000000000              -0.000037046               0.000123081               1.000000000               0.000000510               0.000017182               1.000000000               0.000001483               0.000015622               1.000000000               0.000001140               0.000017923               1.000000000               0.000000257               0.000022398               1.000000000              -0.000000579               0.000027877               1.000000000              -0.000001007               0.000033542               1.000000000              -0.000001564               0.000039649               1.000000000              -0.000002747               0.000046591               1.000000000              -0.000004633               0.000054336               1.000000000              -0.000007133               0.000063171               1.000000000              -0.000010362               0.000073228               1.000000000              -0.000014305               0.000084420               1.000000000              -0.000018865               0.000096818               1.000000000              -0.000024033               0.000110387               1.000000000              -0.000029768               0.000124975               1.000000000              -0.000035962               0.000140504               1.000000000              -0.000042482               0.000156733               1.000000000               0.000000394               0.000019559               1.000000000               0.000001632               0.000018095               1.000000000               0.000001406               0.000020029               1.000000000               0.000000624               0.000024197               1.000000000              -0.000000303               0.000029513               1.000000000              -0.000000859               0.000035393               1.000000000              -0.000001156               0.000041681               1.000000000              -0.000001953               0.000048589               1.000000000              -0.000003277               0.000056242               1.000000000              -0.000005058               0.000064660               1.000000000              -0.000007391               0.000074077               1.000000000              -0.000010250               0.000084536               1.000000000              -0.000013604               0.000095972               1.000000000              -0.000017428               0.000108501               1.000000000              -0.000021703               0.000122086               1.000000000              -0.000026410               0.000136679               1.000000000              -0.000031527               0.000152240               1.000000000               0.000000277               0.000021892               1.000000000               0.000001738               0.000020638               1.000000000               0.000001708               0.000022310               1.000000000               0.000001003               0.000025996               1.000000000               0.000000053               0.000031079               1.000000000              -0.000000637               0.000037016               1.000000000              -0.000000970               0.000043466               1.000000000              -0.000001412               0.000050469               1.000000000              -0.000002263               0.000058096               1.000000000              -0.000003446               0.000066356               1.000000000              -0.000005027               0.000075365               1.000000000              -0.000006959               0.000085267               1.000000000              -0.000009264               0.000096049               1.000000000              -0.000011918               0.000107686               1.000000000              -0.000014893               0.000120247               1.000000000              -0.000018216               0.000133811               1.000000000              -0.000021940               0.000148220               1.000000000               0.000000210               0.000024080               1.000000000               0.000001733               0.000023069               1.000000000               0.000001850               0.000024535               1.000000000               0.000001282               0.000027821               1.000000000               0.000000417               0.000032640               1.000000000              -0.000000349               0.000038497               1.000000000              -0.000000755               0.000045044               1.000000000              -0.000001015               0.000052130               1.000000000              -0.000001460               0.000059823               1.000000000              -0.000002181               0.000068043               1.000000000              -0.000003145               0.000076860               1.000000000              -0.000004382               0.000086384               1.000000000              -0.000005844               0.000096709               1.000000000              -0.000007557               0.000107808               1.000000000              -0.000009484               0.000119607               1.000000000              -0.000011606               0.000132289               1.000000000              -0.000013923               0.000145804               1.000000000               0.000000139               0.000025940               1.000000000               0.000001598               0.000025300               1.000000000               0.000001812               0.000026649               1.000000000               0.000001432               0.000029694               1.000000000               0.000000727               0.000034230               1.000000000              -0.000000014               0.000039859               1.000000000              -0.000000482               0.000046332               1.000000000              -0.000000679               0.000053433               1.000000000              -0.000000881               0.000061185               1.000000000              -0.000001259               0.000069478               1.000000000              -0.000001783               0.000078286               1.000000000              -0.000002496               0.000087649               1.000000000              -0.000003350               0.000097690               1.000000000              -0.000004313               0.000108430               1.000000000              -0.000005408               0.000119853               1.000000000              -0.000006582               0.000131901               1.000000000              -0.000007787               0.000144718               1.000000000               0.000000073               0.000027441               1.000000000               0.000001349               0.000027239               1.000000000               0.000001598               0.000028586               1.000000000               0.000001374               0.000031435               1.000000000               0.000000845               0.000035653               1.000000000               0.000000281               0.000041039               1.000000000              -0.000000185               0.000047378               1.000000000              -0.000000387               0.000054466               1.000000000              -0.000000504               0.000062215               1.000000000              -0.000000673               0.000070560               1.000000000              -0.000000895               0.000079410               1.000000000              -0.000001215               0.000088731               1.000000000              -0.000001635               0.000098634               1.000000000              -0.000002106               0.000109136               1.000000000              -0.000002621               0.000120352               1.000000000              -0.000003171               0.000132093               1.000000000              -0.000003708               0.000144422               1.000000000               0.000000044               0.000028598               1.000000000               0.000000972               0.000028745               1.000000000               0.000001190               0.000030130               1.000000000               0.000001091               0.000032880               1.000000000               0.000000777               0.000036872               1.000000000               0.000000359               0.000042013               1.000000000              -0.000000013               0.000048155               1.000000000              -0.000000203               0.000055166               1.000000000              -0.000000258               0.000062880               1.000000000              -0.000000321               0.000071221               1.000000000              -0.000000386               0.000080114               1.000000000              -0.000000475               0.000089455               1.000000000              -0.000000617               0.000099293               1.000000000              -0.000000800               0.000109673               1.000000000              -0.000000995               0.000120672               1.000000000              -0.000001206               0.000132230               1.000000000              -0.000001438               0.000144313               1.000000000               0.000000021               0.000029293               1.000000000               0.000000495               0.000029683               1.000000000               0.000000641               0.000031139               1.000000000               0.000000605               0.000033849               1.000000000               0.000000461               0.000037698               1.000000000               0.000000250               0.000042699               1.000000000               0.000000051               0.000048711               1.000000000              -0.000000071               0.000055600               1.000000000              -0.000000111               0.000063267               1.000000000              -0.000000127               0.000071596               1.000000000              -0.000000131               0.000080491               1.000000000              -0.000000133               0.000089846               1.000000000              -0.000000151               0.000099627               1.000000000              -0.000000189               0.000109913               1.000000000              -0.000000246               0.000120733               1.000000000              -0.000000325               0.000132142               1.000000000              -0.000000431               0.000144089               1.000000000              -0.000000000               0.000029517               1.000000000              -0.000000000               0.000030011               1.000000000               0.000000000               0.000031502               1.000000000               0.000000000               0.000034187               1.000000000               0.000000000               0.000037991               1.000000000               0.000000000               0.000042916               1.000000000               0.000000000               0.000048867               1.000000000              -0.000000000               0.000055738               1.000000000               0.000000000               0.000063407               1.000000000              -0.000000000               0.000071725               1.000000000              -0.000000000               0.000080611               1.000000000               0.000000000               0.000089969               1.000000000               0.000000000               0.000099723               1.000000000              -0.000000000               0.000109964               1.000000000              -0.000000000               0.000120702               1.000000000               0.000000000               0.000132035               1.000000000               0.000000000               0.000143922               1.000000000               0.000000648               0.000000000               1.000000000               0.000000020               0.000000000               1.000000000              -0.000000084              -0.000000000               1.000000000               0.000000017              -0.000000000               1.000000000               0.000000062              -0.000000000               1.000000000               0.000000000              -0.000000000               1.000000000              -0.000000051              -0.000000000               1.000000000              -0.000000129              -0.000000000               1.000000000              -0.000000239              -0.000000000               1.000000000              -0.000000292              -0.000000000               1.000000000              -0.000000246              -0.000000000               1.000000000              -0.000000123              -0.000000000               1.000000000               0.000000036              -0.000000000               1.000000000               0.000000158               0.000000000               1.000000000               0.000000137               0.000000000               1.000000000              -0.000000113               0.000000000               1.000000000              -0.000000658               0.000000000               1.000000000               0.000000619              -0.000001903               1.000000000               0.000000000              -0.000001714               1.000000000              -0.000000078              -0.000001784               1.000000000               0.000000005              -0.000002039               1.000000000               0.000000073              -0.000002491               1.000000000               0.000000041              -0.000002824               1.000000000              -0.000000069              -0.000003078               1.000000000              -0.000000161              -0.000003387               1.000000000              -0.000000192              -0.000003570               1.000000000              -0.000000179              -0.000003657               1.000000000              -0.000000108              -0.000003689               1.000000000               0.000000007              -0.000003726               1.000000000               0.000000096              -0.000003868               1.000000000               0.000000092              -0.000004183               1.000000000              -0.000000086              -0.000004721               1.000000000              -0.000000533              -0.000005487               1.000000000              -0.000001331              -0.000006433               1.000000000               0.000000540              -0.000003874               1.000000000              -0.000000005              -0.000003452               1.000000000              -0.000000016              -0.000003580               1.000000000               0.000000027              -0.000004113               1.000000000              -0.000000016              -0.000004974               1.000000000              -0.000000062              -0.000005679               1.000000000              -0.000000053              -0.000006207               1.000000000               0.000000023              -0.000006841               1.000000000               0.000000114              -0.000007281               1.000000000               0.000000169              -0.000007640               1.000000000               0.000000167              -0.000007979               1.000000000               0.000000048              -0.000008382               1.000000000              -0.000000268              -0.000009005               1.000000000              -0.000000837              -0.000009964               1.000000000              -0.000001695              -0.000011350               1.000000000              -0.000002889              -0.000013228               1.000000000              -0.000004478              -0.000015647               1.000000000               0.000000448              -0.000005901               1.000000000               0.000000060              -0.000005192               1.000000000               0.000000067              -0.000005404               1.000000000               0.000000095              -0.000006296               1.000000000               0.000000021              -0.000007640               1.000000000              -0.000000028              -0.000008705               1.000000000              -0.000000035              -0.000009628               1.000000000              -0.000000039              -0.000010633               1.000000000              -0.000000012              -0.000011516               1.000000000              -0.000000089              -0.000012437               1.000000000              -0.000000375              -0.000013484               1.000000000              -0.000000917              -0.000014799               1.000000000              -0.000001835              -0.000016502               1.000000000              -0.000003186              -0.000018691               1.000000000              -0.000004966              -0.000021458               1.000000000              -0.000007185              -0.000024890               1.000000000              -0.000009835              -0.000029069               1.000000000               0.000000414              -0.000007989               1.000000000               0.000000241              -0.000006975               1.000000000               0.000000281              -0.000007377               1.000000000               0.000000232              -0.000008707               1.000000000              -0.000000016              -0.000010564               1.000000000              -0.000000165              -0.000012199               1.000000000              -0.000000214              -0.000013722               1.000000000              -0.000000273              -0.000015330               1.000000000              -0.000000438              -0.000017004               1.000000000              -0.000000893              -0.000018836               1.000000000              -0.000001692              -0.000021037               1.000000000              -0.000002891              -0.000023713               1.000000000              -0.000004580              -0.000026975               1.000000000              -0.000006785              -0.000030889               1.000000000              -0.000009491              -0.000035509               1.000000000              -0.000012681              -0.000040864               1.000000000              -0.000016323              -0.000046982               1.000000000               0.000000425              -0.000010166               1.000000000               0.000000519              -0.000008896               1.000000000               0.000000534              -0.000009579               1.000000000               0.000000297              -0.000011463               1.000000000              -0.000000038              -0.000014033               1.000000000              -0.000000187              -0.000016545               1.000000000              -0.000000324              -0.000018867               1.000000000              -0.000000584              -0.000021450               1.000000000              -0.000001119              -0.000024232               1.000000000              -0.000002085              -0.000027353               1.000000000              -0.000003540              -0.000031068               1.000000000              -0.000005498              -0.000035425               1.000000000              -0.000008014              -0.000040531               1.000000000              -0.000011098              -0.000046402               1.000000000              -0.000014684              -0.000053046               1.000000000              -0.000018763              -0.000060460               1.000000000              -0.000023307              -0.000068619               1.000000000               0.000000421              -0.000012434               1.000000000               0.000000829              -0.000010979               1.000000000               0.000000774              -0.000012064               1.000000000               0.000000418              -0.000014736               1.000000000              -0.000000039              -0.000018247               1.000000000              -0.000000383              -0.000021643               1.000000000              -0.000000673              -0.000025011               1.000000000              -0.000001214              -0.000028817               1.000000000              -0.000002160              -0.000032993               1.000000000              -0.000003694              -0.000037734               1.000000000              -0.000005781              -0.000043222               1.000000000              -0.000008445              -0.000049554               1.000000000              -0.000011754              -0.000056714               1.000000000              -0.000015640              -0.000064736               1.000000000              -0.000020057              -0.000073604               1.000000000              -0.000024994              -0.000083293               1.000000000              -0.000030403              -0.000093777               1.000000000               0.000000470              -0.000014813               1.000000000               0.000001174              -0.000013232               1.000000000               0.000000998              -0.000014869               1.000000000               0.000000395              -0.000018401               1.000000000              -0.000000312              -0.000022906               1.000000000              -0.000000730              -0.000027351               1.000000000              -0.000001132              -0.000031964               1.000000000              -0.000001954              -0.000037227               1.000000000              -0.000003378              -0.000043026               1.000000000              -0.000005453              -0.000049651               1.000000000              -0.000008111              -0.000057247               1.000000000              -0.000011462              -0.000065814               1.000000000              -0.000015450              -0.000075400               1.000000000              -0.000020036              -0.000085971               1.000000000              -0.000025186              -0.000097516               1.000000000              -0.000030882              -0.000109926               1.000000000              -0.000037046              -0.000123081               1.000000000               0.000000510              -0.000017182               1.000000000               0.000001483              -0.000015622               1.000000000               0.000001140              -0.000017923               1.000000000               0.000000257              -0.000022398               1.000000000              -0.000000579              -0.000027877               1.000000000              -0.000001007              -0.000033542               1.000000000              -0.000001564              -0.000039649               1.000000000              -0.000002747              -0.000046591               1.000000000              -0.000004633              -0.000054336               1.000000000              -0.000007133              -0.000063171               1.000000000              -0.000010362              -0.000073228               1.000000000              -0.000014305              -0.000084420               1.000000000              -0.000018865              -0.000096818               1.000000000              -0.000024033              -0.000110387               1.000000000              -0.000029768              -0.000124975               1.000000000              -0.000035962              -0.000140504               1.000000000              -0.000042482              -0.000156733               1.000000000               0.000000394              -0.000019559               1.000000000               0.000001632              -0.000018095               1.000000000               0.000001406              -0.000020029               1.000000000               0.000000624              -0.000024197               1.000000000              -0.000000303              -0.000029513               1.000000000              -0.000000859              -0.000035393               1.000000000              -0.000001156              -0.000041681               1.000000000              -0.000001953              -0.000048589               1.000000000              -0.000003277              -0.000056242               1.000000000              -0.000005058              -0.000064660               1.000000000              -0.000007391              -0.000074077               1.000000000              -0.000010250              -0.000084536               1.000000000              -0.000013604              -0.000095972               1.000000000              -0.000017428              -0.000108501               1.000000000              -0.000021703              -0.000122086               1.000000000              -0.000026410              -0.000136679               1.000000000              -0.000031527              -0.000152240               1.000000000               0.000000277              -0.000021892               1.000000000               0.000001738              -0.000020638               1.000000000               0.000001708              -0.000022310               1.000000000               0.000001003              -0.000025996               1.000000000               0.000000053              -0.000031079               1.000000000              -0.000000637              -0.000037016               1.000000000              -0.000000970              -0.000043466               1.000000000              -0.000001412              -0.000050469               1.000000000              -0.000002263              -0.000058096               1.000000000              -0.000003446              -0.000066356               1.000000000              -0.000005027              -0.000075365               1.000000000              -0.000006959              -0.000085267               1.000000000              -0.000009264              -0.000096049               1.000000000              -0.000011918              -0.000107686               1.000000000              -0.000014893              -0.000120247               1.000000000              -0.000018216              -0.000133811               1.000000000              -0.000021940              -0.000148220               1.000000000               0.000000210              -0.000024080               1.000000000               0.000001733              -0.000023069               1.000000000               0.000001850              -0.000024535               1.000000000               0.000001282              -0.000027821               1.000000000               0.000000417              -0.000032640               1.000000000              -0.000000349              -0.000038497               1.000000000              -0.000000755              -0.000045044               1.000000000              -0.000001015              -0.000052130               1.000000000              -0.000001460              -0.000059823               1.000000000              -0.000002181              -0.000068043               1.000000000              -0.000003145              -0.000076860               1.000000000              -0.000004382              -0.000086384               1.000000000              -0.000005844              -0.000096709               1.000000000              -0.000007557              -0.000107808               1.000000000              -0.000009484              -0.000119607               1.000000000              -0.000011606              -0.000132289               1.000000000              -0.000013923              -0.000145804               1.000000000               0.000000139              -0.000025940               1.000000000               0.000001598              -0.000025300               1.000000000               0.000001812              -0.000026649               1.000000000               0.000001432              -0.000029694               1.000000000               0.000000727              -0.000034230               1.000000000              -0.000000014              -0.000039859               1.000000000              -0.000000482              -0.000046332               1.000000000              -0.000000679              -0.000053433               1.000000000              -0.000000881              -0.000061185               1.000000000              -0.000001259              -0.000069478               1.000000000              -0.000001783              -0.000078286               1.000000000              -0.000002496              -0.000087649               1.000000000              -0.000003350              -0.000097690               1.000000000              -0.000004313              -0.000108430               1.000000000              -0.000005408              -0.000119853               1.000000000              -0.000006582              -0.000131901               1.000000000              -0.000007787              -0.000144718               1.000000000               0.000000073              -0.000027441               1.000000000               0.000001349              -0.000027239               1.000000000               0.000001598              -0.000028586               1.000000000               0.000001374              -0.000031435               1.000000000               0.000000845              -0.000035653               1.000000000               0.000000281              -0.000041039               1.000000000              -0.000000185              -0.000047378               1.000000000              -0.000000387              -0.000054466               1.000000000              -0.000000504              -0.000062215               1.000000000              -0.000000673              -0.000070560               1.000000000              -0.000000895              -0.000079410               1.000000000              -0.000001215              -0.000088731               1.000000000              -0.000001635              -0.000098634               1.000000000              -0.000002106              -0.000109136               1.000000000              -0.000002621              -0.000120352               1.000000000              -0.000003171              -0.000132093               1.000000000              -0.000003708              -0.000144422               1.000000000               0.000000044              -0.000028598               1.000000000               0.000000972              -0.000028745               1.000000000               0.000001190              -0.000030130               1.000000000               0.000001091              -0.000032880               1.000000000               0.000000777              -0.000036872               1.000000000               0.000000359              -0.000042013               1.000000000              -0.000000013              -0.000048155               1.000000000              -0.000000203              -0.000055166               1.000000000              -0.000000258              -0.000062880               1.000000000              -0.000000321              -0.000071221               1.000000000              -0.000000386              -0.000080114               1.000000000              -0.000000475              -0.000089455               1.000000000              -0.000000617              -0.000099293               1.000000000              -0.000000800              -0.000109673               1.000000000              -0.000000995              -0.000120672               1.000000000              -0.000001206              -0.000132230               1.000000000              -0.000001438              -0.000144313               1.000000000               0.000000021              -0.000029293               1.000000000               0.000000495              -0.000029683               1.000000000               0.000000641              -0.000031139               1.000000000               0.000000605              -0.000033849               1.000000000               0.000000461              -0.000037698               1.000000000               0.000000250              -0.000042699               1.000000000               0.000000051              -0.000048711               1.000000000              -0.000000071              -0.000055600               1.000000000              -0.000000111              -0.000063267               1.000000000              -0.000000127              -0.000071596               1.000000000              -0.000000131              -0.000080491               1.000000000              -0.000000133              -0.000089846               1.000000000              -0.000000151              -0.000099627               1.000000000              -0.000000189              -0.000109913               1.000000000              -0.000000246              -0.000120733               1.000000000              -0.000000325              -0.000132142               1.000000000              -0.000000431              -0.000144089               1.000000000              -0.000000000              -0.000029517               1.000000000               0.000000000              -0.000030011               1.000000000               0.000000000              -0.000031502               1.000000000              -0.000000000              -0.000034187               1.000000000              -0.000000000              -0.000037991               1.000000000              -0.000000000              -0.000042916               1.000000000              -0.000000000              -0.000048867               1.000000000              -0.000000000              -0.000055738               1.000000000              -0.000000000              -0.000063407               1.000000000               0.000000000              -0.000071725               1.000000000               0.000000000              -0.000080611               1.000000000              -0.000000000              -0.000089969               1.000000000              -0.000000000              -0.000099723               1.000000000              -0.000000000              -0.000109964               1.000000000              -0.000000000              -0.000120702               1.000000000               0.000000000              -0.000132035               1.000000000               0.000000000              -0.000143922               1.000000000              -0.000000648               0.000000000               1.000000000              -0.000000020               0.000000000               1.000000000               0.000000084               0.000000000               1.000000000              -0.000000017              -0.000000000               1.000000000              -0.000000062              -0.000000000               1.000000000              -0.000000000              -0.000000000               1.000000000               0.000000051              -0.000000000               1.000000000               0.000000129              -0.000000000               1.000000000               0.000000239               0.000000000               1.000000000               0.000000292               0.000000000               1.000000000               0.000000246               0.000000000               1.000000000               0.000000123               0.000000000               1.000000000              -0.000000036               0.000000000               1.000000000              -0.000000158               0.000000000               1.000000000              -0.000000137               0.000000000               1.000000000               0.000000113               0.000000000               1.000000000               0.000000658               0.000000000               1.000000000              -0.000000619              -0.000001903               1.000000000              -0.000000000              -0.000001714               1.000000000               0.000000078              -0.000001784               1.000000000              -0.000000005              -0.000002039               1.000000000              -0.000000073              -0.000002491               1.000000000              -0.000000041              -0.000002824               1.000000000               0.000000069              -0.000003078               1.000000000               0.000000161              -0.000003387               1.000000000               0.000000192              -0.000003570               1.000000000               0.000000179              -0.000003657               1.000000000               0.000000108              -0.000003689               1.000000000              -0.000000007              -0.000003726               1.000000000              -0.000000096              -0.000003868               1.000000000              -0.000000092              -0.000004183               1.000000000               0.000000086              -0.000004721               1.000000000               0.000000533              -0.000005487               1.000000000               0.000001331              -0.000006433               1.000000000              -0.000000540              -0.000003874               1.000000000               0.000000005              -0.000003452               1.000000000               0.000000016              -0.000003580               1.000000000              -0.000000027              -0.000004113               1.000000000               0.000000016              -0.000004974               1.000000000               0.000000062              -0.000005679               1.000000000               0.000000053              -0.000006207               1.000000000              -0.000000023              -0.000006841               1.000000000              -0.000000114              -0.000007281               1.000000000              -0.000000169              -0.000007640               1.000000000              -0.000000167              -0.000007979               1.000000000              -0.000000048              -0.000008382               1.000000000               0.000000268              -0.000009005               1.000000000               0.000000837              -0.000009964               1.000000000               0.000001695              -0.000011350               1.000000000               0.000002889              -0.000013228               1.000000000               0.000004478              -0.000015647               1.000000000              -0.000000448              -0.000005901               1.000000000              -0.000000060              -0.000005192               1.000000000              -0.000000067              -0.000005404               1.000000000              -0.000000095              -0.000006296               1.000000000              -0.000000021              -0.000007640               1.000000000               0.000000028              -0.000008705               1.000000000               0.000000035              -0.000009628               1.000000000               0.000000039              -0.000010633               1.000000000               0.000000012              -0.000011516               1.000000000               0.000000089              -0.000012437               1.000000000               0.000000375              -0.000013484               1.000000000               0.000000917              -0.000014799               1.000000000               0.000001835              -0.000016502               1.000000000               0.000003186              -0.000018691               1.000000000               0.000004966              -0.000021458               1.000000000               0.000007185              -0.000024890               1.000000000               0.000009835              -0.000029069               1.000000000              -0.000000414              -0.000007989               1.000000000              -0.000000241              -0.000006975               1.000000000              -0.000000281              -0.000007377               1.000000000              -0.000000232              -0.000008707               1.000000000               0.000000016              -0.000010564               1.000000000               0.000000165              -0.000012199               1.000000000               0.000000214              -0.000013722               1.000000000               0.000000273              -0.000015330               1.000000000               0.000000438              -0.000017004               1.000000000               0.000000893              -0.000018836               1.000000000               0.000001692              -0.000021037               1.000000000               0.000002891              -0.000023713               1.000000000               0.000004580              -0.000026975               1.000000000               0.000006785              -0.000030889               1.000000000               0.000009491              -0.000035509               1.000000000               0.000012681              -0.000040864               1.000000000               0.000016323              -0.000046982               1.000000000              -0.000000425              -0.000010166               1.000000000              -0.000000519              -0.000008896               1.000000000              -0.000000534              -0.000009579               1.000000000              -0.000000297              -0.000011463               1.000000000               0.000000038              -0.000014033               1.000000000               0.000000187              -0.000016545               1.000000000               0.000000324              -0.000018867               1.000000000               0.000000584              -0.000021450               1.000000000               0.000001119              -0.000024232               1.000000000               0.000002085              -0.000027353               1.000000000               0.000003540              -0.000031068               1.000000000               0.000005498              -0.000035425               1.000000000               0.000008014              -0.000040531               1.000000000               0.000011098              -0.000046402               1.000000000               0.000014684              -0.000053046               1.000000000               0.000018763              -0.000060460               1.000000000               0.000023307              -0.000068619               1.000000000              -0.000000421              -0.000012434               1.000000000              -0.000000829              -0.000010979               1.000000000              -0.000000774              -0.000012064               1.000000000              -0.000000418              -0.000014736               1.000000000               0.000000039              -0.000018247               1.000000000               0.000000383              -0.000021643               1.000000000               0.000000673              -0.000025011               1.000000000               0.000001214              -0.000028817               1.000000000               0.000002160              -0.000032993               1.000000000               0.000003694              -0.000037734               1.000000000               0.000005781              -0.000043222               1.000000000               0.000008445              -0.000049554               1.000000000               0.000011754              -0.000056714               1.000000000               0.000015640              -0.000064736               1.000000000               0.000020057              -0.000073604               1.000000000               0.000024994              -0.000083293               1.000000000               0.000030403              -0.000093777               1.000000000              -0.000000470              -0.000014813               1.000000000              -0.000001174              -0.000013232               1.000000000              -0.000000998              -0.000014869               1.000000000              -0.000000395              -0.000018401               1.000000000               0.000000312              -0.000022906               1.000000000               0.000000730              -0.000027351               1.000000000               0.000001132              -0.000031964               1.000000000               0.000001954              -0.000037227               1.000000000               0.000003378              -0.000043026               1.000000000               0.000005453              -0.000049651               1.000000000               0.000008111              -0.000057247               1.000000000               0.000011462              -0.000065814               1.000000000               0.000015450              -0.000075400               1.000000000               0.000020036              -0.000085971               1.000000000               0.000025186              -0.000097516               1.000000000               0.000030882              -0.000109926               1.000000000               0.000037046              -0.000123081               1.000000000              -0.000000510              -0.000017182               1.000000000              -0.000001483              -0.000015622               1.000000000              -0.000001140              -0.000017923               1.000000000              -0.000000257              -0.000022398               1.000000000               0.000000579              -0.000027877               1.000000000               0.000001007              -0.000033542               1.000000000               0.000001564              -0.000039649               1.000000000               0.000002747              -0.000046591               1.000000000               0.000004633              -0.000054336               1.000000000               0.000007133              -0.000063171               1.000000000               0.000010362              -0.000073228               1.000000000               0.000014305              -0.000084420               1.000000000               0.000018865              -0.000096818               1.000000000               0.000024033              -0.000110387               1.000000000               0.000029768              -0.000124975               1.000000000               0.000035962              -0.000140504               1.000000000               0.000042482              -0.000156733               1.000000000              -0.000000394              -0.000019559               1.000000000              -0.000001632              -0.000018095               1.000000000              -0.000001406              -0.000020029               1.000000000              -0.000000624              -0.000024197               1.000000000               0.000000303              -0.000029513               1.000000000               0.000000859              -0.000035393               1.000000000               0.000001156              -0.000041681               1.000000000               0.000001953              -0.000048589               1.000000000               0.000003277              -0.000056242               1.000000000               0.000005058              -0.000064660               1.000000000               0.000007391              -0.000074077               1.000000000               0.000010250              -0.000084536               1.000000000               0.000013604              -0.000095972               1.000000000               0.000017428              -0.000108501               1.000000000               0.000021703              -0.000122086               1.000000000               0.000026410              -0.000136679               1.000000000               0.000031527              -0.000152240               1.000000000              -0.000000277              -0.000021892               1.000000000              -0.000001738              -0.000020638               1.000000000              -0.000001708              -0.000022310               1.000000000              -0.000001003              -0.000025996               1.000000000              -0.000000053              -0.000031079               1.000000000               0.000000637              -0.000037016               1.000000000               0.000000970              -0.000043466               1.000000000               0.000001412              -0.000050469               1.000000000               0.000002263              -0.000058096               1.000000000               0.000003446              -0.000066356               1.000000000               0.000005027              -0.000075365               1.000000000               0.000006959              -0.000085267               1.000000000               0.000009264              -0.000096049               1.000000000               0.000011918              -0.000107686               1.000000000               0.000014893              -0.000120247               1.000000000               0.000018216              -0.000133811               1.000000000               0.000021940              -0.000148220               1.000000000              -0.000000210              -0.000024080               1.000000000              -0.000001733              -0.000023069               1.000000000              -0.000001850              -0.000024535               1.000000000              -0.000001282              -0.000027821               1.000000000              -0.000000417              -0.000032640               1.000000000               0.000000349              -0.000038497               1.000000000               0.000000755              -0.000045044               1.000000000               0.000001015              -0.000052130               1.000000000               0.000001460              -0.000059823               1.000000000               0.000002181              -0.000068043               1.000000000               0.000003145              -0.000076860               1.000000000               0.000004382              -0.000086384               1.000000000               0.000005844              -0.000096709               1.000000000               0.000007557              -0.000107808               1.000000000               0.000009484              -0.000119607               1.000000000               0.000011606              -0.000132289               1.000000000               0.000013923              -0.000145804               1.000000000              -0.000000139              -0.000025940               1.000000000              -0.000001598              -0.000025300               1.000000000              -0.000001812              -0.000026649               1.000000000              -0.000001432              -0.000029694               1.000000000              -0.000000727              -0.000034230               1.000000000               0.000000014              -0.000039859               1.000000000               0.000000482              -0.000046332               1.000000000               0.000000679              -0.000053433               1.000000000               0.000000881              -0.000061185               1.000000000               0.000001259              -0.000069478               1.000000000               0.000001783              -0.000078286               1.000000000               0.000002496              -0.000087649               1.000000000               0.000003350              -0.000097690               1.000000000               0.000004313              -0.000108430               1.000000000               0.000005408              -0.000119853               1.000000000               0.000006582              -0.000131901               1.000000000               0.000007787              -0.000144718               1.000000000              -0.000000073              -0.000027441               1.000000000              -0.000001349              -0.000027239               1.000000000              -0.000001598              -0.000028586               1.000000000              -0.000001374              -0.000031435               1.000000000              -0.000000845              -0.000035653               1.000000000              -0.000000281              -0.000041039               1.000000000               0.000000185              -0.000047378               1.000000000               0.000000387              -0.000054466               1.000000000               0.000000504              -0.000062215               1.000000000               0.000000673              -0.000070560               1.000000000               0.000000895              -0.000079410               1.000000000               0.000001215              -0.000088731               1.000000000               0.000001635              -0.000098634               1.000000000               0.000002106              -0.000109136               1.000000000               0.000002621              -0.000120352               1.000000000               0.000003171              -0.000132093               1.000000000               0.000003708              -0.000144422               1.000000000              -0.000000044              -0.000028598               1.000000000              -0.000000972              -0.000028745               1.000000000              -0.000001190              -0.000030130               1.000000000              -0.000001091              -0.000032880               1.000000000              -0.000000777              -0.000036872               1.000000000              -0.000000359              -0.000042013               1.000000000               0.000000013              -0.000048155               1.000000000               0.000000203              -0.000055166               1.000000000               0.000000258              -0.000062880               1.000000000               0.000000321              -0.000071221               1.000000000               0.000000386              -0.000080114               1.000000000               0.000000475              -0.000089455               1.000000000               0.000000617              -0.000099293               1.000000000               0.000000800              -0.000109673               1.000000000               0.000000995              -0.000120672               1.000000000               0.000001206              -0.000132230               1.000000000               0.000001438              -0.000144313               1.000000000              -0.000000021              -0.000029293               1.000000000              -0.000000495              -0.000029683               1.000000000              -0.000000641              -0.000031139               1.000000000              -0.000000605              -0.000033849               1.000000000              -0.000000461              -0.000037698               1.000000000              -0.000000250              -0.000042699               1.000000000              -0.000000051              -0.000048711               1.000000000               0.000000071              -0.000055600               1.000000000               0.000000111              -0.000063267               1.000000000               0.000000127              -0.000071596               1.000000000               0.000000131              -0.000080491               1.000000000               0.000000133              -0.000089846               1.000000000               0.000000151              -0.000099627               1.000000000               0.000000189              -0.000109913               1.000000000               0.000000246              -0.000120733               1.000000000               0.000000325              -0.000132142               1.000000000               0.000000431              -0.000144089               1.000000000              -0.000000000              -0.000029517               1.000000000               0.000000000              -0.000030011               1.000000000               0.000000000              -0.000031502               1.000000000              -0.000000000              -0.000034187               1.000000000              -0.000000000              -0.000037991               1.000000000              -0.000000000              -0.000042916               1.000000000              -0.000000000              -0.000048867               1.000000000              -0.000000000              -0.000055738               1.000000000              -0.000000000              -0.000063407               1.000000000               0.000000000              -0.000071725               1.000000000               0.000000000              -0.000080611               1.000000000              -0.000000000              -0.000089969               1.000000000              -0.000000000              -0.000099723               1.000000000              -0.000000000              -0.000109964               1.000000000              -0.000000000              -0.000120702               1.000000000               0.000000000              -0.000132035               1.000000000               0.000000000              -0.000143922               1.000000000              -0.000000648               0.000000000               1.000000000              -0.000000020               0.000000000               1.000000000               0.000000084               0.000000000               1.000000000              -0.000000017              -0.000000000               1.000000000              -0.000000062              -0.000000000               1.000000000              -0.000000000              -0.000000000               1.000000000               0.000000051              -0.000000000               1.000000000               0.000000129              -0.000000000               1.000000000               0.000000239               0.000000000               1.000000000               0.000000292               0.000000000               1.000000000               0.000000246               0.000000000               1.000000000               0.000000123               0.000000000               1.000000000              -0.000000036               0.000000000               1.000000000              -0.000000158               0.000000000               1.000000000              -0.000000137               0.000000000               1.000000000               0.000000113               0.000000000               1.000000000               0.000000658               0.000000000               1.000000000              -0.000000619               0.000001903               1.000000000              -0.000000000               0.000001714               1.000000000               0.000000078               0.000001784               1.000000000              -0.000000005               0.000002039               1.000000000              -0.000000073               0.000002491               1.000000000              -0.000000041               0.000002824               1.000000000               0.000000069               0.000003078               1.000000000               0.000000161               0.000003387               1.000000000               0.000000192               0.000003570               1.000000000               0.000000179               0.000003657               1.000000000               0.000000108               0.000003689               1.000000000              -0.000000007               0.000003726               1.000000000              -0.000000096               0.000003868               1.000000000              -0.000000092               0.000004183               1.000000000               0.000000086               0.000004721               1.000000000               0.000000533               0.000005487               1.000000000               0.000001331               0.000006433               1.000000000              -0.000000540               0.000003874               1.000000000               0.000000005               0.000003452               1.000000000               0.000000016               0.000003580               1.000000000              -0.000000027               0.000004113               1.000000000               0.000000016               0.000004974               1.000000000               0.000000062               0.000005679               1.000000000               0.000000053               0.000006207               1.000000000              -0.000000023               0.000006841               1.000000000              -0.000000114               0.000007281               1.000000000              -0.000000169               0.000007640               1.000000000              -0.000000167               0.000007979               1.000000000              -0.000000048               0.000008382               1.000000000               0.000000268               0.000009005               1.000000000               0.000000837               0.000009964               1.000000000               0.000001695               0.000011350               1.000000000               0.000002889               0.000013228               1.000000000               0.000004478               0.000015647               1.000000000              -0.000000448               0.000005901               1.000000000              -0.000000060               0.000005192               1.000000000              -0.000000067               0.000005404               1.000000000              -0.000000095               0.000006296               1.000000000              -0.000000021               0.000007640               1.000000000               0.000000028               0.000008705               1.000000000               0.000000035               0.000009628               1.000000000               0.000000039               0.000010633               1.000000000               0.000000012               0.000011516               1.000000000               0.000000089               0.000012437               1.000000000               0.000000375               0.000013484               1.000000000               0.000000917               0.000014799               1.000000000               0.000001835               0.000016502               1.000000000               0.000003186               0.000018691               1.000000000               0.000004966               0.000021458               1.000000000               0.000007185               0.000024890               1.000000000               0.000009835               0.000029069               1.000000000              -0.000000414               0.000007989               1.000000000              -0.000000241               0.000006975               1.000000000              -0.000000281               0.000007377               1.000000000              -0.000000232               0.000008707               1.000000000               0.000000016               0.000010564               1.000000000               0.000000165               0.000012199               1.000000000               0.000000214               0.000013722               1.000000000               0.000000273               0.000015330               1.000000000               0.000000438               0.000017004               1.000000000               0.000000893               0.000018836               1.000000000               0.000001692               0.000021037               1.000000000               0.000002891               0.000023713               1.000000000               0.000004580               0.000026975               1.000000000               0.000006785               0.000030889               1.000000000               0.000009491               0.000035509               1.000000000               0.000012681               0.000040864               1.000000000               0.000016323               0.000046982               1.000000000              -0.000000425               0.000010166               1.000000000              -0.000000519               0.000008896               1.000000000              -0.000000534               0.000009579               1.000000000              -0.000000297               0.000011463               1.000000000               0.000000038               0.000014033               1.000000000               0.000000187               0.000016545               1.000000000               0.000000324               0.000018867               1.000000000               0.000000584               0.000021450               1.000000000               0.000001119               0.000024232               1.000000000               0.000002085               0.000027353               1.000000000               0.000003540               0.000031068               1.000000000               0.000005498               0.000035425               1.000000000               0.000008014               0.000040531               1.000000000               0.000011098               0.000046402               1.000000000               0.000014684               0.000053046               1.000000000               0.000018763               0.000060460               1.000000000               0.000023307               0.000068619               1.000000000              -0.000000421               0.000012434               1.000000000              -0.000000829               0.000010979               1.000000000              -0.000000774               0.000012064               1.000000000              -0.000000418               0.000014736               1.000000000               0.000000039               0.000018247               1.000000000               0.000000383               0.000021643               1.000000000               0.000000673               0.000025011               1.000000000               0.000001214               0.000028817               1.000000000               0.000002160               0.000032993               1.000000000               0.000003694               0.000037734               1.000000000               0.000005781               0.000043222               1.000000000               0.000008445               0.000049554               1.000000000               0.000011754               0.000056714               1.000000000               0.000015640               0.000064736               1.000000000               0.000020057               0.000073604               1.000000000               0.000024994               0.000083293               1.000000000               0.000030403               0.000093777               1.000000000              -0.000000470               0.000014813               1.000000000              -0.000001174               0.000013232               1.000000000              -0.000000998               0.000014869               1.000000000              -0.000000395               0.000018401               1.000000000               0.000000312               0.000022906               1.000000000               0.000000730               0.000027351               1.000000000               0.000001132               0.000031964               1.000000000               0.000001954               0.000037227               1.000000000               0.000003378               0.000043026               1.000000000               0.000005453               0.000049651               1.000000000               0.000008111               0.000057247               1.000000000               0.000011462               0.000065814               1.000000000               0.000015450               0.000075400               1.000000000               0.000020036               0.000085971               1.000000000               0.000025186               0.000097516               1.000000000               0.000030882               0.000109926               1.000000000               0.000037046               0.000123081               1.000000000              -0.000000510               0.000017182               1.000000000              -0.000001483               0.000015622               1.000000000              -0.000001140               0.000017923               1.000000000              -0.000000257               0.000022398               1.000000000               0.000000579               0.000027877               1.000000000               0.000001007               0.000033542               1.000000000               0.000001564               0.000039649               1.000000000               0.000002747               0.000046591               1.000000000               0.000004633               0.000054336               1.000000000               0.000007133               0.000063171               1.000000000               0.000010362               0.000073228               1.000000000               0.000014305               0.000084420               1.000000000               0.000018865               0.000096818               1.000000000               0.000024033               0.000110387               1.000000000               0.000029768               0.000124975               1.000000000               0.000035962               0.000140504               1.000000000               0.000042482               0.000156733               1.000000000              -0.000000394               0.000019559               1.000000000              -0.000001632               0.000018095               1.000000000              -0.000001406               0.000020029               1.000000000              -0.000000624               0.000024197               1.000000000               0.000000303               0.000029513               1.000000000               0.000000859               0.000035393               1.000000000               0.000001156               0.000041681               1.000000000               0.000001953               0.000048589               1.000000000               0.000003277               0.000056242               1.000000000               0.000005058               0.000064660               1.000000000               0.000007391               0.000074077               1.000000000               0.000010250               0.000084536               1.000000000               0.000013604               0.000095972               1.000000000               0.000017428               0.000108501               1.000000000               0.000021703               0.000122086               1.000000000               0.000026410               0.000136679               1.000000000               0.000031527               0.000152240               1.000000000              -0.000000277               0.000021892               1.000000000              -0.000001738               0.000020638               1.000000000              -0.000001708               0.000022310               1.000000000              -0.000001003               0.000025996               1.000000000              -0.000000053               0.000031079               1.000000000               0.000000637               0.000037016               1.000000000               0.000000970               0.000043466               1.000000000               0.000001412               0.000050469               1.000000000               0.000002263               0.000058096               1.000000000               0.000003446               0.000066356               1.000000000               0.000005027               0.000075365               1.000000000               0.000006959               0.000085267               1.000000000               0.000009264               0.000096049               1.000000000               0.000011918               0.000107686               1.000000000               0.000014893               0.000120247               1.000000000               0.000018216               0.000133811               1.000000000               0.000021940               0.000148220               1.000000000              -0.000000210               0.000024080               1.000000000              -0.000001733               0.000023069               1.000000000              -0.000001850               0.000024535               1.000000000              -0.000001282               0.000027821               1.000000000              -0.000000417               0.000032640               1.000000000               0.000000349               0.000038497               1.000000000               0.000000755               0.000045044               1.000000000               0.000001015               0.000052130               1.000000000               0.000001460               0.000059823               1.000000000               0.000002181               0.000068043               1.000000000               0.000003145               0.000076860               1.000000000               0.000004382               0.000086384               1.000000000               0.000005844               0.000096709               1.000000000               0.000007557               0.000107808               1.000000000               0.000009484               0.000119607               1.000000000               0.000011606               0.000132289               1.000000000               0.000013923               0.000145804               1.000000000              -0.000000139               0.000025940               1.000000000              -0.000001598               0.000025300               1.000000000              -0.000001812               0.000026649               1.000000000              -0.000001432               0.000029694               1.000000000              -0.000000727               0.000034230               1.000000000               0.000000014               0.000039859               1.000000000               0.000000482               0.000046332               1.000000000               0.000000679               0.000053433               1.000000000               0.000000881               0.000061185               1.000000000               0.000001259               0.000069478               1.000000000               0.000001783               0.000078286               1.000000000               0.000002496               0.000087649               1.000000000               0.000003350               0.000097690               1.000000000               0.000004313               0.000108430               1.000000000               0.000005408               0.000119853               1.000000000               0.000006582               0.000131901               1.000000000               0.000007787               0.000144718               1.000000000              -0.000000073               0.000027441               1.000000000              -0.000001349               0.000027239               1.000000000              -0.000001598               0.000028586               1.000000000              -0.000001374               0.000031435               1.000000000              -0.000000845               0.000035653               1.000000000              -0.000000281               0.000041039               1.000000000               0.000000185               0.000047378               1.000000000               0.000000387               0.000054466               1.000000000               0.000000504               0.000062215               1.000000000               0.000000673               0.000070560               1.000000000               0.000000895               0.000079410               1.000000000               0.000001215               0.000088731               1.000000000               0.000001635               0.000098634               1.000000000               0.000002106               0.000109136               1.000000000               0.000002621               0.000120352               1.000000000               0.000003171               0.000132093               1.000000000               0.000003708               0.000144422               1.000000000              -0.000000044               0.000028598               1.000000000              -0.000000972               0.000028745               1.000000000              -0.000001190               0.000030130               1.000000000              -0.000001091               0.000032880               1.000000000              -0.000000777               0.000036872               1.000000000              -0.000000359               0.000042013               1.000000000               0.000000013               0.000048155               1.000000000               0.000000203               0.000055166               1.000000000               0.000000258               0.000062880               1.000000000               0.000000321               0.000071221               1.000000000               0.000000386               0.000080114               1.000000000               0.000000475               0.000089455               1.000000000               0.000000617               0.000099293               1.000000000               0.000000800               0.000109673               1.000000000               0.000000995               0.000120672               1.000000000               0.000001206               0.000132230               1.000000000               0.000001438               0.000144313               1.000000000              -0.000000021               0.000029293               1.000000000              -0.000000495               0.000029683               1.000000000              -0.000000641               0.000031139               1.000000000              -0.000000605               0.000033849               1.000000000              -0.000000461               0.000037698               1.000000000              -0.000000250               0.000042699               1.000000000              -0.000000051               0.000048711               1.000000000               0.000000071               0.000055600               1.000000000               0.000000111               0.000063267               1.000000000               0.000000127               0.000071596               1.000000000               0.000000131               0.000080491               1.000000000               0.000000133               0.000089846               1.000000000               0.000000151               0.000099627               1.000000000               0.000000189               0.000109913               1.000000000               0.000000246               0.000120733               1.000000000               0.000000325               0.000132142               1.000000000               0.000000431               0.000144089               1.000000000              -0.000000000               0.000029517               1.000000000              -0.000000000               0.000030011               1.000000000               0.000000000               0.000031502               1.000000000               0.000000000               0.000034187               1.000000000               0.000000000               0.000037991               1.000000000               0.000000000               0.000042916               1.000000000               0.000000000               0.000048867               1.000000000              -0.000000000               0.000055738               1.000000000               0.000000000               0.000063407               1.000000000              -0.000000000               0.000071725               1.000000000              -0.000000000               0.000080611               1.000000000               0.000000000               0.000089969               1.000000000               0.000000000               0.000099723               1.000000000              -0.000000000               0.000109964               1.000000000              -0.000000000               0.000120702               1.000000000               0.000000000               0.000132035               1.000000000               0.000000000               0.000143922               1.000000000 </DataArray>
<DataArray type="Float64"                                    Name="defo"                                                      NumberOfComponents=" 3" format="ascii">
              0.000000648               0.000000000               1.000000000               0.000000020               0.000000000               1.000000000              -0.000000084              -0.000000000               1.000000000               0.000000017              -0.000000000               1.000000000               0.000000062              -0.000000000               1.000000000               0.000000000              -0.000000000               1.000000000              -0.000000051              -0.000000000               1.000000000              -0.000000129              -0.000000000               1.000000000              -0.000000239              -0.000000000               1.000000000              -0.000000292              -0.000000000               1.000000000              -0.000000246              -0.000000000               1.000000000              -0.000000123              -0.000000000               1.000000000               0.000000036              -0.000000000               1.000000000               0.000000158               0.000000000               1.000000000               0.000000137               0.000000000               1.000000000              -0.000000113               0.000000000               1.000000000              -0.000000658               0.000000000               1.000000000               0.000000619               0.000001903               1.000000000               0.000000000               0.000001714               1.000000000              -0.000000078               0.000001784               1.000000000               0.000000005               0.000002039               1.000000000               0.000000073               0.000002491               1.000000000               0.000000041               0.000002824               1.000000000              -0.000000069               0.000003078               1.000000000              -0.000000161               0.000003387               1.000000000              -0.000000192               0.000003570               1.000000000              -0.000000179               0.000003657               1.000000000              -0.000000108               0.000003689               1.000000000               0.000000007               0.000003726               1.000000000               0.000000096               0.000003868               1.000000000               0.000000092               0.000004183               1.000000000              -0.000000086               0.000004721               1.000000000              -0.000000533               0.000005487               1.000000000              -0.000001331               0.000006433               1.000000000               0.000000540               0.000003874               1.000000000              -0.000000005               0.000003452               1.000000000              -0.000000016               0.000003580               1.000000000               0.000000027               0.000004113               1.000000000              -0.000000016               0.000004974               1.000000000              -0.000000062               0.000005679               1.000000000              -0.000000053               0.000006207               1.000000000               0.000000023               0.000006841               1.000000000               0.000000114               0.000007281               1.000000000               0.000000169               0.000007640               1.000000000               0.000000167               0.000007979               1.000000000               0.000000048               0.000008382               1.000000000              -0.000000268               0.000009005               1.000000000              -0.000000837               0.000009964               1.000000000              -0.000001695               0.000011350               1.000000000              -0.000002889               0.000013228               1.000000000              -0.000004478               0.000015647               1.000000000               0.000000448               0.000005901               1.000000000               0.000000060               0.000005192               1.000000000               0.000000067               0.000005404               1.000000000               0.000000095               0.000006296               1.000000000               0.000000021               0.000007640               1.000000000              -0.000000028               0.000008705               1.000000000              -0.000000035               0.000009628               1.000000000              -0.000000039               0.000010633               1.000000000              -0.000000012               0.000011516               1.000000000              -0.000000089               0.000012437               1.000000000              -0.000000375               0.000013484               1.000000000              -0.000000917               0.000014799               1.000000000              -0.000001835               0.000016502               1.000000000              -0.000003186               0.000018691               1.000000000              -0.000004966               0.000021458               1.000000000              -0.000007185               0.000024890               1.000000000              -0.000009835               0.000029069               1.000000000               0.000000414               0.000007989               1.000000000               0.000000241               0.000006975               1.000000000               0.000000281               0.000007377               1.000000000               0.000000232               0.000008707               1.000000000              -0.000000016               0.000010564               1.000000000              -0.000000165               0.000012199               1.000000000              -0.000000214               0.000013722               1.000000000              -0.000000273               0.000015330               1.000000000              -0.000000438               0.000017004               1.000000000              -0.000000893               0.000018836               1.000000000              -0.000001692               0.000021037               1.000000000              -0.000002891               0.000023713               1.000000000              -0.000004580               0.000026975               1.000000000              -0.000006785               0.000030889               1.000000000              -0.000009491               0.000035509               1.000000000              -0.000012681               0.000040864               1.000000000              -0.000016323               0.000046982               1.000000000               0.000000425               0.000010166               1.000000000               0.000000519               0.000008896               1.000000000               0.000000534               0.000009579               1.000000000               0.000000297               0.000011463               1.000000000              -0.000000038               0.000014033               1.000000000              -0.000000187               0.000016545               1.000000000              -0.000000324               0.000018867               1.000000000              -0.000000584               0.000021450               1.000000000              -0.000001119               0.000024232               1.000000000              -0.000002085               0.000027353               1.000000000              -0.000003540               0.000031068               1.000000000              -0.000005498               0.000035425               1.000000000              -0.000008014               0.000040531               1.000000000              -0.000011098               0.000046402               1.000000000              -0.000014684               0.000053046               1.000000000              -0.000018763               0.000060460               1.000000000              -0.000023307               0.000068619               1.000000000               0.000000421               0.000012434               1.000000000               0.000000829               0.000010979               1.000000000               0.000000774               0.000012064               1.000000000               0.000000418               0.000014736               1.000000000              -0.000000039               0.000018247               1.000000000              -0.000000383               0.000021643               1.000000000              -0.000000673               0.000025011               1.000000000              -0.000001214               0.000028817               1.000000000              -0.000002160               0.000032993               1.000000000              -0.000003694               0.000037734               1.000000000              -0.000005781               0.000043222               1.000000000              -0.000008445               0.000049554               1.000000000              -0.000011754               0.000056714               1.000000000              -0.000015640               0.000064736               1.000000000              -0.000020057               0.000073604               1.000000000              -0.000024994               0.000083293               1.000000000              -0.000030403               0.000093777               1.000000000               0.000000470               0.000014813               1.000000000               0.000001174               0.000013232               1.000000000               0.000000998               0.000014869               1.000000000               0.000000395               0.000018401               1.000000000              -0.000000312               0.000022906               1.000000000              -0.000000730               0.000027351               1.000000000              -0.000001132               0.000031964               1.000000000              -0.000001954               0.000037227               1.000000000              -0.000003378               0.000043026               1.000000000              -0.000005453               0.000049651               1.000000000              -0.000008111               0.000057247               1.000000000              -0.000011462               0.000065814               1.000000000              -0.000015450               0.000075400               1.000000000              -0.000020036               0.000085971               1.000000000              -0.000025186               0.000097516               1.000000000              -0.000030882               0.000109926               1.000000000              -0.000037046               0.000123081               1.000000000               0.000000510               0.000017182               1.000000000               0.000001483               0.000015622               1.000000000               0.000001140               0.000017923               1.000000000               0.000000257               0.000022398               1.000000000              -0.000000579               0.000027877               1.000000000              -0.000001007               0.000033542               1.000000000              -0.000001564               0.000039649               1.000000000              -0.000002747               0.000046591               1.000000000              -0.000004633               0.000054336               1.000000000              -0.000007133               0.000063171               1.000000000              -0.000010362               0.000073228               1.000000000              -0.000014305               0.000084420               1.000000000              -0.000018865               0.000096818               1.000000000              -0.000024033               0.000110387               1.000000000              -0.000029768               0.000124975               1.000000000              -0.000035962               0.000140504               1.000000000              -0.000042482               0.000156733               1.000000000               0.000000394               0.000019559               1.000000000               0.000001632               0.000018095               1.000000000               0.000001406               0.000020029               1.000000000               0.000000624               0.000024197               1.000000000              -0.000000303               0.000029513               1.000000000              -0.000000859               0.000035393               1.000000000              -0.000001156               0.000041681               1.000000000              -0.000001953               0.000048589               1.000000000              -0.000003277               0.000056242               1.000000000              -0.000005058               0.000064660               1.000000000              -0.000007391               0.000074077               1.000000000              -0.000010250               0.000084536               1.000000000              -0.000013604               0.000095972               1.000000000              -0.000017428               0.000108501               1.000000000              -0.000021703               0.000122086               1.000000000              -0.000026410               0.000136679               1.000000000              -0.000031527               0.000152240               1.000000000               0.000000277               0.000021892               1.000000000               0.000001738               0.000020638               1.000000000               0.000001708               0.000022310               1.000000000               0.000001003               0.000025996               1.000000000               0.000000053               0.000031079               1.000000000              -0.000000637               0.000037016               1.000000000              -0.000000970               0.000043466               1.000000000              -0.000001412               0.000050469               1.000000000              -0.000002263               0.000058096               1.000000000              -0.000003446               0.000066356               1.000000000              -0.000005027               0.000075365               1.000000000              -0.000006959               0.000085267               1.000000000              -0.000009264               0.000096049               1.000000000              -0.000011918               0.000107686               1.000000000              -0.000014893               0.000120247               1.000000000              -0.000018216               0.000133811               1.000000000              -0.000021940               0.000148220               1.000000000               0.000000210               0.000024080               1.000000000               0.000001733               0.000023069               1.000000000               0.000001850               0.000024535               1.000000000               0.000001282               0.000027821               1.000000000               0.000000417               0.000032640               1.000000000              -0.000000349               0.000038497               1.000000000              -0.000000755               0.000045044               1.000000000              -0.000001015               0.000052130               1.000000000              -0.000001460               0.000059823               1.000000000              -0.000002181               0.000068043               1.000000000              -0.000003145               0.000076860               1.000000000              -0.000004382               0.000086384               1.000000000              -0.000005844               0.000096709               1.000000000              -0.000007557               0.000107808               1.000000000              -0.000009484               0.000119607               1.000000000              -0.000011606               0.000132289               1.000000000              -0.000013923               0.000145804               1.000000000               0.000000139               0.000025940               1.000000000               0.000001598               0.000025300               1.000000000               0.000001812               0.000026649               1.000000000               0.000001432               0.000029694               1.000000000               0.000000727               0.000034230               1.000000000              -0.000000014               0.000039859               1.000000000              -0.000000482               0.000046332               1.000000000              -0.000000679               0.000053433               1.000000000              -0.000000881               0.000061185               1.000000000              -0.000001259               0.000069478               1.000000000              -0.000001783               0.000078286               1.000000000              -0.000002496               0.000087649               1.000000000              -0.000003350               0.000097690               1.000000000              -0.000004313               0.000108430               1.000000000              -0.000005408               0.000119853               1.000000000              -0.000006582               0.000131901               1.000000000              -0.000007787               0.000144718               1.000000000               0.000000073               0.000027441               1.000000000               0.000001349               0.000027239               1.000000000               0.000001598               0.000028586               1.000000000               0.000001374               0.000031435               1.000000000               0.000000845               0.000035653               1.000000000               0.000000281               0.000041039               1.000000000              -0.000000185               0.000047378               1.000000000              -0.000000387               0.000054466               1.000000000              -0.000000504               0.000062215               1.000000000              -0.000000673               0.000070560               1.000000000              -0.000000895               0.000079410               1.000000000              -0.000001215               0.000088731               1.000000000              -0.000001635               0.000098634               1.000000000              -0.000002106               0.000109136               1.000000000              -0.000002621               0.000120352               1.000000000              -0.000003171               0.000132093               1.000000000              -0.000003708               0.000144422               1.000000000               0.000000044               0.000028598               1.000000000               0.000000972               0.000028745               1.000000000               0.000001190               0.000030130               1.000000000               0.000001091               0.000032880               1.000000000               0.000000777               0.000036872               1.000000000               0.000000359               0.000042013               1.000000000              -0.000000013               0.000048155               1.000000000              -0.000000203               0.000055166               1.000000000              -0.000000258               0.000062880               1.000000000              -0.000000321               0.000071221               1.000000000              -0.000000386               0.000080114               1.000000000              -0.000000475               0.000089455               1.000000000              -0.000000617               0.000099293               1.000000000              -0.000000800               0.000109673               1.000000000              -0.000000995               0.000120672               1.000000000              -0.000001206               0.000132230               1.000000000              -0.000001438               0.000144313               1.000000000               0.000000021               0.000029293               1.000000000               0.000000495               0.000029683               1.000000000               0.000000641               0.000031139               1.000000000               0.000000605               0.000033849               1.000000000               0.000000461               0.000037698               1.000000000               0.000000250               0.000042699               1.000000000               0.000000051               0.000048711               1.000000000              -0.000000071               0.000055600               1.000000000              -0.000000111               0.000063267               1.000000000              -0.000000127               0.000071596               1.000000000              -0.000000131               0.000080491               1.000000000              -0.000000133               0.000089846               1.000000000              -0.000000151               0.000099627               1.000000000              -0.000000189               0.000109913               1.000000000              -0.000000246               0.000120733               1.000000000              -0.000000325               0.000132142               1.000000000              -0.000000431               0.000144089               1.000000000              -0.000000000               0.000029517               1.000000000              -0.000000000               0.000030011               1.000000000               0.000000000               0.000031502               1.000000000               0.000000000               0.000034187               1.000000000               0.000000000               0.000037991               1.000000000               0.000000000               0.000042916               1.000000000               0.000000000               0.000048867               1.000000000              -0.000000000               0.000055738               1.000000000               0.000000000               0.000063407               1.000000000              -0.000000000               0.000071725               1.000000000              -0.000000000               0.000080611               1.000000000               0.000000000               0.000089969               1.000000000               0.000000000               0.000099723               1.000000000              -0.000000000               0.000109964               1.000000000              -0.000000000               0.000120702               1.000000000               0.000000000               0.000132035               1.000000000               0.000000000               0.000143922               1.000000000               0.000000648               0.000000000               1.000000000               0.000000020               0.000000000               1.000000000              -0.000000084              -0.000000000               1.000000000               0.000000017              -0.000000000               1.000000000               0.000000062              -0.000000000               1.000000000               0.000000000              -0.000000000               1.000000000              -0.000000051              -0.000000000               1.000000000              -0.000000129              -0.000000000               1.000000000              -0.000000239              -0.000000000               1.000000000              -0.000000292              -0.000000000               1.000000000              -0.000000246              -0.000000000               1.000000000              -0.000000123              -0.000000000               1.000000000               0.000000036              -0.000000000               1.000000000               0.000000158               0.000000000               1.000000000               0.000000137               0.000000000               1.000000000              -0.000000113               0.000000000               1.000000000              -0.000000658               0.000000000               1.000000000               0.000000619              -0.000001903               1.000000000               0.000000000              -0.000001714               1.000000000              -0.000000078              -0.000001784               1.000000000               0.000000005              -0.000002039               1.000000000               0.000000073              -0.000002491               1.000000000               0.000000041              -0.000002824               1.000000000              -0.000000069              -0.000003078               1.000000000              -0.000000161              -0.000003387               1.000000000              -0.000000192              -0.000003570               1.000000000              -0.000000179              -0.000003657               1.000000000              -0.000000108              -0.000003689               1.000000000               0.000000007              -0.000003726               1.000000000               0.000000096              -0.000003868               1.000000000               0.000000092              -0.000004183               1.000000000              -0.000000086              -0.000004721               1.000000000              -0.000000533              -0.000005487               1.000000000              -0.000001331              -0.000006433               1.000000000               0.000000540              -0.000003874               1.000000000              -0.000000005              -0.000003452               1.000000000              -0.000000016              -0.000003580               1.000000000               0.000000027              -0.000004113               1.000000000              -0.000000016              -0.000004974               1.000000000              -0.000000062              -0.000005679               1.000000000              -0.000000053              -0.000006207               1.000000000               0.000000023              -0.000006841               1.000000000               0.000000114              -0.000007281               1.000000000               0.000000169              -0.000007640               1.000000000               0.000000167              -0.000007979               1.000000000               0.000000048              -0.000008382               1.000000000              -0.000000268              -0.000009005               1.000000000              -0.000000837              -0.000009964               1.000000000              -0.000001695              -0.000011350               1.000000000              -0.000002889              -0.000013228               1.000000000              -0.000004478              -0.000015647               1.000000000               0.000000448              -0.000005901               1.000000000               0.000000060              -0.000005192               1.000000000               0.000000067              -0.000005404               1.000000000               0.000000095              -0.000006296               1.000000000               0.000000021              -0.000007640               1.000000000              -0.000000028              -0.000008705               1.000000000              -0.000000035              -0.000009628               1.000000000              -0.000000039              -0.000010633               1.000000000              -0.000000012              -0.000011516               1.000000000              -0.000000089              -0.000012437               1.000000000              -0.000000375              -0.000013484               1.000000000              -0.000000917              -0.000014799               1.000000000              -0.000001835              -0.000016502               1.000000000              -0.000003186              -0.000018691               1.000000000              -0.000004966              -0.000021458               1.000000000              -0.000007185              -0.000024890               1.000000000              -0.000009835              -0.000029069               1.000000000               0.000000414              -0.000007989               1.000000000               0.000000241              -0.000006975               1.000000000               0.000000281              -0.000007377               1.000000000               0.000000232              -0.000008707               1.000000000              -0.000000016              -0.000010564               1.000000000              -0.000000165              -0.000012199               1.000000000              -0.000000214              -0.000013722               1.000000000              -0.000000273              -0.000015330               1.000000000              -0.000000438              -0.000017004               1.000000000              -0.000000893              -0.000018836               1.000000000              -0.000001692              -0.000021037               1.000000000              -0.000002891              -0.000023713               1.000000000              -0.000004580              -0.000026975               1.000000000              -0.000006785              -0.000030889               1.000000000              -0.000009491              -0.000035509               1.000000000              -0.000012681              -0.000040864               1.000000000              -0.000016323              -0.000046982               1.000000000               0.000000425              -0.000010166               1.000000000               0.000000519              -0.000008896               1.000000000               0.000000534              -0.000009579               1.000000000               0.000000297              -0.000011463               1.000000000              -0.000000038              -0.000014033               1.000000000              -0.000000187              -0.000016545               1.000000000              -0.000000324              -0.000018867               1.000000000              -0.000000584              -0.000021450               1.000000000              -0.000001119              -0.000024232               1.000000000              -0.000002085              -0.000027353               1.000000000              -0.000003540              -0.000031068               1.000000000              -0.000005498              -0.000035425               1.000000000              -0.000008014              -0.000040531               1.000000000              -0.000011098              -0.000046402               1.000000000              -0.000014684              -0.000053046               1.000000000              -0.000018763              -0.000060460               1.000000000              -0.000023307              -0.000068619               1.000000000               0.000000421              -0.000012434               1.000000000               0.000000829              -0.000010979               1.000000000               0.000000774              -0.000012064               1.000000000               0.000000418              -0.000014736               1.000000000              -0.000000039              -0.000018247               1.000000000              -0.000000383              -0.000021643               1.000000000              -0.000000673              -0.000025011               1.000000000              -0.000001214              -0.000028817               1.000000000              -0.000002160              -0.000032993               1.000000000              -0.000003694              -0.000037734               1.000000000              -0.000005781              -0.000043222               1.000000000              -0.000008445              -0.000049554               1.000000000              -0.000011754              -0.000056714               1.000000000              -0.000015640              -0.000064736               1.000000000              -0.000020057              -0.000073604               1.000000000              -0.000024994              -0.000083293               1.000000000              -0.000030403              -0.000093777               1.000000000               0.000000470              -0.000014813               1.000000000               0.000001174              -0.000013232               1.000000000               0.000000998              -0.000014869               1.000000000               0.000000395              -0.000018401               1.000000000              -0.000000312              -0.000022906               1.000000000              -0.000000730              -0.000027351               1.000000000              -0.000001132              -0.000031964               1.000000000              -0.000001954              -0.000037227               1.000000000              -0.000003378              -0.000043026               1.000000000              -0.000005453              -0.000049651               1.000000000              -0.000008111              -0.000057247               1.000000000              -0.000011462              -0.000065814               1.000000000              -0.000015450              -0.000075400               1.000000000              -0.000020036              -0.000085971               1.000000000              -0.000025186              -0.000097516               1.000000000              -0.000030882              -0.000109926               1.000000000              -0.000037046              -0.000123081               1.000000000               0.000000510              -0.000017182               1.000000000               0.000001483              -0.000015622               1.000000000               0.000001140              -0.000017923               1.000000000               0.000000257              -0.000022398               1.000000000              -0.000000579              -0.000027877               1.000000000              -0.000001007              -0.000033542               1.000000000              -0.000001564              -0.000039649               1.000000000              -0.000002747              -0.000046591               1.000000000              -0.000004633              -0.000054336               1.000000000              -0.000007133              -0.000063171               1.000000000              -0.000010362              -0.000073228               1.000000000              -0.000014305              -0.000084420               1.000000000              -0.000018865              -0.000096818               1.000000000              -0.000024033              -0.000110387               1.000000000              -0.000029768              -0.000124975               1.000000000              -0.000035962              -0.000140504               1.000000000              -0.000042482              -0.000156733               1.000000000               0.000000394              -0.000019559               1.000000000               0.000001632              -0.000018095               1.000000000               0.000001406              -0.000020029               1.000000000               0.000000624              -0.000024197               1.000000000              -0.000000303              -0.000029513               1.000000000              -0.000000859              -0.000035393               1.000000000              -0.000001156              -0.000041681               1.000000000              -0.000001953              -0.000048589               1.000000000              -0.000003277              -0.000056242               1.000000000              -0.000005058              -0.000064660               1.000000000              -0.000007391              -0.000074077               1.000000000              -0.000010250              -0.000084536               1.000000000              -0.000013604              -0.000095972               1.000000000              -0.000017428              -0.000108501               1.000000000              -0.000021703              -0.000122086               1.000000000              -0.000026410              -0.000136679               1.000000000              -0.000031527              -0.000152240               1.000000000               0.000000277              -0.000021892               1.000000000               0.000001738              -0.000020638               1.000000000               0.000001708              -0.000022310               1.000000000               0.000001003              -0.000025996               1.000000000               0.000000053              -0.000031079               1.000000000              -0.000000637              -0.000037016               1.000000000              -0.000000970              -0.000043466               1.000000000              -0.000001412              -0.000050469               1.000000000              -0.000002263              -0.000058096               1.000000000              -0.000003446              -0.000066356               1.000000000              -0.000005027              -0.000075365               1.000000000              -0.000006959              -0.000085267               1.000000000              -0.000009264              -0.000096049               1.000000000              -0.000011918              -0.000107686               1.000000000              -0.000014893              -0.000120247               1.000000000              -0.000018216              -0.000133811               1.000000000              -0.000021940              -0.000148220               1.000000000               0.000000210              -0.000024080               1.000000000               0.000001733              -0.000023069               1.000000000               0.000001850              -0.000024535               1.000000000               0.000001282              -0.000027821               1.000000000               0.000000417              -0.000032640               1.000000000              -0.000000349              -0.000038497               1.000000000              -0.000000755              -0.000045044               1.000000000              -0.000001015              -0.000052130               1.000000000              -0.000001460              -0.000059823               1.000000000              -0.000002181              -0.000068043               1.000000000              -0.000003145              -0.000076860               1.000000000              -0.000004382              -0.000086384               1.000000000              -0.000005844              -0.000096709               1.000000000              -0.000007557              -0.000107808               1.000000000              -0.000009484              -0.000119607               1.000000000              -0.000011606              -0.000132289               1.000000000              -0.000013923              -0.000145804               1.000000000               0.000000139              -0.000025940               1.000000000               0.000001598              -0.000025300               1.000000000               0.000001812              -0.000026649               1.000000000               0.000001432              -0.000029694               1.000000000               0.000000727              -0.000034230               1.000000000              -0.000000014              -0.000039859               1.000000000              -0.000000482              -0.000046332               1.000000000              -0.000000679              -0.000053433               1.000000000              -0.000000881              -0.000061185               1.000000000              -0.000001259              -0.000069478               1.000000000              -0.000001783              -0.000078286               1.000000000              -0.000002496              -0.000087649               1.000000000              -0.000003350              -0.000097690               1.000000000              -0.000004313              -0.000108430               1.000000000              -0.000005408              -0.000119853               1.000000000              -0.000006582              -0.000131901               1.000000000              -0.000007787              -0.000144718               1.000000000               0.000000073              -0.000027441               1.000000000               0.000001349              -0.000027239               1.000000000               0.000001598              -0.000028586               1.000000000               0.000001374              -0.000031435               1.000000000               0.000000845              -0.000035653               1.000000000               0.000000281              -0.000041039               1.000000000              -0.000000185              -0.000047378               1.000000000              -0.000000387              -0.000054466               1.000000000              -0.000000504              -0.000062215               1.000000000              -0.000000673              -0.000070560               1.000000000              -0.000000895              -0.000079410               1.000000000              -0.000001215              -0.000088731               1.000000000              -0.000001635              -0.000098634               1.000000000              -0.000002106              -0.000109136               1.000000000              -0.000002621              -0.000120352               1.000000000              -0.000003171              -0.000132093               1.000000000              -0.000003708              -0.000144422               1.000000000               0.000000044              -0.000028598               1.000000000               0.000000972              -0.000028745               1.000000000               0.000001190              -0.000030130               1.000000000               0.000001091              -0.000032880               1.000000000               0.000000777              -0.000036872               1.000000000               0.000000359              -0.000042013               1.000000000              -0.000000013              -0.000048155               1.000000000              -0.000000203              -0.000055166               1.000000000              -0.000000258              -0.000062880               1.000000000              -0.000000321              -0.000071221               1.000000000              -0.000000386              -0.000080114               1.000000000              -0.000000475              -0.000089455               1.000000000              -0.000000617              -0.000099293               1.000000000              -0.000000800              -0.000109673               1.000000000              -0.000000995              -0.000120672               1.000000000              -0.000001206              -0.000132230               1.000000000              -0.000001438              -0.000144313               1.000000000               0.000000021              -0.000029293               1.000000000               0.000000495              -0.000029683               1.000000000               0.000000641              -0.000031139               1.000000000               0.000000605              -0.000033849               1.000000000               0.000000461              -0.000037698               1.000000000               0.000000250              -0.000042699               1.000000000               0.000000051              -0.000048711               1.000000000              -0.000000071              -0.000055600               1.000000000              -0.000000111              -0.000063267               1.000000000              -0.000000127              -0.000071596               1.000000000              -0.000000131              -0.000080491               1.000000000              -0.000000133              -0.000089846               1.000000000              -0.000000151              -0.000099627               1.000000000              -0.000000189              -0.000109913               1.000000000              -0.000000246              -0.000120733               1.000000000              -0.000000325              -0.000132142               1.000000000              -0.000000431              -0.000144089               1.000000000              -0.000000000              -0.000029517               1.000000000               0.000000000              -0.000030011               1.000000000               0.000000000              -0.000031502               1.000000000              -0.000000000              -0.000034187               1.000000000              -0.000000000              -0.000037991               1.000000000              -0.000000000              -0.000042916               1.000000000              -0.000000000              -0.000048867               1.000000000              -0.000000000              -0.000055738               1.000000000              -0.000000000              -0.000063407               1.000000000               0.000000000              -0.000071725               1.000000000               0.000000000              -0.000080611               1.000000000              -0.000000000              -0.000089969               1.000000000              -0.000000000              -0.000099723               1.000000000              -0.000000000              -0.000109964               1.000000000              -0.000000000              -0.000120702               1.000000000               0.000000000              -0.000132035               1.000000000               0.000000000              -0.000143922               1.000000000              -0.000000648               0.000000000               1.000000000              -0.000000020               0.000000000               1.000000000               0.000000084               0.000000000               1.000000000              -0.000000017              -0.000000000               1.000000000              -0.000000062              -0.000000000               1.000000000              -0.000000000              -0.000000000               1.000000000               0.000000051              -0.000000000               1.000000000               0.000000129              -0.000000000               1.000000000               0.000000239               0.000000000               1.000000000               0.000000292               0.000000000               1.000000000               0.000000246               0.000000000               1.000000000               0.000000123               0.000000000               1.000000000              -0.000000036               0.000000000               1.000000000              -0.000000158               0.000000000               1.000000000              -0.000000137               0.000000000               1.000000000               0.000000113               0.000000000               1.000000000               0.000000658               0.000000000               1.000000000              -0.000000619              -0.000001903               1.000000000              -0.000000000              -0.000001714               1.000000000               0.000000078              -0.000001784               1.000000000              -0.000000005              -0.000002039               1.000000000              -0.000000073              -0.000002491               1.000000000              -0.000000041              -0.000002824               1.000000000               0.000000069              -0.000003078               1.000000000               0.000000161              -0.000003387               1.000000000               0.000000192              -0.000003570               1.000000000               0.000000179              -0.000003657               1.000000000               0.000000108              -0.000003689               1.000000000              -0.000000007              -0.000003726               1.000000000              -0.000000096              -0.000003868               1.000000000              -0.000000092              -0.000004183               1.000000000               0.000000086              -0.000004721               1.000000000               0.000000533              -0.000005487               1.000000000               0.000001331              -0.000006433               1.000000000              -0.000000540              -0.000003874               1.000000000               0.000000005              -0.000003452               1.000000000               0.000000016              -0.000003580               1.000000000              -0.000000027              -0.000004113               1.000000000               0.000000016              -0.000004974               1.000000000               0.000000062              -0.000005679               1.000000000               0.000000053              -0.000006207               1.000000000              -0.000000023              -0.000006841               1.000000000              -0.000000114              -0.000007281               1.000000000              -0.000000169              -0.000007640               1.000000000              -0.000000167              -0.000007979               1.000000000              -0.000000048              -0.000008382               1.000000000               0.000000268              -0.000009005               1.000000000               0.000000837              -0.000009964               1.000000000               0.000001695              -0.000011350               1.000000000               0.000002889              -0.000013228               1.000000000               0.000004478              -0.000015647               1.000000000              -0.000000448              -0.000005901               1.000000000              -0.000000060              -0.000005192               1.000000000              -0.000000067              -0.000005404               1.000000000              -0.000000095              -0.000006296               1.000000000              -0.000000021              -0.000007640               1.000000000               0.000000028              -0.000008705               1.000000000               0.000000035              -0.000009628               1.000000000               0.000000039              -0.000010633               1.000000000               0.000000012              -0.000011516               1.000000000               0.000000089              -0.000012437               1.000000000               0.000000375              -0.000013484               1.000000000               0.000000917              -0.000014799               1.000000000               0.000001835              -0.000016502               1.000000000               0.000003186              -0.000018691               1.000000000               0.000004966              -0.000021458               1.000000000               0.000007185              -0.000024890               1.000000000               0.000009835              -0.000029069               1.000000000              -0.000000414              -0.000007989               1.000000000              -0.000000241              -0.000006975               1.000000000              -0.000000281              -0.000007377               1.000000000              -0.000000232              -0.000008707               1.000000000               0.000000016              -0.000010564               1.000000000               0.000000165              -0.000012199               1.000000000               0.000000214              -0.000013722               1.000000000               0.000000273              -0.000015330               1.000000000               0.000000438              -0.000017004               1.000000000               0.000000893              -0.000018836               1.000000000               0.000001692              -0.000021037               1.000000000               0.000002891              -0.000023713               1.000000000               0.000004580              -0.000026975               1.000000000               0.000006785              -0.000030889               1.000000000               0.000009491              -0.000035509               1.000000000               0.000012681              -0.000040864               1.000000000               0.000016323              -0.000046982               1.000000000              -0.000000425              -0.000010166               1.000000000              -0.000000519              -0.000008896               1.000000000              -0.000000534              -0.000009579               1.000000000              -0.000000297              -0.000011463               1.000000000               0.000000038              -0.000014033               1.000000000               0.000000187              -0.000016545               1.000000000               0.000000324              -0.000018867               1.000000000               0.000000584              -0.000021450               1.000000000               0.000001119              -0.000024232               1.000000000               0.000002085              -0.000027353               1.000000000               0.000003540              -0.000031068               1.000000000               0.000005498              -0.000035425               1.000000000               0.000008014              -0.000040531               1.000000000               0.000011098              -0.000046402               1.000000000               0.000014684              -0.000053046               1.000000000               0.000018763              -0.000060460               1.000000000               0.000023307              -0.000068619               1.000000000              -0.000000421              -0.000012434               1.000000000              -0.000000829              -0.000010979               1.000000000              -0.000000774              -0.000012064               1.000000000              -0.000000418              -0.000014736               1.000000000               0.000000039              -0.000018247               1.000000000               0.000000383              -0.000021643               1.000000000               0.000000673              -0.000025011               1.000000000               0.000001214              -0.000028817               1.000000000               0.000002160              -0.000032993               1.000000000               0.000003694              -0.000037734               1.000000000               0.000005781              -0.000043222               1.000000000               0.000008445              -0.000049554               1.000000000               0.000011754              -0.000056714               1.000000000               0.000015640              -0.000064736               1.000000000               0.000020057              -0.000073604               1.000000000               0.000024994              -0.000083293               1.000000000               0.000030403              -0.000093777               1.000000000              -0.000000470              -0.000014813               1.000000000              -0.000001174              -0.000013232               1.000000000              -0.000000998              -0.000014869               1.000000000              -0.000000395              -0.000018401               1.000000000               0.000000312              -0.000022906               1.000000000               0.000000730              -0.000027351               1.000000000               0.000001132              -0.000031964               1.000000000               0.000001954              -0.000037227               1.000000000               0.000003378              -0.000043026               1.000000000               0.000005453              -0.000049651               1.000000000               0.000008111              -0.000057247               1.000000000               0.000011462              -0.000065814               1.000000000               0.000015450              -0.000075400               1.000000000               0.000020036              -0.000085971               1.000000000               0.000025186              -0.000097516               1.000000000               0.000030882              -0.000109926               1.000000000               0.000037046              -0.000123081               1.000000000              -0.000000510              -0.000017182               1.000000000              -0.000001483              -0.000015622               1.000000000              -0.000001140              -0.000017923               1.000000000              -0.000000257              -0.000022398               1.000000000               0.000000579              -0.000027877               1.000000000               0.000001007              -0.000033542               1.000000000               0.000001564              -0.000039649               1.000000000               0.000002747              -0.000046591               1.000000000               0.000004633              -0.000054336               1.000000000               0.000007133              -0.000063171               1.000000000               0.000010362              -0.000073228               1.000000000               0.000014305              -0.000084420               1.000000000               0.000018865              -0.000096818               1.000000000               0.000024033              -0.000110387               1.000000000               0.000029768              -0.000124975               1.000000000               0.000035962              -0.000140504               1.000000000               0.000042482              -0.000156733               1.000000000              -0.000000394              -0.000019559               1.000000000              -0.000001632              -0.000018095               1.000000000              -0.000001406              -0.000020029               1.000000000              -0.000000624              -0.000024197               1.000000000               0.000000303              -0.000029513               1.000000000               0.000000859              -0.000035393               1.000000000               0.000001156              -0.000041681               1.000000000               0.000001953              -0.000048589               1.000000000               0.000003277              -0.000056242               1.000000000               0.000005058              -0.000064660               1.000000000               0.000007391              -0.000074077               1.000000000               0.000010250              -0.000084536               1.000000000               0.000013604              -0.000095972               1.000000000               0.000017428              -0.000108501               1.000000000               0.000021703              -0.000122086               1.000000000               0.000026410              -0.000136679               1.000000000               0.000031527              -0.000152240               1.000000000              -0.000000277              -0.000021892               1.000000000              -0.000001738              -0.000020638               1.000000000              -0.000001708              -0.000022310               1.000000000              -0.000001003              -0.000025996               1.000000000              -0.000000053              -0.000031079               1.000000000               0.000000637              -0.000037016               1.000000000               0.000000970              -0.000043466               1.000000000               0.000001412              -0.000050469               1.000000000               0.000002263              -0.000058096               1.000000000               0.000003446              -0.000066356               1.000000000               0.000005027              -0.000075365               1.000000000               0.000006959              -0.000085267               1.000000000               0.000009264              -0.000096049               1.000000000               0.000011918              -0.000107686               1.000000000               0.000014893              -0.000120247               1.000000000               0.000018216              -0.000133811               1.000000000               0.000021940              -0.000148220               1.000000000              -0.000000210              -0.000024080               1.000000000              -0.000001733              -0.000023069               1.000000000              -0.000001850              -0.000024535               1.000000000              -0.000001282              -0.000027821               1.000000000              -0.000000417              -0.000032640               1.000000000               0.000000349              -0.000038497               1.000000000               0.000000755              -0.000045044               1.000000000               0.000001015              -0.000052130               1.000000000               0.000001460              -0.000059823               1.000000000               0.000002181              -0.000068043               1.000000000               0.000003145              -0.000076860               1.000000000               0.000004382              -0.000086384               1.000000000               0.000005844              -0.000096709               1.000000000               0.000007557              -0.000107808               1.000000000               0.000009484              -0.000119607               1.000000000               0.000011606              -0.000132289               1.000000000               0.000013923              -0.000145804               1.000000000              -0.000000139              -0.000025940               1.000000000              -0.000001598              -0.000025300               1.000000000              -0.000001812              -0.000026649               1.000000000              -0.000001432              -0.000029694               1.000000000              -0.000000727              -0.000034230               1.000000000               0.000000014              -0.000039859               1.000000000               0.000000482              -0.000046332               1.000000000               0.000000679              -0.000053433               1.000000000               0.000000881              -0.000061185               1.000000000               0.000001259              -0.000069478               1.000000000               0.000001783              -0.000078286               1.000000000               0.000002496              -0.000087649               1.000000000               0.000003350              -0.000097690               1.000000000               0.000004313              -0.000108430               1.000000000               0.000005408              -0.000119853               1.000000000               0.000006582              -0.000131901               1.000000000               0.000007787              -0.000144718               1.000000000              -0.000000073              -0.000027441               1.000000000              -0.000001349              -0.000027239               1.000000000              -0.000001598              -0.000028586               1.000000000              -0.000001374              -0.000031435               1.000000000              -0.000000845              -0.000035653               1.000000000              -0.000000281              -0.000041039               1.000000000               0.000000185              -0.000047378               1.000000000               0.000000387              -0.000054466               1.000000000               0.000000504              -0.000062215               1.000000000               0.000000673              -0.000070560               1.000000000               0.000000895              -0.000079410               1.000000000               0.000001215              -0.000088731               1.000000000               0.000001635              -0.000098634               1.000000000               0.000002106              -0.000109136               1.000000000               0.000002621              -0.000120352               1.000000000               0.000003171              -0.000132093               1.000000000               0.000003708              -0.000144422               1.000000000              -0.000000044              -0.000028598               1.000000000              -0.000000972              -0.000028745               1.000000000              -0.000001190              -0.000030130               1.000000000              -0.000001091              -0.000032880               1.000000000              -0.000000777              -0.000036872               1.000000000              -0.000000359              -0.000042013               1.000000000               0.000000013              -0.000048155               1.000000000               0.000000203              -0.000055166               1.000000000               0.000000258              -0.000062880               1.000000000               0.000000321              -0.000071221               1.000000000               0.000000386              -0.000080114               1.000000000               0.000000475              -0.000089455               1.000000000               0.000000617              -0.000099293               1.000000000               0.000000800              -0.000109673               1.000000000               0.000000995              -0.000120672               1.000000000               0.000001206              -0.000132230               1.000000000               0.000001438              -0.000144313               1.000000000              -0.000000021              -0.000029293               1.000000000              -0.000000495              -0.000029683               1.000000000              -0.000000641              -0.000031139               1.000000000              -0.000000605              -0.000033849               1.000000000              -0.000000461              -0.000037698               1.000000000              -0.000000250              -0.000042699               1.000000000              -0.000000051              -0.000048711               1.000000000               0.000000071              -0.000055600               1.000000000               0.000000111              -0.000063267               1.000000000               0.000000127              -0.000071596               1.000000000               0.000000131              -0.000080491               1.000000000               0.000000133              -0.000089846               1.000000000               0.000000151              -0.000099627               1.000000000               0.000000189              -0.000109913               1.000000000               0.000000246              -0.000120733               1.000000000               0.000000325              -0.000132142               1.000000000               0.000000431              -0.000144089               1.000000000              -0.000000000              -0.000029517               1.000000000               0.000000000              -0.000030011               1.000000000               0.000000000              -0.000031502               1.000000000              -0.000000000              -0.000034187               1.000000000              -0.000000000              -0.000037991               1.000000000              -0.000000000              -0.000042916               1.000000000              -0.000000000              -0.000048867               1.000000000              -0.000000000              -0.000055738               1.000000000              -0.000000000              -0.000063407               1.000000000               0.000000000              -0.000071725               1.000000000               0.000000000              -0.000080611               1.000000000              -0.000000000              -0.000089969               1.000000000              -0.000000000              -0.000099723               1.000000000              -0.000000000              -0.000109964               1.000000000              -0.000000000              -0.000120702               1.000000000               0.000000000              -0.000132035               1.000000000               0.000000000              -0.000143922               1.000000000              -0.000000648               0.000000000               1.000000000              -0.000000020               0.000000000               1.000000000               0.000000084               0.000000000               1.000000000              -0.000000017              -0.000000000               1.000000000              -0.000000062              -0.000000000               1.000000000              -0.000000000              -0.000000000               1.000000000               0.000000051              -0.000000000               1.000000000               0.000000129              -0.000000000               1.000000000               0.000000239               0.000000000               1.000000000               0.000000292               0.000000000               1.000000000               0.000000246               0.000000000               1.000000000               0.000000123               0.000000000               1.000000000              -0.000000036               0.000000000               1.000000000              -0.000000158               0.000000000               1.000000000              -0.000000137               0.000000000               1.000000000               0.000000113               0.000000000               1.000000000               0.000000658               0.000000000               1.000000000              -0.000000619               0.000001903               1.000000000              -0.000000000               0.000001714               1.000000000               0.000000078               0.000001784               1.000000000              -0.000000005               0.000002039               1.000000000              -0.000000073               0.000002491               1.000000000              -0.000000041               0.000002824               1.000000000               0.000000069               0.000003078               1.000000000               0.000000161               0.000003387               1.000000000               0.000000192               0.000003570               1.000000000               0.000000179               0.000003657               1.000000000               0.000000108               0.000003689               1.000000000              -0.000000007               0.000003726               1.000000000              -0.000000096               0.000003868               1.000000000              -0.000000092               0.000004183               1.000000000               0.000000086               0.000004721               1.000000000               0.000000533               0.000005487               1.000000000               0.000001331               0.000006433               1.000000000              -0.000000540               0.000003874               1.000000000               0.000000005               0.000003452               1.000000000               0.000000016               0.000003580               1.000000000              -0.000000027               0.000004113               1.000000000               0.000000016               0.000004974               1.000000000               0.000000062               0.000005679               1.000000000               0.000000053               0.000006207               1.000000000              -0.000000023               0.000006841               1.000000000              -0.000000114               0.000007281               1.000000000              -0.000000169               0.000007640               1.000000000              -0.000000167               0.000007979               1.000000000              -0.000000048               0.000008382               1.000000000               0.000000268               0.000009005               1.000000000               0.000000837               0.000009964               1.000000000               0.000001695               0.000011350               1.000000000               0.000002889               0.000013228               1.000000000               0.000004478               0.000015647               1.000000000              -0.000000448               0.000005901               1.000000000              -0.000000060               0.000005192               1.000000000              -0.000000067               0.000005404               1.000000000              -0.000000095               0.000006296               1.000000000              -0.000000021               0.000007640               1.000000000               0.000000028               0.000008705               1.000000000               0.000000035               0.000009628               1.000000000               0.000000039               0.000010633               1.000000000               0.000000012               0.000011516               1.000000000               0.000000089               0.000012437               1.000000000               0.000000375               0.000013484               1.000000000               0.000000917               0.000014799               1.000000000               0.000001835               0.000016502               1.000000000               0.000003186               0.000018691               1.000000000               0.000004966               0.000021458               1.000000000               0.000007185               0.000024890               1.000000000               0.000009835               0.000029069               1.000000000              -0.000000414               0.000007989               1.000000000              -0.000000241               0.000006975               1.000000000              -0.000000281               0.000007377               1.000000000              -0.000000232               0.000008707               1.000000000               0.000000016               0.000010564               1.000000000               0.000000165               0.000012199               1.000000000               0.000000214               0.000013722               1.000000000               0.000000273               0.000015330               1.000000000               0.000000438               0.000017004               1.000000000               0.000000893               0.000018836               1.000000000               0.000001692               0.000021037               1.000000000               0.000002891               0.000023713               1.000000000               0.000004580               0.000026975               1.000000000               0.000006785               0.000030889               1.000000000               0.000009491               0.000035509               1.000000000               0.000012681               0.000040864               1.000000000               0.000016323               0.000046982               1.000000000              -0.000000425               0.000010166               1.000000000              -0.000000519               0.000008896               1.000000000              -0.000000534               0.000009579               1.000000000              -0.000000297               0.000011463               1.000000000               0.000000038               0.000014033               1.000000000               0.000000187               0.000016545               1.000000000               0.000000324               0.000018867               1.000000000               0.000000584               0.000021450               1.000000000               0.000001119               0.000024232               1.000000000               0.000002085               0.000027353               1.000000000               0.000003540               0.000031068               1.000000000               0.000005498               0.000035425               1.000000000               0.000008014               0.000040531               1.000000000               0.000011098               0.000046402               1.000000000               0.000014684               0.000053046               1.000000000               0.000018763               0.000060460               1.000000000               0.000023307               0.000068619               1.000000000              -0.000000421               0.000012434               1.000000000              -0.000000829               0.000010979               1.000000000              -0.000000774               0.000012064               1.000000000              -0.000000418               0.000014736               1.000000000               0.000000039               0.000018247               1.000000000               0.000000383               0.000021643               1.000000000               0.000000673               0.000025011               1.000000000               0.000001214               0.000028817               1.000000000               0.000002160               0.000032993               1.000000000               0.000003694               0.000037734               1.000000000               0.000005781               0.000043222               1.000000000               0.000008445               0.000049554               1.000000000               0.000011754               0.000056714               1.000000000               0.000015640               0.000064736               1.000000000               0.000020057               0.000073604               1.000000000               0.000024994               0.000083293               1.000000000               0.000030403               0.000093777               1.000000000              -0.000000470               0.000014813               1.000000000              -0.000001174               0.000013232               1.000000000              -0.000000998               0.000014869               1.000000000              -0.000000395               0.000018401               1.000000000               0.000000312               0.000022906               1.000000000               0.000000730               0.000027351               1.000000000               0.000001132               0.000031964               1.000000000               0.000001954               0.000037227               1.000000000               0.000003378               0.000043026               1.000000000               0.000005453               0.000049651               1.000000000               0.000008111               0.000057247               1.000000000               0.000011462               0.000065814               1.000000000               0.000015450               0.000075400               1.000000000               0.000020036               0.000085971               1.000000000               0.000025186               0.000097516               1.000000000               0.000030882               0.000109926               1.000000000               0.000037046               0.000123081               1.000000000              -0.000000510               0.000017182               1.000000000              -0.000001483               0.000015622               1.000000000              -0.000001140               0.000017923               1.000000000              -0.000000257               0.000022398               1.000000000               0.000000579               0.000027877               1.000000000               0.000001007               0.000033542               1.000000000               0.000001564               0.000039649               1.000000000               0.000002747               0.000046591               1.000000000               0.000004633               0.000054336               1.000000000               0.000007133               0.000063171               1.000000000               0.000010362               0.000073228               1.000000000               0.000014305               0.000084420               1.000000000               0.000018865               0.000096818               1.000000000               0.000024033               0.000110387               1.000000000               0.000029768               0.000124975               1.000000000               0.000035962               0.000140504               1.000000000               0.000042482               0.000156733               1.000000000              -0.000000394               0.000019559               1.000000000              -0.000001632               0.000018095               1.000000000              -0.000001406               0.000020029               1.000000000              -0.000000624               0.000024197               1.000000000               0.000000303               0.000029513               1.000000000               0.000000859               0.000035393               1.000000000               0.000001156               0.000041681               1.000000000               0.000001953               0.000048589               1.000000000               0.000003277               0.000056242               1.000000000               0.000005058               0.000064660               1.000000000               0.000007391               0.000074077               1.000000000               0.000010250               0.000084536               1.000000000               0.000013604               0.000095972               1.000000000               0.000017428               0.000108501               1.000000000               0.000021703               0.000122086               1.000000000               0.000026410               0.000136679               1.000000000               0.000031527               0.000152240               1.000000000              -0.000000277               0.000021892               1.000000000              -0.000001738               0.000020638               1.000000000              -0.000001708               0.000022310               1.000000000              -0.000001003               0.000025996               1.000000000              -0.000000053               0.000031079               1.000000000               0.000000637               0.000037016               1.000000000               0.000000970               0.000043466               1.000000000               0.000001412               0.000050469               1.000000000               0.000002263               0.000058096               1.000000000               0.000003446               0.000066356               1.000000000               0.000005027               0.000075365               1.000000000               0.000006959               0.000085267               1.000000000               0.000009264               0.000096049               1.000000000               0.000011918               0.000107686               1.000000000               0.000014893               0.000120247               1.000000000               0.000018216               0.000133811               1.000000000               0.000021940               0.000148220               1.000000000              -0.000000210               0.000024080               1.000000000              -0.000001733               0.000023069               1.000000000              -0.000001850               0.000024535               1.000000000              -0.000001282               0.000027821               1.000000000              -0.000000417               0.000032640               1.000000000               0.000000349               0.000038497               1.000000000               0.000000755               0.000045044               1.000000000               0.000001015               0.000052130               1.000000000               0.000001460               0.000059823               1.000000000               0.000002181               0.000068043               1.000000000               0.000003145               0.000076860               1.000000000               0.000004382               0.000086384               1.000000000               0.000005844               0.000096709               1.000000000               0.000007557               0.000107808               1.000000000               0.000009484               0.000119607               1.000000000               0.000011606               0.000132289               1.000000000               0.000013923               0.000145804               1.000000000              -0.000000139               0.000025940               1.000000000              -0.000001598               0.000025300               1.000000000              -0.000001812               0.000026649               1.000000000              -0.000001432               0.000029694               1.000000000              -0.000000727               0.000034230               1.000000000               0.000000014               0.000039859               1.000000000               0.000000482               0.000046332               1.000000000               0.000000679               0.000053433               1.000000000               0.000000881               0.000061185               1.000000000               0.000001259               0.000069478               1.000000000               0.000001783               0.000078286               1.000000000               0.000002496               0.000087649               1.000000000               0.000003350               0.000097690               1.000000000               0.000004313               0.000108430               1.000000000               0.000005408               0.000119853               1.000000000               0.000006582               0.000131901               1.000000000               0.000007787               0.000144718               1.000000000              -0.000000073               0.000027441               1.000000000              -0.000001349               0.000027239               1.000000000              -0.000001598               0.000028586               1.000000000              -0.000001374               0.000031435               1.000000000              -0.000000845               0.000035653               1.000000000              -0.000000281               0.000041039               1.000000000               0.000000185               0.000047378               1.000000000               0.000000387               0.000054466               1.000000000               0.000000504               0.000062215               1.000000000               0.000000673               0.000070560               1.000000000               0.000000895               0.000079410               1.000000000               0.000001215               0.000088731               1.000000000               0.000001635               0.000098634               1.000000000               0.000002106               0.000109136               1.000000000               0.000002621               0.000120352               1.000000000               0.000003171               0.000132093               1.000000000               0.000003708               0.000144422               1.000000000              -0.000000044               0.000028598               1.000000000              -0.000000972               0.000028745               1.000000000              -0.000001190               0.000030130               1.000000000              -0.000001091               0.000032880               1.000000000              -0.000000777               0.000036872               1.000000000              -0.000000359               0.000042013               1.000000000               0.000000013               0.000048155               1.000000000               0.000000203               0.000055166               1.000000000               0.000000258               0.000062880               1.000000000               0.000000321               0.000071221               1.000000000               0.000000386               0.000080114               1.000000000               0.000000475               0.000089455               1.000000000               0.000000617               0.000099293               1.000000000               0.000000800               0.000109673               1.000000000               0.000000995               0.000120672               1.000000000               0.000001206               0.000132230               1.000000000               0.000001438               0.000144313               1.000000000              -0.000000021               0.000029293               1.000000000              -0.000000495               0.000029683               1.000000000              -0.000000641               0.000031139               1.000000000              -0.000000605               0.000033849               1.000000000              -0.000000461               0.000037698               1.000000000              -0.000000250               0.000042699               1.000000000              -0.000000051               0.000048711               1.000000000               0.000000071               0.000055600               1.000000000               0.000000111               0.000063267               1.000000000               0.000000127               0.000071596               1.000000000               0.000000131               0.000080491               1.000000000               0.000000133               0.000089846               1.000000000               0.000000151               0.000099627               1.000000000               0.000000189               0.000109913               1.000000000               0.000000246               0.000120733               1.000000000               0.000000325               0.000132142               1.000000000               0.000000431               0.000144089               1.000000000              -0.000000000               0.000029517               1.000000000              -0.000000000               0.000030011               1.000000000               0.000000000               0.000031502               1.000000000               0.000000000               0.000034187               1.000000000               0.000000000               0.000037991               1.000000000               0.000000000               0.000042916               1.000000000               0.000000000               0.000048867               1.000000000              -0.000000000               0.000055738               1.000000000               0.000000000               0.000063407               1.000000000              -0.000000000               0.000071725               1.000000000              -0.000000000               0.000080611               1.000000000               0.000000000               0.000089969               1.000000000               0.000000000               0.000099723               1.000000000              -0.000000000               0.000109964               1.000000000              -0.000000000               0.000120702               1.000000000               0.000000000               0.000132035               1.000000000               0.000000000               0.000143922               1.000000000 </DataArray>
<DataArray type="Float64"                                    Name="stress"                                                      NumberOfComponents="10" format="ascii">
              0.000049132               0.000364211              -0.000000000              -0.000027102               0.000130436               0.000103335               0.000000000               0.000000000               0.000000000               0.000000000               0.000064109               0.000311336              -0.000000000              -0.000014876               0.000108736               0.000093860               0.000000000               0.000000000               0.000000000               0.000000000               0.000095065               0.000283390              -0.000000000               0.000000225               0.000094387               0.000094613               0.000000000               0.000000000               0.000000000               0.000000000               0.000102412               0.000281873               0.000000000               0.000003170               0.000092900               0.000096070               0.000000000               0.000000000               0.000000000               0.000000000               0.000097007               0.000291834               0.000000000              -0.000000102               0.000097311               0.000097209               0.000000000               0.000000000               0.000000000               0.000000000               0.000090482               0.000293227              -0.000000000              -0.000002723               0.000098649               0.000095926               0.000000000               0.000000000               0.000000000               0.000000000               0.000087748               0.000289880              -0.000000000              -0.000003330               0.000097736               0.000094406               0.000000000               0.000000000               0.000000000               0.000000000               0.000086259               0.000287581              -0.000000000              -0.000003600               0.000097059               0.000093459               0.000000000               0.000000000               0.000000000               0.000000000               0.000086522               0.000279752              -0.000000000              -0.000002523               0.000094091               0.000091567               0.000000000               0.000000000               0.000000000               0.000000000               0.000090584               0.000268236               0.000000000               0.000000439               0.000089265               0.000089704               0.000000000               0.000000000               0.000000000               0.000000000               0.000095061               0.000255526               0.000000000               0.000003707               0.000083939               0.000087646               0.000000000               0.000000000               0.000000000               0.000000000               0.000095984               0.000244166               0.000000000               0.000005473               0.000079564               0.000085037               0.000000000               0.000000000               0.000000000               0.000000000               0.000091593               0.000237789               0.000000000               0.000004624               0.000077721               0.000082345               0.000000000               0.000000000               0.000000000               0.000000000               0.000079724               0.000238014              -0.000000000               0.000000145               0.000079289               0.000079434               0.000000000               0.000000000               0.000000000               0.000000000               0.000059331               0.000245129               0.000000000              -0.000008392               0.000084506               0.000076114               0.000000000               0.000000000               0.000000000               0.000000000               0.000031685               0.000258205               0.000000000              -0.000020394               0.000092865               0.000072472               0.000000000               0.000000000               0.000000000               0.000000000               0.000018551               0.000271577               0.000000000              -0.000026990               0.000099521               0.000072531               0.000000000               0.000000000               0.000000000               0.000000000               0.000053554               0.000365976              -0.000031312              -0.000025664               0.000130546               0.000104881               0.000000000               0.000000000               0.000000000               0.000000000               0.000067368               0.000312394              -0.000018882              -0.000013786               0.000108726               0.000094939               0.000000000               0.000000000               0.000000000               0.000000000               0.000095230               0.000284470              -0.000004332               0.000000153               0.000094772               0.000094924               0.000000000               0.000000000               0.000000000               0.000000000               0.000101661               0.000283901               0.000003055               0.000002635               0.000093755               0.000096390               0.000000000               0.000000000               0.000000000               0.000000000               0.000098633               0.000293551               0.000002605               0.000000294               0.000097752               0.000098045               0.000000000               0.000000000               0.000000000               0.000000000               0.000092062               0.000295435              -0.000001508              -0.000002406               0.000099279               0.000096873               0.000000000               0.000000000               0.000000000               0.000000000               0.000089274               0.000292786              -0.000000753              -0.000003121               0.000098635               0.000095514               0.000000000               0.000000000               0.000000000               0.000000000               0.000091417               0.000292404              -0.000000034              -0.000002269               0.000098223               0.000095954               0.000000000               0.000000000               0.000000000               0.000000000               0.000093023               0.000287490              -0.000001799              -0.000001053               0.000096180               0.000095127               0.000000000               0.000000000               0.000000000               0.000000000               0.000095099               0.000280744              -0.000003183               0.000000569               0.000093391               0.000093960               0.000000000               0.000000000               0.000000000               0.000000000               0.000097591               0.000274799              -0.000004490               0.000002247               0.000090850               0.000093097               0.000000000               0.000000000               0.000000000               0.000000000               0.000096212               0.000270682              -0.000004711               0.000002244               0.000089478               0.000091722               0.000000000               0.000000000               0.000000000               0.000000000               0.000089357               0.000270900              -0.000003709              -0.000000354               0.000090417               0.000090063               0.000000000               0.000000000               0.000000000               0.000000000               0.000076797               0.000277211              -0.000002031              -0.000005853               0.000094354               0.000088501               0.000000000               0.000000000               0.000000000               0.000000000               0.000057119               0.000289941              -0.000000090              -0.000014823               0.000101587               0.000086764               0.000000000               0.000000000               0.000000000               0.000000000               0.000030393               0.000309220               0.000000970              -0.000027255               0.000112157               0.000084902               0.000000000               0.000000000               0.000000000               0.000000000               0.000018882               0.000328320              -0.000000495              -0.000033959               0.000120759               0.000086799               0.000000000               0.000000000               0.000000000               0.000000000               0.000065225               0.000364090              -0.000060229              -0.000021052               0.000128379               0.000107327               0.000000000               0.000000000               0.000000000               0.000000000               0.000074030               0.000310910              -0.000035137              -0.000011102               0.000107337               0.000096234               0.000000000               0.000000000               0.000000000               0.000000000               0.000095447               0.000288017              -0.000007483              -0.000000209               0.000096075               0.000095865               0.000000000               0.000000000               0.000000000               0.000000000               0.000097084               0.000292847               0.000006408              -0.000000199               0.000097681               0.000097482               0.000000000               0.000000000               0.000000000               0.000000000               0.000097591               0.000304868               0.000005690              -0.000001512               0.000102126               0.000100614               0.000000000               0.000000000               0.000000000               0.000000000               0.000100466               0.000309810              -0.000001895              -0.000001051               0.000103619               0.000102568               0.000000000               0.000000000               0.000000000               0.000000000               0.000105267               0.000312904              -0.000001800               0.000000362               0.000104180               0.000104542               0.000000000               0.000000000               0.000000000               0.000000000               0.000109959               0.000316035              -0.000002592               0.000001730               0.000104767               0.000106498               0.000000000               0.000000000               0.000000000               0.000000000               0.000110151               0.000318172              -0.000007541               0.000001535               0.000105544               0.000107080               0.000000000               0.000000000               0.000000000               0.000000000               0.000107567               0.000323381              -0.000011224              -0.000000085               0.000107821               0.000107736               0.000000000               0.000000000               0.000000000               0.000000000               0.000103849               0.000333239              -0.000014827              -0.000002712               0.000111983               0.000109271               0.000000000               0.000000000               0.000000000               0.000000000               0.000095638               0.000347504              -0.000016755              -0.000007574               0.000118358               0.000110784               0.000000000               0.000000000               0.000000000               0.000000000               0.000082267               0.000365585              -0.000016462              -0.000014848               0.000126810               0.000111962               0.000000000               0.000000000               0.000000000               0.000000000               0.000066364               0.000387996              -0.000014530              -0.000023613               0.000137202               0.000113589               0.000000000               0.000000000               0.000000000               0.000000000               0.000047609               0.000414800              -0.000010975              -0.000033996               0.000149597               0.000115601               0.000000000               0.000000000               0.000000000               0.000000000               0.000024756               0.000446534              -0.000005982              -0.000046533               0.000164354               0.000117821               0.000000000               0.000000000               0.000000000               0.000000000               0.000017353               0.000473810              -0.000006000              -0.000052719               0.000175508               0.000122789               0.000000000               0.000000000               0.000000000               0.000000000               0.000078490               0.000353325              -0.000083579              -0.000014732               0.000122685               0.000107953               0.000000000               0.000000000               0.000000000               0.000000000               0.000077849               0.000306786              -0.000047254              -0.000009155               0.000105313               0.000096158               0.000000000               0.000000000               0.000000000               0.000000000               0.000093922               0.000300171              -0.000008441              -0.000002300               0.000100823               0.000098522               0.000000000               0.000000000               0.000000000               0.000000000               0.000096495               0.000316690               0.000009715              -0.000003401               0.000106696               0.000103295               0.000000000               0.000000000               0.000000000               0.000000000               0.000102462               0.000334397               0.000007016              -0.000003377               0.000112590               0.000109214               0.000000000               0.000000000               0.000000000               0.000000000               0.000113784               0.000347355              -0.000004483              -0.000000750               0.000116034               0.000115284               0.000000000               0.000000000               0.000000000               0.000000000               0.000122861               0.000360750              -0.000008137               0.000000979               0.000119922               0.000120902               0.000000000               0.000000000               0.000000000               0.000000000               0.000129915               0.000373473              -0.000012033               0.000002034               0.000123812               0.000125846               0.000000000               0.000000000               0.000000000               0.000000000               0.000132386               0.000390176              -0.000019242               0.000000873               0.000129766               0.000130639               0.000000000               0.000000000               0.000000000               0.000000000               0.000127033               0.000411208              -0.000024834              -0.000003764               0.000138323               0.000134559               0.000000000               0.000000000               0.000000000               0.000000000               0.000119018               0.000439578              -0.000029088              -0.000010315               0.000149963               0.000139648               0.000000000               0.000000000               0.000000000               0.000000000               0.000105857               0.000473652              -0.000030996              -0.000019510               0.000164386               0.000144876               0.000000000               0.000000000               0.000000000               0.000000000               0.000086012               0.000510399              -0.000030476              -0.000031546               0.000180647               0.000149101               0.000000000               0.000000000               0.000000000               0.000000000               0.000064889               0.000549444              -0.000027421              -0.000044347               0.000197928               0.000153582               0.000000000               0.000000000               0.000000000               0.000000000               0.000043709               0.000589665              -0.000021465              -0.000057317               0.000215659               0.000158342               0.000000000               0.000000000               0.000000000               0.000000000               0.000021529               0.000629695              -0.000012168              -0.000070638               0.000233442               0.000162804               0.000000000               0.000000000               0.000000000               0.000000000               0.000015759               0.000658939              -0.000009815              -0.000076458               0.000245130               0.000168672               0.000000000               0.000000000               0.000000000               0.000000000               0.000091716               0.000341185              -0.000101872              -0.000008255               0.000116479               0.000108224               0.000000000               0.000000000               0.000000000               0.000000000               0.000082144               0.000310286              -0.000056907              -0.000007982               0.000106088               0.000098107               0.000000000               0.000000000               0.000000000               0.000000000               0.000092375               0.000326810              -0.000010421              -0.000006211               0.000111006               0.000104795               0.000000000               0.000000000               0.000000000               0.000000000               0.000097401               0.000357529               0.000007623              -0.000008166               0.000121897               0.000113731               0.000000000               0.000000000               0.000000000               0.000000000               0.000111122               0.000387677               0.000004057              -0.000006789               0.000131487               0.000124699               0.000000000               0.000000000               0.000000000               0.000000000               0.000133391               0.000418566              -0.000009261              -0.000002299               0.000140287               0.000137988               0.000000000               0.000000000               0.000000000               0.000000000               0.000147696               0.000445922              -0.000015822              -0.000000354               0.000148757               0.000148403               0.000000000               0.000000000               0.000000000               0.000000000               0.000154761               0.000474221              -0.000021320              -0.000001242               0.000158486               0.000157244               0.000000000               0.000000000               0.000000000               0.000000000               0.000153091               0.000505763              -0.000030091              -0.000005811               0.000170523               0.000164712               0.000000000               0.000000000               0.000000000               0.000000000               0.000143715               0.000541490              -0.000036546              -0.000013793               0.000185093               0.000171300               0.000000000               0.000000000               0.000000000               0.000000000               0.000132956               0.000584531              -0.000039930              -0.000023208               0.000202578               0.000179370               0.000000000               0.000000000               0.000000000               0.000000000               0.000116762               0.000630520              -0.000040622              -0.000035029               0.000221848               0.000186819               0.000000000               0.000000000               0.000000000               0.000000000               0.000094292               0.000677054              -0.000038285              -0.000049272               0.000242106               0.000192834               0.000000000               0.000000000               0.000000000               0.000000000               0.000070703               0.000723441              -0.000033067              -0.000063916               0.000262450               0.000198534               0.000000000               0.000000000               0.000000000               0.000000000               0.000047073               0.000767847              -0.000024804              -0.000078328               0.000282056               0.000203728               0.000000000               0.000000000               0.000000000               0.000000000               0.000022996               0.000808317              -0.000013520              -0.000092416               0.000300242               0.000207826               0.000000000               0.000000000               0.000000000               0.000000000               0.000016233               0.000835583              -0.000010133              -0.000098360               0.000311312               0.000212952               0.000000000               0.000000000               0.000000000               0.000000000               0.000108529               0.000332007              -0.000117270              -0.000000803               0.000110935               0.000110133               0.000000000               0.000000000               0.000000000               0.000000000               0.000089415               0.000322160              -0.000067498              -0.000006740               0.000109632               0.000102893               0.000000000               0.000000000               0.000000000               0.000000000               0.000092873               0.000366685              -0.000016916              -0.000011008               0.000125897               0.000114888               0.000000000               0.000000000               0.000000000               0.000000000               0.000105304               0.000420494               0.000002147              -0.000013073               0.000144521               0.000131448               0.000000000               0.000000000               0.000000000               0.000000000               0.000131603               0.000469279              -0.000000033              -0.000009309               0.000159528               0.000150219               0.000000000               0.000000000               0.000000000               0.000000000               0.000160044               0.000509442              -0.000015157              -0.000003664               0.000171033               0.000167370               0.000000000               0.000000000               0.000000000               0.000000000               0.000174114               0.000547284              -0.000024622              -0.000003118               0.000183465               0.000180348               0.000000000               0.000000000               0.000000000               0.000000000               0.000177914               0.000589294              -0.000031789              -0.000006944               0.000198744               0.000191800               0.000000000               0.000000000               0.000000000               0.000000000               0.000170123               0.000632386              -0.000041295              -0.000015252               0.000215877               0.000200625               0.000000000               0.000000000               0.000000000               0.000000000               0.000155915               0.000679929              -0.000046546              -0.000026523               0.000235482               0.000208959               0.000000000               0.000000000               0.000000000               0.000000000               0.000140527               0.000731561              -0.000047269              -0.000038747               0.000256767               0.000218020               0.000000000               0.000000000               0.000000000               0.000000000               0.000120617               0.000783671              -0.000045336              -0.000052727               0.000278797               0.000226069               0.000000000               0.000000000               0.000000000               0.000000000               0.000095871               0.000833177              -0.000040432              -0.000068195               0.000300455               0.000232259               0.000000000               0.000000000               0.000000000               0.000000000               0.000071562               0.000880404              -0.000033076              -0.000083214               0.000321203               0.000237989               0.000000000               0.000000000               0.000000000               0.000000000               0.000047690               0.000924250              -0.000023497              -0.000097647               0.000340629               0.000242982               0.000000000               0.000000000               0.000000000               0.000000000               0.000023073               0.000963555              -0.000012238              -0.000111792               0.000358446               0.000246654               0.000000000               0.000000000               0.000000000               0.000000000               0.000016154               0.000990344              -0.000009340              -0.000117735               0.000369356               0.000251621               0.000000000               0.000000000               0.000000000               0.000000000               0.000123423               0.000324335              -0.000127497               0.000005742               0.000106197               0.000111938               0.000000000               0.000000000               0.000000000               0.000000000               0.000097069               0.000338518              -0.000077156              -0.000005914               0.000114810               0.000108895               0.000000000               0.000000000               0.000000000               0.000000000               0.000099291               0.000416850              -0.000025080              -0.000014872               0.000143906               0.000129034               0.000000000               0.000000000               0.000000000               0.000000000               0.000121830               0.000491899              -0.000005404              -0.000015801               0.000169232               0.000153431               0.000000000               0.000000000               0.000000000               0.000000000               0.000156171               0.000549520              -0.000009975              -0.000010126               0.000186547               0.000176421               0.000000000               0.000000000               0.000000000               0.000000000               0.000187139               0.000592978              -0.000025008              -0.000003945               0.000198972               0.000195027               0.000000000               0.000000000               0.000000000               0.000000000               0.000199090               0.000640536              -0.000032938              -0.000005408               0.000215312               0.000209904               0.000000000               0.000000000               0.000000000               0.000000000               0.000195305               0.000691570              -0.000039448              -0.000013207               0.000234923               0.000221717               0.000000000               0.000000000               0.000000000               0.000000000               0.000180791               0.000743476              -0.000047458              -0.000025138               0.000256202               0.000231064               0.000000000               0.000000000               0.000000000               0.000000000               0.000162847               0.000800996              -0.000050312              -0.000039057               0.000280015               0.000240958               0.000000000               0.000000000               0.000000000               0.000000000               0.000144006               0.000860972              -0.000048178              -0.000053619               0.000304861               0.000251242               0.000000000               0.000000000               0.000000000               0.000000000               0.000119744               0.000918845              -0.000044050              -0.000069951               0.000329596               0.000259644               0.000000000               0.000000000               0.000000000               0.000000000               0.000093223               0.000974089              -0.000037853              -0.000086802               0.000353627               0.000266825               0.000000000               0.000000000               0.000000000               0.000000000               0.000068984               0.001027242              -0.000029524              -0.000102536               0.000376589               0.000274053               0.000000000               0.000000000               0.000000000               0.000000000               0.000045135               0.001077150              -0.000020345              -0.000117718               0.000398286               0.000280568               0.000000000               0.000000000               0.000000000               0.000000000               0.000021594               0.001122323              -0.000010577              -0.000132192               0.000418168               0.000285976               0.000000000               0.000000000               0.000000000               0.000000000               0.000015694               0.001152517              -0.000008781              -0.000138179               0.000430228               0.000292049               0.000000000               0.000000000               0.000000000               0.000000000               0.000131560               0.000312006              -0.000132000               0.000010334               0.000100556               0.000110890               0.000000000               0.000000000               0.000000000               0.000000000               0.000104397               0.000355663              -0.000085316              -0.000005309               0.000120323               0.000115014               0.000000000               0.000000000               0.000000000               0.000000000               0.000107641               0.000467420              -0.000035782              -0.000018062               0.000161826               0.000143764               0.000000000               0.000000000               0.000000000               0.000000000               0.000137668               0.000554212              -0.000016529              -0.000017651               0.000190619               0.000172968               0.000000000               0.000000000               0.000000000               0.000000000               0.000177981               0.000613565              -0.000017759              -0.000009953               0.000207837               0.000197884               0.000000000               0.000000000               0.000000000               0.000000000               0.000209526               0.000665340              -0.000028350              -0.000004595               0.000223309               0.000218714               0.000000000               0.000000000               0.000000000               0.000000000               0.000215574               0.000723674              -0.000034637              -0.000009619               0.000244429               0.000234810               0.000000000               0.000000000               0.000000000               0.000000000               0.000203274               0.000783633              -0.000041364              -0.000021726               0.000268450               0.000246724               0.000000000               0.000000000               0.000000000               0.000000000               0.000185426               0.000846736              -0.000047838              -0.000036307               0.000294345               0.000258038               0.000000000               0.000000000               0.000000000               0.000000000               0.000166626               0.000916224              -0.000047188              -0.000052043               0.000322753               0.000270709               0.000000000               0.000000000               0.000000000               0.000000000               0.000145579               0.000987223              -0.000044154              -0.000068811               0.000352008               0.000283197               0.000000000               0.000000000               0.000000000               0.000000000               0.000120539               0.001054932              -0.000039066              -0.000086664               0.000380529               0.000293864               0.000000000               0.000000000               0.000000000               0.000000000               0.000095624               0.001121371              -0.000031596              -0.000104312               0.000408557               0.000304245               0.000000000               0.000000000               0.000000000               0.000000000               0.000071249               0.001185379              -0.000023311              -0.000121454               0.000435607               0.000314153               0.000000000               0.000000000               0.000000000               0.000000000               0.000046667               0.001244521              -0.000014954              -0.000138065               0.000460858               0.000322793               0.000000000               0.000000000               0.000000000               0.000000000               0.000022750               0.001297816              -0.000007425              -0.000153695               0.000483833               0.000330137               0.000000000               0.000000000               0.000000000               0.000000000               0.000015259               0.001331781              -0.000006921              -0.000160750               0.000497506               0.000336756               0.000000000               0.000000000               0.000000000               0.000000000               0.000142724               0.000293386              -0.000132132               0.000016848               0.000092178               0.000109026               0.000000000               0.000000000               0.000000000               0.000000000               0.000115779               0.000365680              -0.000092738              -0.000002293               0.000122656               0.000120364               0.000000000               0.000000000               0.000000000               0.000000000               0.000116260               0.000503350              -0.000046960              -0.000019321               0.000174222               0.000154901               0.000000000               0.000000000               0.000000000               0.000000000               0.000144666               0.000598014              -0.000025299              -0.000020502               0.000206170               0.000185668               0.000000000               0.000000000               0.000000000               0.000000000               0.000185291               0.000658911              -0.000018626              -0.000012880               0.000223928               0.000211048               0.000000000               0.000000000               0.000000000               0.000000000               0.000218021               0.000719139              -0.000023028              -0.000008134               0.000242422               0.000234288               0.000000000               0.000000000               0.000000000               0.000000000               0.000221547               0.000788142              -0.000030222              -0.000015437               0.000267857               0.000252420               0.000000000               0.000000000               0.000000000               0.000000000               0.000209933               0.000858176              -0.000039032              -0.000028547               0.000295572               0.000267025               0.000000000               0.000000000               0.000000000               0.000000000               0.000196480               0.000933232              -0.000044424              -0.000042974               0.000325399               0.000282425               0.000000000               0.000000000               0.000000000               0.000000000               0.000180202               0.001013175              -0.000042847              -0.000059071               0.000357412               0.000298341               0.000000000               0.000000000               0.000000000               0.000000000               0.000160010               0.001092101              -0.000039768              -0.000076509               0.000389533               0.000313024               0.000000000               0.000000000               0.000000000               0.000000000               0.000137761               0.001168313              -0.000034064              -0.000094379               0.000420893               0.000326515               0.000000000               0.000000000               0.000000000               0.000000000               0.000115258               0.001243048              -0.000025322              -0.000112159               0.000451732               0.000339573               0.000000000               0.000000000               0.000000000               0.000000000               0.000091501               0.001314366              -0.000016794              -0.000129982               0.000481445               0.000351463               0.000000000               0.000000000               0.000000000               0.000000000               0.000068245               0.001381209              -0.000008745              -0.000147059               0.000509418               0.000362359               0.000000000               0.000000000               0.000000000               0.000000000               0.000048035               0.001443758              -0.000002075              -0.000162456               0.000535400               0.000372944               0.000000000               0.000000000               0.000000000               0.000000000               0.000037376               0.001477073              -0.000000040              -0.000170618               0.000549225               0.000378607               0.000000000               0.000000000               0.000000000               0.000000000               0.000151995               0.000266732              -0.000128046               0.000023656               0.000081024               0.000104681               0.000000000               0.000000000               0.000000000               0.000000000               0.000124268               0.000353203              -0.000099585               0.000002450               0.000116917               0.000119366               0.000000000               0.000000000               0.000000000               0.000000000               0.000120049               0.000504617              -0.000060766              -0.000018059               0.000174224               0.000156165               0.000000000               0.000000000               0.000000000               0.000000000               0.000142956               0.000607553              -0.000035997              -0.000022336               0.000209961               0.000187625               0.000000000               0.000000000               0.000000000               0.000000000               0.000182170               0.000682504              -0.000023564              -0.000016999               0.000233166               0.000216166               0.000000000               0.000000000               0.000000000               0.000000000               0.000223342               0.000753684              -0.000020075              -0.000010457               0.000254711               0.000244254               0.000000000               0.000000000               0.000000000               0.000000000               0.000239549               0.000825785              -0.000026326              -0.000013392               0.000279723               0.000266331               0.000000000               0.000000000               0.000000000               0.000000000               0.000235462               0.000898707              -0.000036939              -0.000024040               0.000307579               0.000283539               0.000000000               0.000000000               0.000000000               0.000000000               0.000225704               0.000971572              -0.000043094              -0.000036807               0.000336123               0.000299316               0.000000000               0.000000000               0.000000000               0.000000000               0.000213657               0.001047733              -0.000044378              -0.000050845               0.000366189               0.000315344               0.000000000               0.000000000               0.000000000               0.000000000               0.000198749               0.001127328              -0.000042167              -0.000066385               0.000397900               0.000331515               0.000000000               0.000000000               0.000000000               0.000000000               0.000179590               0.001203345              -0.000036729              -0.000083072               0.000428801               0.000345730               0.000000000               0.000000000               0.000000000               0.000000000               0.000159351               0.001278544              -0.000028917              -0.000100061               0.000459531               0.000359470               0.000000000               0.000000000               0.000000000               0.000000000               0.000138679               0.001353854              -0.000019477              -0.000117227               0.000490356               0.000373129               0.000000000               0.000000000               0.000000000               0.000000000               0.000117883               0.001428203              -0.000010225              -0.000134319               0.000520836               0.000386517               0.000000000               0.000000000               0.000000000               0.000000000               0.000099797               0.001502126              -0.000003094              -0.000150342               0.000550818               0.000400476               0.000000000               0.000000000               0.000000000               0.000000000               0.000084666               0.001533463               0.000002482              -0.000159933               0.000564460               0.000404527               0.000000000               0.000000000               0.000000000               0.000000000               0.000148231               0.000232968              -0.000116736               0.000026465               0.000068833               0.000095299               0.000000000               0.000000000               0.000000000               0.000000000               0.000128413               0.000326310              -0.000100490               0.000007366               0.000106314               0.000113680               0.000000000               0.000000000               0.000000000               0.000000000               0.000123913               0.000481960              -0.000073395              -0.000013778               0.000165244               0.000151467               0.000000000               0.000000000               0.000000000               0.000000000               0.000144066               0.000595753              -0.000049005              -0.000020444               0.000205397               0.000184953               0.000000000               0.000000000               0.000000000               0.000000000               0.000181137               0.000691485              -0.000032142              -0.000018509               0.000236663               0.000218153               0.000000000               0.000000000               0.000000000               0.000000000               0.000226094               0.000773677              -0.000021720              -0.000011924               0.000261865               0.000249940               0.000000000               0.000000000               0.000000000               0.000000000               0.000256823               0.000848658              -0.000021864              -0.000009774               0.000286141               0.000276368               0.000000000               0.000000000               0.000000000               0.000000000               0.000262407               0.000920512              -0.000029297              -0.000016661               0.000312388               0.000295727               0.000000000               0.000000000               0.000000000               0.000000000               0.000256797               0.000988989              -0.000036302              -0.000027324               0.000338768               0.000311443               0.000000000               0.000000000               0.000000000               0.000000000               0.000248959               0.001058316              -0.000040178              -0.000038930               0.000365745               0.000326816               0.000000000               0.000000000               0.000000000               0.000000000               0.000239573               0.001133596              -0.000040002              -0.000051859               0.000395148               0.000343289               0.000000000               0.000000000               0.000000000               0.000000000               0.000228260               0.001210172              -0.000036437              -0.000065674               0.000425278               0.000359604               0.000000000               0.000000000               0.000000000               0.000000000               0.000214243               0.001284212              -0.000031376              -0.000080185               0.000454795               0.000374610               0.000000000               0.000000000               0.000000000               0.000000000               0.000198769               0.001356455              -0.000023880              -0.000095018               0.000483820               0.000388802               0.000000000               0.000000000               0.000000000               0.000000000               0.000183554               0.001432072              -0.000014629              -0.000110176               0.000514078               0.000403902               0.000000000               0.000000000               0.000000000               0.000000000               0.000166737               0.001505186              -0.000006349              -0.000125622               0.000543598               0.000417976               0.000000000               0.000000000               0.000000000               0.000000000               0.000148000               0.001531224               0.000001032              -0.000135903               0.000555704               0.000419801               0.000000000               0.000000000               0.000000000               0.000000000               0.000134266               0.000186231              -0.000098998               0.000027071               0.000053053               0.000080123               0.000000000               0.000000000               0.000000000               0.000000000               0.000131071               0.000286432              -0.000095736               0.000013348               0.000091027               0.000104375               0.000000000               0.000000000               0.000000000               0.000000000               0.000135644               0.000447723              -0.000081703              -0.000005099               0.000150939               0.000145840               0.000000000               0.000000000               0.000000000               0.000000000               0.000154225               0.000579564              -0.000061625              -0.000014611               0.000198056               0.000183445               0.000000000               0.000000000               0.000000000               0.000000000               0.000185392               0.000693231              -0.000043116              -0.000017132               0.000236785               0.000219653               0.000000000               0.000000000               0.000000000               0.000000000               0.000225875               0.000785316              -0.000027021              -0.000013461               0.000266256               0.000252795               0.000000000               0.000000000               0.000000000               0.000000000               0.000261367               0.000863913              -0.000018285              -0.000009976               0.000291294               0.000281317               0.000000000               0.000000000               0.000000000               0.000000000               0.000278718               0.000937083              -0.000019204              -0.000012616               0.000316563               0.000303947               0.000000000               0.000000000               0.000000000               0.000000000               0.000281648               0.001005510              -0.000025511              -0.000020071               0.000341857               0.000321786               0.000000000               0.000000000               0.000000000               0.000000000               0.000279609               0.001070310              -0.000031219              -0.000028935               0.000366411               0.000337476               0.000000000               0.000000000               0.000000000               0.000000000               0.000276096               0.001139604              -0.000033884              -0.000038915               0.000392836               0.000353921               0.000000000               0.000000000               0.000000000               0.000000000               0.000273088               0.001214835              -0.000033190              -0.000049446               0.000421423               0.000371977               0.000000000               0.000000000               0.000000000               0.000000000               0.000268206               0.001290795              -0.000030206              -0.000060772               0.000450518               0.000389746               0.000000000               0.000000000               0.000000000               0.000000000               0.000259434               0.001361070              -0.000025823              -0.000072846               0.000477967               0.000405122               0.000000000               0.000000000               0.000000000               0.000000000               0.000250335               0.001434087              -0.000019078              -0.000085385               0.000506486               0.000421101               0.000000000               0.000000000               0.000000000               0.000000000               0.000239344               0.001508917              -0.000009950              -0.000098860               0.000535921               0.000437060               0.000000000               0.000000000               0.000000000               0.000000000               0.000223639               0.001538827              -0.000002078              -0.000108489               0.000549100               0.000440612               0.000000000               0.000000000               0.000000000               0.000000000               0.000117500               0.000144149              -0.000076940               0.000026044               0.000039368               0.000065412               0.000000000               0.000000000               0.000000000               0.000000000               0.000131588               0.000247297              -0.000085985               0.000018433               0.000076287               0.000094720               0.000000000               0.000000000               0.000000000               0.000000000               0.000149505               0.000413043              -0.000083660               0.000004434               0.000136202               0.000140636               0.000000000               0.000000000               0.000000000               0.000000000               0.000169911               0.000556895              -0.000068373              -0.000005895               0.000187595               0.000181700               0.000000000               0.000000000               0.000000000               0.000000000               0.000194708               0.000679069              -0.000050401              -0.000011868               0.000230310               0.000218442               0.000000000               0.000000000               0.000000000               0.000000000               0.000225887               0.000780060              -0.000031875              -0.000012800               0.000264284               0.000251484               0.000000000               0.000000000               0.000000000               0.000000000               0.000261413               0.000867399              -0.000017319              -0.000010395               0.000292595               0.000282200               0.000000000               0.000000000               0.000000000               0.000000000               0.000288785               0.000947844              -0.000012042              -0.000010186               0.000319340               0.000309154               0.000000000               0.000000000               0.000000000               0.000000000               0.000303890               0.001021671              -0.000015273              -0.000013750               0.000345137               0.000331387               0.000000000               0.000000000               0.000000000               0.000000000               0.000310072               0.001087050              -0.000020721              -0.000019604               0.000368881               0.000349277               0.000000000               0.000000000               0.000000000               0.000000000               0.000312261               0.001150807              -0.000024936              -0.000026753               0.000392516               0.000365763               0.000000000               0.000000000               0.000000000               0.000000000               0.000314304               0.001220410              -0.000026585              -0.000034687               0.000418362               0.000383674               0.000000000               0.000000000               0.000000000               0.000000000               0.000316955               0.001294917              -0.000024929              -0.000043007               0.000445970               0.000402964               0.000000000               0.000000000               0.000000000               0.000000000               0.000317275               0.001368029              -0.000021834              -0.000052025               0.000473347               0.000421322               0.000000000               0.000000000               0.000000000               0.000000000               0.000315124               0.001437822              -0.000017760              -0.000061556               0.000499788               0.000438232               0.000000000               0.000000000               0.000000000               0.000000000               0.000312115               0.001508374              -0.000010072              -0.000071504               0.000526621               0.000455117               0.000000000               0.000000000               0.000000000               0.000000000               0.000304824               0.001541544              -0.000003219              -0.000078384               0.000539971               0.000461587               0.000000000               0.000000000               0.000000000               0.000000000               0.000098305               0.000115666              -0.000055185               0.000022406               0.000031086               0.000053492               0.000000000               0.000000000               0.000000000               0.000000000               0.000131459               0.000214107              -0.000070899               0.000022534               0.000063857               0.000086391               0.000000000               0.000000000               0.000000000               0.000000000               0.000163719               0.000376208              -0.000076389               0.000014368               0.000120612               0.000134980               0.000000000               0.000000000               0.000000000               0.000000000               0.000187167               0.000523217              -0.000065954               0.000004785               0.000172809               0.000177594               0.000000000               0.000000000               0.000000000               0.000000000               0.000208601               0.000652592              -0.000050275              -0.000003348               0.000218645               0.000215296               0.000000000               0.000000000               0.000000000               0.000000000               0.000234734               0.000766195              -0.000033528              -0.000007749               0.000257979               0.000250230               0.000000000               0.000000000               0.000000000               0.000000000               0.000266916               0.000865646              -0.000018286              -0.000008112               0.000291250               0.000283138               0.000000000               0.000000000               0.000000000               0.000000000               0.000298082               0.000954386              -0.000009304              -0.000007517               0.000320631               0.000313114               0.000000000               0.000000000               0.000000000               0.000000000               0.000320928               0.001033608              -0.000008322              -0.000008853               0.000347484               0.000338631               0.000000000               0.000000000               0.000000000               0.000000000               0.000335484               0.001102831              -0.000010794              -0.000012047               0.000371622               0.000359575               0.000000000               0.000000000               0.000000000               0.000000000               0.000344042               0.001164184              -0.000013971              -0.000016507               0.000393560               0.000377053               0.000000000               0.000000000               0.000000000               0.000000000               0.000350731               0.001227876              -0.000016508              -0.000021960               0.000416608               0.000394648               0.000000000               0.000000000               0.000000000               0.000000000               0.000358740               0.001297453              -0.000016511              -0.000027654               0.000441698               0.000414044               0.000000000               0.000000000               0.000000000               0.000000000               0.000368485               0.001372783              -0.000014490              -0.000033416               0.000468729               0.000435312               0.000000000               0.000000000               0.000000000               0.000000000               0.000376006               0.001443533              -0.000011661              -0.000039439               0.000494319               0.000454880               0.000000000               0.000000000               0.000000000               0.000000000               0.000381955               0.001508722              -0.000007360              -0.000045357               0.000518021               0.000472664               0.000000000               0.000000000               0.000000000               0.000000000               0.000382668               0.001540519              -0.000003448              -0.000049064               0.000529856               0.000480792               0.000000000               0.000000000               0.000000000               0.000000000               0.000079067               0.000093173              -0.000035294               0.000018003               0.000025056               0.000043060               0.000000000               0.000000000               0.000000000               0.000000000               0.000130951               0.000185385              -0.000050382               0.000025933               0.000053150               0.000079083               0.000000000               0.000000000               0.000000000               0.000000000               0.000176500               0.000342246              -0.000058210               0.000023406               0.000106279               0.000129685               0.000000000               0.000000000               0.000000000               0.000000000               0.000204355               0.000490465              -0.000052513               0.000015325               0.000158378               0.000173703               0.000000000               0.000000000               0.000000000               0.000000000               0.000225144               0.000624745              -0.000042332               0.000006336               0.000206134               0.000212470               0.000000000               0.000000000               0.000000000               0.000000000               0.000248549               0.000747809              -0.000030458              -0.000000270               0.000249357               0.000249087               0.000000000               0.000000000               0.000000000               0.000000000               0.000275661               0.000857628              -0.000017508              -0.000003831               0.000287150               0.000283319               0.000000000               0.000000000               0.000000000               0.000000000               0.000305541               0.000954615              -0.000007384              -0.000004749               0.000319785               0.000315036               0.000000000               0.000000000               0.000000000               0.000000000               0.000331984               0.001039513              -0.000003816              -0.000005445               0.000348316               0.000342871               0.000000000               0.000000000               0.000000000               0.000000000               0.000353107               0.001114356              -0.000004071              -0.000006879               0.000373741               0.000366862               0.000000000               0.000000000               0.000000000               0.000000000               0.000368785               0.001177942              -0.000005409              -0.000008948               0.000395626               0.000386678               0.000000000               0.000000000               0.000000000               0.000000000               0.000381290               0.001237717              -0.000007328              -0.000011731               0.000416479               0.000404748               0.000000000               0.000000000               0.000000000               0.000000000               0.000394201               0.001302107              -0.000008079              -0.000014938               0.000439010               0.000424073               0.000000000               0.000000000               0.000000000               0.000000000               0.000409539               0.001373579              -0.000007084              -0.000018120               0.000463895               0.000445775               0.000000000               0.000000000               0.000000000               0.000000000               0.000425279               0.001445168              -0.000004916              -0.000021166               0.000488773               0.000467607               0.000000000               0.000000000               0.000000000               0.000000000               0.000440180               0.001512062              -0.000003161              -0.000023940               0.000511995               0.000488055               0.000000000               0.000000000               0.000000000               0.000000000               0.000446575               0.001543844              -0.000001935              -0.000025515               0.000523114               0.000497600               0.000000000               0.000000000               0.000000000               0.000000000               0.000065095               0.000078940              -0.000016666               0.000014543               0.000021466               0.000036009               0.000000000               0.000000000               0.000000000               0.000000000               0.000128643               0.000166760              -0.000025892               0.000027396               0.000046454               0.000073850               0.000000000               0.000000000               0.000000000               0.000000000               0.000185196               0.000319282              -0.000031611               0.000029538               0.000096580               0.000126118               0.000000000               0.000000000               0.000000000               0.000000000               0.000217548               0.000466219              -0.000029315               0.000023303               0.000147637               0.000170940               0.000000000               0.000000000               0.000000000               0.000000000               0.000239992               0.000603572              -0.000024292               0.000014550               0.000196339               0.000210889               0.000000000               0.000000000               0.000000000               0.000000000               0.000260425               0.000732481              -0.000017996               0.000006099               0.000242125               0.000248224               0.000000000               0.000000000               0.000000000               0.000000000               0.000282768               0.000847656              -0.000010859               0.000000081               0.000282522               0.000282603               0.000000000               0.000000000               0.000000000               0.000000000               0.000309908               0.000951112              -0.000004703              -0.000002673               0.000317925               0.000315252               0.000000000               0.000000000               0.000000000               0.000000000               0.000338263               0.001042393              -0.000001887              -0.000003451               0.000348611               0.000345160               0.000000000               0.000000000               0.000000000               0.000000000               0.000363203               0.001121119              -0.000001263              -0.000003939               0.000375015               0.000371077               0.000000000               0.000000000               0.000000000               0.000000000               0.000383936               0.001187372              -0.000001363              -0.000004445               0.000397269               0.000392823               0.000000000               0.000000000               0.000000000               0.000000000               0.000401270               0.001245026              -0.000002096              -0.000005152               0.000416722               0.000411570               0.000000000               0.000000000               0.000000000               0.000000000               0.000418459               0.001305282              -0.000002440              -0.000006238               0.000437169               0.000430931               0.000000000               0.000000000               0.000000000               0.000000000               0.000437219               0.001372051              -0.000002037              -0.000007549               0.000459862               0.000452313               0.000000000               0.000000000               0.000000000               0.000000000               0.000457542               0.001443590              -0.000000997              -0.000008870               0.000484149               0.000475278               0.000000000               0.000000000               0.000000000               0.000000000               0.000477796               0.001514929              -0.000000439              -0.000010193               0.000508369               0.000498176               0.000000000               0.000000000               0.000000000               0.000000000               0.000486548               0.001548267              -0.000000198              -0.000011078               0.000519776               0.000508699               0.000000000               0.000000000               0.000000000               0.000000000               0.000059765               0.000075348              -0.000000000               0.000012993               0.000020784               0.000033778               0.000000000               0.000000000               0.000000000               0.000000000               0.000126701               0.000160811              -0.000000000               0.000027411               0.000044466               0.000071877               0.000000000               0.000000000               0.000000000               0.000000000               0.000188282               0.000310824              -0.000000000               0.000031752               0.000093023               0.000124775               0.000000000               0.000000000               0.000000000               0.000000000               0.000222325               0.000456862              -0.000000000               0.000026264               0.000143531               0.000169795               0.000000000               0.000000000               0.000000000               0.000000000               0.000245330               0.000594844               0.000000000               0.000017643               0.000192398               0.000210041               0.000000000               0.000000000               0.000000000               0.000000000               0.000265329               0.000725566               0.000000000               0.000008802               0.000238919               0.000247721               0.000000000               0.000000000               0.000000000               0.000000000               0.000286634               0.000843895              -0.000000000               0.000002001               0.000280629               0.000282629               0.000000000               0.000000000               0.000000000               0.000000000               0.000312441               0.000950616               0.000000000              -0.000001662               0.000317423               0.000315761               0.000000000               0.000000000               0.000000000               0.000000000               0.000340240               0.001043460              -0.000000000              -0.000002843               0.000348764               0.000345921               0.000000000               0.000000000               0.000000000               0.000000000               0.000366091               0.001122792              -0.000000000              -0.000003065               0.000375282               0.000372217               0.000000000               0.000000000               0.000000000               0.000000000               0.000388841               0.001190334              -0.000000000              -0.000002977               0.000397766               0.000394790               0.000000000               0.000000000               0.000000000               0.000000000               0.000408108               0.001247435               0.000000000              -0.000002889               0.000416770               0.000413881               0.000000000               0.000000000               0.000000000               0.000000000               0.000427142               0.001306071              -0.000000000              -0.000003081               0.000436380               0.000433299               0.000000000               0.000000000               0.000000000               0.000000000               0.000447330               0.001370906              -0.000000000              -0.000003615               0.000458169               0.000454554               0.000000000               0.000000000               0.000000000               0.000000000               0.000468862               0.001442042               0.000000000              -0.000004432               0.000482153               0.000477721               0.000000000               0.000000000               0.000000000               0.000000000               0.000490354               0.001515393               0.000000000              -0.000005541               0.000506973               0.000501432               0.000000000               0.000000000               0.000000000               0.000000000               0.000499406               0.001549702               0.000000000              -0.000006436               0.000518707               0.000512272               0.000000000               0.000000000               0.000000000               0.000000000               0.000000000               0.000000000               0.000000000               0.000000000               0.000000000               0.000000000               0.000000000               0.000000000               0.000000000               0.000000000               0.000000000               0.000000000               0.000000000               0.000000000               0.000000000               0.000000000               0.000000000               0.000000000               0.000000000               0.000000000               0.000000000               0.000000000               0.000000000               0.000000000               0.000000000               0.000000000               0.000000000               0.000000000               0.000000000               0.000000000               0.000000000               0.000000000               0.000000000               0.000000000               0.000000000               0.000000000               0.000000000               0.000000000               0.000000000               0.000000000               0.000000000               0.000000000               0.000000000               0.000000000               0.000000000               0.000000000               0.000000000               0.000000000               0.000000000               0.000000000               0.000000000               0.000000000               0.000000000               0.000000000               0.000000000               0.000000000               0.000000000               0.000000000               0.000000000               0.000000000               0.000000000               0.000000000               0.000000000               0.000000000               0.000000000               0.000000000               0.000000000               0.000000000               0.000000000               0.000000000               0.000000000               0.000000000               0.000000000               0.000000000               0.000000000               0.000000000               0.000000000               0.000000000               0.000000000               0.000000000               0.000000000               0.000000000               0.000000000               0.000000000               0.000000000               0.000000000               0.000000000               0.000000000               0.000000000               0.000000000               0.000000000               0.000000000               0.000000000               0.000000000               0.000000000               0.000000000               0.000000000               0.000000000               0.000000000               0.000000000               0.000000000               0.000000000               0.000000000               0.000000000               0.000000000               0.000000000               0.000000000               0.000000000               0.000000000               0.000000000               0.000000000               0.000000000               0.000000000               0.000000000               0.000000000               0.000000000               0.000000000               0.000000000               0.000000000               0.000000000               0.000000000               0.000000000               0.000000000               0.000000000               0.000000000               0.000000000               0.000000000               0.000000000               0.000000000               0.000000000               0.000000000               0.000000000               0.000000000               0.000000000               0.000000000               0.000000000               0.000000000               0.000000000               0.000000000               0.000000000               0.000000000               0.000000000               0.000000000               0.000000000               0.000000000               0.000000000               0.000000000               0.000000000               0.000000000               0.000000000               0.000000000               0.000000000               0.000000000               0.000000000               0.000000000               0.000000000               0.000000000               0.000000000               0.000000000               0.000000000               0.000000000               0.000000000               0.000000000               0.000000000               0.000000000               0.000000000               0.000000000               0.000000000               0.000000000               0.000000000               0.000053554               0.000365976               0.000031312              -0.000025664               0.000130546               0.000104881               0.000000000               0.000000000               0.000000000               0.000000000               0.000067368               0.000312394               0.000018882              -0.000013786               0.000108726               0.000094939               0.000000000               0.000000000               0.000000000               0.000000000               0.000095230               0.000284470               0.000004332               0.000000153               0.000094772               0.000094924               0.000000000               0.000000000               0.000000000               0.000000000               0.000101661               0.000283901              -0.000003055               0.000002635               0.000093755               0.000096390               0.000000000               0.000000000               0.000000000               0.000000000               0.000098633               0.000293551              -0.000002605               0.000000294               0.000097752               0.000098045               0.000000000               0.000000000               0.000000000               0.000000000               0.000092062               0.000295435               0.000001508              -0.000002406               0.000099279               0.000096873               0.000000000               0.000000000               0.000000000               0.000000000               0.000089274               0.000292786               0.000000753              -0.000003121               0.000098635               0.000095514               0.000000000               0.000000000               0.000000000               0.000000000               0.000091417               0.000292404               0.000000034              -0.000002269               0.000098223               0.000095954               0.000000000               0.000000000               0.000000000               0.000000000               0.000093023               0.000287490               0.000001799              -0.000001053               0.000096180               0.000095127               0.000000000               0.000000000               0.000000000               0.000000000               0.000095099               0.000280744               0.000003183               0.000000569               0.000093391               0.000093960               0.000000000               0.000000000               0.000000000               0.000000000               0.000097591               0.000274799               0.000004490               0.000002247               0.000090850               0.000093097               0.000000000               0.000000000               0.000000000               0.000000000               0.000096212               0.000270682               0.000004711               0.000002244               0.000089478               0.000091722               0.000000000               0.000000000               0.000000000               0.000000000               0.000089357               0.000270900               0.000003709              -0.000000354               0.000090417               0.000090063               0.000000000               0.000000000               0.000000000               0.000000000               0.000076797               0.000277211               0.000002031              -0.000005853               0.000094354               0.000088501               0.000000000               0.000000000               0.000000000               0.000000000               0.000057119               0.000289941               0.000000090              -0.000014823               0.000101587               0.000086764               0.000000000               0.000000000               0.000000000               0.000000000               0.000030393               0.000309220              -0.000000970              -0.000027255               0.000112157               0.000084902               0.000000000               0.000000000               0.000000000               0.000000000               0.000018882               0.000328320               0.000000495              -0.000033959               0.000120759               0.000086799               0.000000000               0.000000000               0.000000000               0.000000000               0.000065225               0.000364090               0.000060229              -0.000021052               0.000128379               0.000107327               0.000000000               0.000000000               0.000000000               0.000000000               0.000074030               0.000310910               0.000035137              -0.000011102               0.000107337               0.000096234               0.000000000               0.000000000               0.000000000               0.000000000               0.000095447               0.000288017               0.000007483              -0.000000209               0.000096075               0.000095865               0.000000000               0.000000000               0.000000000               0.000000000               0.000097084               0.000292847              -0.000006408              -0.000000199               0.000097681               0.000097482               0.000000000               0.000000000               0.000000000               0.000000000               0.000097591               0.000304868              -0.000005690              -0.000001512               0.000102126               0.000100614               0.000000000               0.000000000               0.000000000               0.000000000               0.000100466               0.000309810               0.000001895              -0.000001051               0.000103619               0.000102568               0.000000000               0.000000000               0.000000000               0.000000000               0.000105267               0.000312904               0.000001800               0.000000362               0.000104180               0.000104542               0.000000000               0.000000000               0.000000000               0.000000000               0.000109959               0.000316035               0.000002592               0.000001730               0.000104767               0.000106498               0.000000000               0.000000000               0.000000000               0.000000000               0.000110151               0.000318172               0.000007541               0.000001535               0.000105544               0.000107080               0.000000000               0.000000000               0.000000000               0.000000000               0.000107567               0.000323381               0.000011224              -0.000000085               0.000107821               0.000107736               0.000000000               0.000000000               0.000000000               0.000000000               0.000103849               0.000333239               0.000014827              -0.000002712               0.000111983               0.000109271               0.000000000               0.000000000               0.000000000               0.000000000               0.000095638               0.000347504               0.000016755              -0.000007574               0.000118358               0.000110784               0.000000000               0.000000000               0.000000000               0.000000000               0.000082267               0.000365585               0.000016462              -0.000014848               0.000126810               0.000111962               0.000000000               0.000000000               0.000000000               0.000000000               0.000066364               0.000387996               0.000014530              -0.000023613               0.000137202               0.000113589               0.000000000               0.000000000               0.000000000               0.000000000               0.000047609               0.000414800               0.000010975              -0.000033996               0.000149597               0.000115601               0.000000000               0.000000000               0.000000000               0.000000000               0.000024756               0.000446534               0.000005982              -0.000046533               0.000164354               0.000117821               0.000000000               0.000000000               0.000000000               0.000000000               0.000017353               0.000473810               0.000006000              -0.000052719               0.000175508               0.000122789               0.000000000               0.000000000               0.000000000               0.000000000               0.000078490               0.000353325               0.000083579              -0.000014732               0.000122685               0.000107953               0.000000000               0.000000000               0.000000000               0.000000000               0.000077849               0.000306786               0.000047254              -0.000009155               0.000105313               0.000096158               0.000000000               0.000000000               0.000000000               0.000000000               0.000093922               0.000300171               0.000008441              -0.000002300               0.000100823               0.000098522               0.000000000               0.000000000               0.000000000               0.000000000               0.000096495               0.000316690              -0.000009715              -0.000003401               0.000106696               0.000103295               0.000000000               0.000000000               0.000000000               0.000000000               0.000102462               0.000334397              -0.000007016              -0.000003377               0.000112590               0.000109214               0.000000000               0.000000000               0.000000000               0.000000000               0.000113784               0.000347355               0.000004483              -0.000000750               0.000116034               0.000115284               0.000000000               0.000000000               0.000000000               0.000000000               0.000122861               0.000360750               0.000008137               0.000000979               0.000119922               0.000120902               0.000000000               0.000000000               0.000000000               0.000000000               0.000129915               0.000373473               0.000012033               0.000002034               0.000123812               0.000125846               0.000000000               0.000000000               0.000000000               0.000000000               0.000132386               0.000390176               0.000019242               0.000000873               0.000129766               0.000130639               0.000000000               0.000000000               0.000000000               0.000000000               0.000127033               0.000411208               0.000024834              -0.000003764               0.000138323               0.000134559               0.000000000               0.000000000               0.000000000               0.000000000               0.000119018               0.000439578               0.000029088              -0.000010315               0.000149963               0.000139648               0.000000000               0.000000000               0.000000000               0.000000000               0.000105857               0.000473652               0.000030996              -0.000019510               0.000164386               0.000144876               0.000000000               0.000000000               0.000000000               0.000000000               0.000086012               0.000510399               0.000030476              -0.000031546               0.000180647               0.000149101               0.000000000               0.000000000               0.000000000               0.000000000               0.000064889               0.000549444               0.000027421              -0.000044347               0.000197928               0.000153582               0.000000000               0.000000000               0.000000000               0.000000000               0.000043709               0.000589665               0.000021465              -0.000057317               0.000215659               0.000158342               0.000000000               0.000000000               0.000000000               0.000000000               0.000021529               0.000629695               0.000012168              -0.000070638               0.000233442               0.000162804               0.000000000               0.000000000               0.000000000               0.000000000               0.000015759               0.000658939               0.000009815              -0.000076458               0.000245130               0.000168672               0.000000000               0.000000000               0.000000000               0.000000000               0.000091716               0.000341185               0.000101872              -0.000008255               0.000116479               0.000108224               0.000000000               0.000000000               0.000000000               0.000000000               0.000082144               0.000310286               0.000056907              -0.000007982               0.000106088               0.000098107               0.000000000               0.000000000               0.000000000               0.000000000               0.000092375               0.000326810               0.000010421              -0.000006211               0.000111006               0.000104795               0.000000000               0.000000000               0.000000000               0.000000000               0.000097401               0.000357529              -0.000007623              -0.000008166               0.000121897               0.000113731               0.000000000               0.000000000               0.000000000               0.000000000               0.000111122               0.000387677              -0.000004057              -0.000006789               0.000131487               0.000124699               0.000000000               0.000000000               0.000000000               0.000000000               0.000133391               0.000418566               0.000009261              -0.000002299               0.000140287               0.000137988               0.000000000               0.000000000               0.000000000               0.000000000               0.000147696               0.000445922               0.000015822              -0.000000354               0.000148757               0.000148403               0.000000000               0.000000000               0.000000000               0.000000000               0.000154761               0.000474221               0.000021320              -0.000001242               0.000158486               0.000157244               0.000000000               0.000000000               0.000000000               0.000000000               0.000153091               0.000505763               0.000030091              -0.000005811               0.000170523               0.000164712               0.000000000               0.000000000               0.000000000               0.000000000               0.000143715               0.000541490               0.000036546              -0.000013793               0.000185093               0.000171300               0.000000000               0.000000000               0.000000000               0.000000000               0.000132956               0.000584531               0.000039930              -0.000023208               0.000202578               0.000179370               0.000000000               0.000000000               0.000000000               0.000000000               0.000116762               0.000630520               0.000040622              -0.000035029               0.000221848               0.000186819               0.000000000               0.000000000               0.000000000               0.000000000               0.000094292               0.000677054               0.000038285              -0.000049272               0.000242106               0.000192834               0.000000000               0.000000000               0.000000000               0.000000000               0.000070703               0.000723441               0.000033067              -0.000063916               0.000262450               0.000198534               0.000000000               0.000000000               0.000000000               0.000000000               0.000047073               0.000767847               0.000024804              -0.000078328               0.000282056               0.000203728               0.000000000               0.000000000               0.000000000               0.000000000               0.000022996               0.000808317               0.000013520              -0.000092416               0.000300242               0.000207826               0.000000000               0.000000000               0.000000000               0.000000000               0.000016233               0.000835583               0.000010133              -0.000098360               0.000311312               0.000212952               0.000000000               0.000000000               0.000000000               0.000000000               0.000108529               0.000332007               0.000117270              -0.000000803               0.000110935               0.000110133               0.000000000               0.000000000               0.000000000               0.000000000               0.000089415               0.000322160               0.000067498              -0.000006740               0.000109632               0.000102893               0.000000000               0.000000000               0.000000000               0.000000000               0.000092873               0.000366685               0.000016916              -0.000011008               0.000125897               0.000114888               0.000000000               0.000000000               0.000000000               0.000000000               0.000105304               0.000420494              -0.000002147              -0.000013073               0.000144521               0.000131448               0.000000000               0.000000000               0.000000000               0.000000000               0.000131603               0.000469279               0.000000033              -0.000009309               0.000159528               0.000150219               0.000000000               0.000000000               0.000000000               0.000000000               0.000160044               0.000509442               0.000015157              -0.000003664               0.000171033               0.000167370               0.000000000               0.000000000               0.000000000               0.000000000               0.000174114               0.000547284               0.000024622              -0.000003118               0.000183465               0.000180348               0.000000000               0.000000000               0.000000000               0.000000000               0.000177914               0.000589294               0.000031789              -0.000006944               0.000198744               0.000191800               0.000000000               0.000000000               0.000000000               0.000000000               0.000170123               0.000632386               0.000041295              -0.000015252               0.000215877               0.000200625               0.000000000               0.000000000               0.000000000               0.000000000               0.000155915               0.000679929               0.000046546              -0.000026523               0.000235482               0.000208959               0.000000000               0.000000000               0.000000000               0.000000000               0.000140527               0.000731561               0.000047269              -0.000038747               0.000256767               0.000218020               0.000000000               0.000000000               0.000000000               0.000000000               0.000120617               0.000783671               0.000045336              -0.000052727               0.000278797               0.000226069               0.000000000               0.000000000               0.000000000               0.000000000               0.000095871               0.000833177               0.000040432              -0.000068195               0.000300455               0.000232259               0.000000000               0.000000000               0.000000000               0.000000000               0.000071562               0.000880404               0.000033076              -0.000083214               0.000321203               0.000237989               0.000000000               0.000000000               0.000000000               0.000000000               0.000047690               0.000924250               0.000023497              -0.000097647               0.000340629               0.000242982               0.000000000               0.000000000               0.000000000               0.000000000               0.000023073               0.000963555               0.000012238              -0.000111792               0.000358446               0.000246654               0.000000000               0.000000000               0.000000000               0.000000000               0.000016154               0.000990344               0.000009340              -0.000117735               0.000369356               0.000251621               0.000000000               0.000000000               0.000000000               0.000000000               0.000123423               0.000324335               0.000127497               0.000005742               0.000106197               0.000111938               0.000000000               0.000000000               0.000000000               0.000000000               0.000097069               0.000338518               0.000077156              -0.000005914               0.000114810               0.000108895               0.000000000               0.000000000               0.000000000               0.000000000               0.000099291               0.000416850               0.000025080              -0.000014872               0.000143906               0.000129034               0.000000000               0.000000000               0.000000000               0.000000000               0.000121830               0.000491899               0.000005404              -0.000015801               0.000169232               0.000153431               0.000000000               0.000000000               0.000000000               0.000000000               0.000156171               0.000549520               0.000009975              -0.000010126               0.000186547               0.000176421               0.000000000               0.000000000               0.000000000               0.000000000               0.000187139               0.000592978               0.000025008              -0.000003945               0.000198972               0.000195027               0.000000000               0.000000000               0.000000000               0.000000000               0.000199090               0.000640536               0.000032938              -0.000005408               0.000215312               0.000209904               0.000000000               0.000000000               0.000000000               0.000000000               0.000195305               0.000691570               0.000039448              -0.000013207               0.000234923               0.000221717               0.000000000               0.000000000               0.000000000               0.000000000               0.000180791               0.000743476               0.000047458              -0.000025138               0.000256202               0.000231064               0.000000000               0.000000000               0.000000000               0.000000000               0.000162847               0.000800996               0.000050312              -0.000039057               0.000280015               0.000240958               0.000000000               0.000000000               0.000000000               0.000000000               0.000144006               0.000860972               0.000048178              -0.000053619               0.000304861               0.000251242               0.000000000               0.000000000               0.000000000               0.000000000               0.000119744               0.000918845               0.000044050              -0.000069951               0.000329596               0.000259644               0.000000000               0.000000000               0.000000000               0.000000000               0.000093223               0.000974089               0.000037853              -0.000086802               0.000353627               0.000266825               0.000000000               0.000000000               0.000000000               0.000000000               0.000068984               0.001027242               0.000029524              -0.000102536               0.000376589               0.000274053               0.000000000               0.000000000               0.000000000               0.000000000               0.000045135               0.001077150               0.000020345              -0.000117718               0.000398286               0.000280568               0.000000000               0.000000000               0.000000000               0.000000000               0.000021594               0.001122323               0.000010577              -0.000132192               0.000418168               0.000285976               0.000000000               0.000000000               0.000000000               0.000000000               0.000015694               0.001152517               0.000008781              -0.000138179               0.000430228               0.000292049               0.000000000               0.000000000               0.000000000               0.000000000               0.000131560               0.000312006               0.000132000               0.000010334               0.000100556               0.000110890               0.000000000               0.000000000               0.000000000               0.000000000               0.000104397               0.000355663               0.000085316              -0.000005309               0.000120323               0.000115014               0.000000000               0.000000000               0.000000000               0.000000000               0.000107641               0.000467420               0.000035782              -0.000018062               0.000161826               0.000143764               0.000000000               0.000000000               0.000000000               0.000000000               0.000137668               0.000554212               0.000016529              -0.000017651               0.000190619               0.000172968               0.000000000               0.000000000               0.000000000               0.000000000               0.000177981               0.000613565               0.000017759              -0.000009953               0.000207837               0.000197884               0.000000000               0.000000000               0.000000000               0.000000000               0.000209526               0.000665340               0.000028350              -0.000004595               0.000223309               0.000218714               0.000000000               0.000000000               0.000000000               0.000000000               0.000215574               0.000723674               0.000034637              -0.000009619               0.000244429               0.000234810               0.000000000               0.000000000               0.000000000               0.000000000               0.000203274               0.000783633               0.000041364              -0.000021726               0.000268450               0.000246724               0.000000000               0.000000000               0.000000000               0.000000000               0.000185426               0.000846736               0.000047838              -0.000036307               0.000294345               0.000258038               0.000000000               0.000000000               0.000000000               0.000000000               0.000166626               0.000916224               0.000047188              -0.000052043               0.000322753               0.000270709               0.000000000               0.000000000               0.000000000               0.000000000               0.000145579               0.000987223               0.000044154              -0.000068811               0.000352008               0.000283197               0.000000000               0.000000000               0.000000000               0.000000000               0.000120539               0.001054932               0.000039066              -0.000086664               0.000380529               0.000293864               0.000000000               0.000000000               0.000000000               0.000000000               0.000095624               0.001121371               0.000031596              -0.000104312               0.000408557               0.000304245               0.000000000               0.000000000               0.000000000               0.000000000               0.000071249               0.001185379               0.000023311              -0.000121454               0.000435607               0.000314153               0.000000000               0.000000000               0.000000000               0.000000000               0.000046667               0.001244521               0.000014954              -0.000138065               0.000460858               0.000322793               0.000000000               0.000000000               0.000000000               0.000000000               0.000022750               0.001297816               0.000007425              -0.000153695               0.000483833               0.000330137               0.000000000               0.000000000               0.000000000               0.000000000               0.000015259               0.001331781               0.000006921              -0.000160750               0.000497506               0.000336756               0.000000000               0.000000000               0.000000000               0.000000000               0.000142724               0.000293386               0.000132132               0.000016848               0.000092178               0.000109026               0.000000000               0.000000000               0.000000000               0.000000000               0.000115779               0.000365680               0.000092738              -0.000002293               0.000122656               0.000120364               0.000000000               0.000000000               0.000000000               0.000000000               0.000116260               0.000503350               0.000046960              -0.000019321               0.000174222               0.000154901               0.000000000               0.000000000               0.000000000               0.000000000               0.000144666               0.000598014               0.000025299              -0.000020502               0.000206170               0.000185668               0.000000000               0.000000000               0.000000000               0.000000000               0.000185291               0.000658911               0.000018626              -0.000012880               0.000223928               0.000211048               0.000000000               0.000000000               0.000000000               0.000000000               0.000218021               0.000719139               0.000023028              -0.000008134               0.000242422               0.000234288               0.000000000               0.000000000               0.000000000               0.000000000               0.000221547               0.000788142               0.000030222              -0.000015437               0.000267857               0.000252420               0.000000000               0.000000000               0.000000000               0.000000000               0.000209933               0.000858176               0.000039032              -0.000028547               0.000295572               0.000267025               0.000000000               0.000000000               0.000000000               0.000000000               0.000196480               0.000933232               0.000044424              -0.000042974               0.000325399               0.000282425               0.000000000               0.000000000               0.000000000               0.000000000               0.000180202               0.001013175               0.000042847              -0.000059071               0.000357412               0.000298341               0.000000000               0.000000000               0.000000000               0.000000000               0.000160010               0.001092101               0.000039768              -0.000076509               0.000389533               0.000313024               0.000000000               0.000000000               0.000000000               0.000000000               0.000137761               0.001168313               0.000034064              -0.000094379               0.000420893               0.000326515               0.000000000               0.000000000               0.000000000               0.000000000               0.000115258               0.001243048               0.000025322              -0.000112159               0.000451732               0.000339573               0.000000000               0.000000000               0.000000000               0.000000000               0.000091501               0.001314366               0.000016794              -0.000129982               0.000481445               0.000351463               0.000000000               0.000000000               0.000000000               0.000000000               0.000068245               0.001381209               0.000008745              -0.000147059               0.000509418               0.000362359               0.000000000               0.000000000               0.000000000               0.000000000               0.000048035               0.001443758               0.000002075              -0.000162456               0.000535400               0.000372944               0.000000000               0.000000000               0.000000000               0.000000000               0.000037376               0.001477073               0.000000040              -0.000170618               0.000549225               0.000378607               0.000000000               0.000000000               0.000000000               0.000000000               0.000151995               0.000266732               0.000128046               0.000023656               0.000081024               0.000104681               0.000000000               0.000000000               0.000000000               0.000000000               0.000124268               0.000353203               0.000099585               0.000002450               0.000116917               0.000119366               0.000000000               0.000000000               0.000000000               0.000000000               0.000120049               0.000504617               0.000060766              -0.000018059               0.000174224               0.000156165               0.000000000               0.000000000               0.000000000               0.000000000               0.000142956               0.000607553               0.000035997              -0.000022336               0.000209961               0.000187625               0.000000000               0.000000000               0.000000000               0.000000000               0.000182170               0.000682504               0.000023564              -0.000016999               0.000233166               0.000216166               0.000000000               0.000000000               0.000000000               0.000000000               0.000223342               0.000753684               0.000020075              -0.000010457               0.000254711               0.000244254               0.000000000               0.000000000               0.000000000               0.000000000               0.000239549               0.000825785               0.000026326              -0.000013392               0.000279723               0.000266331               0.000000000               0.000000000               0.000000000               0.000000000               0.000235462               0.000898707               0.000036939              -0.000024040               0.000307579               0.000283539               0.000000000               0.000000000               0.000000000               0.000000000               0.000225704               0.000971572               0.000043094              -0.000036807               0.000336123               0.000299316               0.000000000               0.000000000               0.000000000               0.000000000               0.000213657               0.001047733               0.000044378              -0.000050845               0.000366189               0.000315344               0.000000000               0.000000000               0.000000000               0.000000000               0.000198749               0.001127328               0.000042167              -0.000066385               0.000397900               0.000331515               0.000000000               0.000000000               0.000000000               0.000000000               0.000179590               0.001203345               0.000036729              -0.000083072               0.000428801               0.000345730               0.000000000               0.000000000               0.000000000               0.000000000               0.000159351               0.001278544               0.000028917              -0.000100061               0.000459531               0.000359470               0.000000000               0.000000000               0.000000000               0.000000000               0.000138679               0.001353854               0.000019477              -0.000117227               0.000490356               0.000373129               0.000000000               0.000000000               0.000000000               0.000000000               0.000117883               0.001428203               0.000010225              -0.000134319               0.000520836               0.000386517               0.000000000               0.000000000               0.000000000               0.000000000               0.000099797               0.001502126               0.000003094              -0.000150342               0.000550818               0.000400476               0.000000000               0.000000000               0.000000000               0.000000000               0.000084666               0.001533463              -0.000002482              -0.000159933               0.000564460               0.000404527               0.000000000               0.000000000               0.000000000               0.000000000               0.000148231               0.000232968               0.000116736               0.000026465               0.000068833               0.000095299               0.000000000               0.000000000               0.000000000               0.000000000               0.000128413               0.000326310               0.000100490               0.000007366               0.000106314               0.000113680               0.000000000               0.000000000               0.000000000               0.000000000               0.000123913               0.000481960               0.000073395              -0.000013778               0.000165244               0.000151467               0.000000000               0.000000000               0.000000000               0.000000000               0.000144066               0.000595753               0.000049005              -0.000020444               0.000205397               0.000184953               0.000000000               0.000000000               0.000000000               0.000000000               0.000181137               0.000691485               0.000032142              -0.000018509               0.000236663               0.000218153               0.000000000               0.000000000               0.000000000               0.000000000               0.000226094               0.000773677               0.000021720              -0.000011924               0.000261865               0.000249940               0.000000000               0.000000000               0.000000000               0.000000000               0.000256823               0.000848658               0.000021864              -0.000009774               0.000286141               0.000276368               0.000000000               0.000000000               0.000000000               0.000000000               0.000262407               0.000920512               0.000029297              -0.000016661               0.000312388               0.000295727               0.000000000               0.000000000               0.000000000               0.000000000               0.000256797               0.000988989               0.000036302              -0.000027324               0.000338768               0.000311443               0.000000000               0.000000000               0.000000000               0.000000000               0.000248959               0.001058316               0.000040178              -0.000038930               0.000365745               0.000326816               0.000000000               0.000000000               0.000000000               0.000000000               0.000239573               0.001133596               0.000040002              -0.000051859               0.000395148               0.000343289               0.000000000               0.000000000               0.000000000               0.000000000               0.000228260               0.001210172               0.000036437              -0.000065674               0.000425278               0.000359604               0.000000000               0.000000000               0.000000000               0.000000000               0.000214243               0.001284212               0.000031376              -0.000080185               0.000454795               0.000374610               0.000000000               0.000000000               0.000000000               0.000000000               0.000198769               0.001356455               0.000023880              -0.000095018               0.000483820               0.000388802               0.000000000               0.000000000               0.000000000               0.000000000               0.000183554               0.001432072               0.000014629              -0.000110176               0.000514078               0.000403902               0.000000000               0.000000000               0.000000000               0.000000000               0.000166737               0.001505186               0.000006349              -0.000125622               0.000543598               0.000417976               0.000000000               0.000000000               0.000000000               0.000000000               0.000148000               0.001531224              -0.000001032              -0.000135903               0.000555704               0.000419801               0.000000000               0.000000000               0.000000000               0.000000000               0.000134266               0.000186231               0.000098998               0.000027071               0.000053053               0.000080123               0.000000000               0.000000000               0.000000000               0.000000000               0.000131071               0.000286432               0.000095736               0.000013348               0.000091027               0.000104375               0.000000000               0.000000000               0.000000000               0.000000000               0.000135644               0.000447723               0.000081703              -0.000005099               0.000150939               0.000145840               0.000000000               0.000000000               0.000000000               0.000000000               0.000154225               0.000579564               0.000061625              -0.000014611               0.000198056               0.000183445               0.000000000               0.000000000               0.000000000               0.000000000               0.000185392               0.000693231               0.000043116              -0.000017132               0.000236785               0.000219653               0.000000000               0.000000000               0.000000000               0.000000000               0.000225875               0.000785316               0.000027021              -0.000013461               0.000266256               0.000252795               0.000000000               0.000000000               0.000000000               0.000000000               0.000261367               0.000863913               0.000018285              -0.000009976               0.000291294               0.000281317               0.000000000               0.000000000               0.000000000               0.000000000               0.000278718               0.000937083               0.000019204              -0.000012616               0.000316563               0.000303947               0.000000000               0.000000000               0.000000000               0.000000000               0.000281648               0.001005510               0.000025511              -0.000020071               0.000341857               0.000321786               0.000000000               0.000000000               0.000000000               0.000000000               0.000279609               0.001070310               0.000031219              -0.000028935               0.000366411               0.000337476               0.000000000               0.000000000               0.000000000               0.000000000               0.000276096               0.001139604               0.000033884              -0.000038915               0.000392836               0.000353921               0.000000000               0.000000000               0.000000000               0.000000000               0.000273088               0.001214835               0.000033190              -0.000049446               0.000421423               0.000371977               0.000000000               0.000000000               0.000000000               0.000000000               0.000268206               0.001290795               0.000030206              -0.000060772               0.000450518               0.000389746               0.000000000               0.000000000               0.000000000               0.000000000               0.000259434               0.001361070               0.000025823              -0.000072846               0.000477967               0.000405122               0.000000000               0.000000000               0.000000000               0.000000000               0.000250335               0.001434087               0.000019078              -0.000085385               0.000506486               0.000421101               0.000000000               0.000000000               0.000000000               0.000000000               0.000239344               0.001508917               0.000009950              -0.000098860               0.000535921               0.000437060               0.000000000               0.000000000               0.000000000               0.000000000               0.000223639               0.001538827               0.000002078              -0.000108489               0.000549100               0.000440612               0.000000000               0.000000000               0.000000000               0.000000000               0.000117500               0.000144149               0.000076940               0.000026044               0.000039368               0.000065412               0.000000000               0.000000000               0.000000000               0.000000000               0.000131588               0.000247297               0.000085985               0.000018433               0.000076287               0.000094720               0.000000000               0.000000000               0.000000000               0.000000000               0.000149505               0.000413043               0.000083660               0.000004434               0.000136202               0.000140636               0.000000000               0.000000000               0.000000000               0.000000000               0.000169911               0.000556895               0.000068373              -0.000005895               0.000187595               0.000181700               0.000000000               0.000000000               0.000000000               0.000000000               0.000194708               0.000679069               0.000050401              -0.000011868               0.000230310               0.000218442               0.000000000               0.000000000               0.000000000               0.000000000               0.000225887               0.000780060               0.000031875              -0.000012800               0.000264284               0.000251484               0.000000000               0.000000000               0.000000000               0.000000000               0.000261413               0.000867399               0.000017319              -0.000010395               0.000292595               0.000282200               0.000000000               0.000000000               0.000000000               0.000000000               0.000288785               0.000947844               0.000012042              -0.000010186               0.000319340               0.000309154               0.000000000               0.000000000               0.000000000               0.000000000               0.000303890               0.001021671               0.000015273              -0.000013750               0.000345137               0.000331387               0.000000000               0.000000000               0.000000000               0.000000000               0.000310072               0.001087050               0.000020721              -0.000019604               0.000368881               0.000349277               0.000000000               0.000000000               0.000000000               0.000000000               0.000312261               0.001150807               0.000024936              -0.000026753               0.000392516               0.000365763               0.000000000               0.000000000               0.000000000               0.000000000               0.000314304               0.001220410               0.000026585              -0.000034687               0.000418362               0.000383674               0.000000000               0.000000000               0.000000000               0.000000000               0.000316955               0.001294917               0.000024929              -0.000043007               0.000445970               0.000402964               0.000000000               0.000000000               0.000000000               0.000000000               0.000317275               0.001368029               0.000021834              -0.000052025               0.000473347               0.000421322               0.000000000               0.000000000               0.000000000               0.000000000               0.000315124               0.001437822               0.000017760              -0.000061556               0.000499788               0.000438232               0.000000000               0.000000000               0.000000000               0.000000000               0.000312115               0.001508374               0.000010072              -0.000071504               0.000526621               0.000455117               0.000000000               0.000000000               0.000000000               0.000000000               0.000304824               0.001541544               0.000003219              -0.000078384               0.000539971               0.000461587               0.000000000               0.000000000               0.000000000               0.000000000               0.000098305               0.000115666               0.000055185               0.000022406               0.000031086               0.000053492               0.000000000               0.000000000               0.000000000               0.000000000               0.000131459               0.000214107               0.000070899               0.000022534               0.000063857               0.000086391               0.000000000               0.000000000               0.000000000               0.000000000               0.000163719               0.000376208               0.000076389               0.000014368               0.000120612               0.000134980               0.000000000               0.000000000               0.000000000               0.000000000               0.000187167               0.000523217               0.000065954               0.000004785               0.000172809               0.000177594               0.000000000               0.000000000               0.000000000               0.000000000               0.000208601               0.000652592               0.000050275              -0.000003348               0.000218645               0.000215296               0.000000000               0.000000000               0.000000000               0.000000000               0.000234734               0.000766195               0.000033528              -0.000007749               0.000257979               0.000250230               0.000000000               0.000000000               0.000000000               0.000000000               0.000266916               0.000865646               0.000018286              -0.000008112               0.000291250               0.000283138               0.000000000               0.000000000               0.000000000               0.000000000               0.000298082               0.000954386               0.000009304              -0.000007517               0.000320631               0.000313114               0.000000000               0.000000000               0.000000000               0.000000000               0.000320928               0.001033608               0.000008322              -0.000008853               0.000347484               0.000338631               0.000000000               0.000000000               0.000000000               0.000000000               0.000335484               0.001102831               0.000010794              -0.000012047               0.000371622               0.000359575               0.000000000               0.000000000               0.000000000               0.000000000               0.000344042               0.001164184               0.000013971              -0.000016507               0.000393560               0.000377053               0.000000000               0.000000000               0.000000000               0.000000000               0.000350731               0.001227876               0.000016508              -0.000021960               0.000416608               0.000394648               0.000000000               0.000000000               0.000000000               0.000000000               0.000358740               0.001297453               0.000016511              -0.000027654               0.000441698               0.000414044               0.000000000               0.000000000               0.000000000               0.000000000               0.000368485               0.001372783               0.000014490              -0.000033416               0.000468729               0.000435312               0.000000000               0.000000000               0.000000000               0.000000000               0.000376006               0.001443533               0.000011661              -0.000039439               0.000494319               0.000454880               0.000000000               0.000000000               0.000000000               0.000000000               0.000381955               0.001508722               0.000007360              -0.000045357               0.000518021               0.000472664               0.000000000               0.000000000               0.000000000               0.000000000               0.000382668               0.001540519               0.000003448              -0.000049064               0.000529856               0.000480792               0.000000000               0.000000000               0.000000000               0.000000000               0.000079067               0.000093173               0.000035294               0.000018003               0.000025056               0.000043060               0.000000000               0.000000000               0.000000000               0.000000000               0.000130951               0.000185385               0.000050382               0.000025933               0.000053150               0.000079083               0.000000000               0.000000000               0.000000000               0.000000000               0.000176500               0.000342246               0.000058210               0.000023406               0.000106279               0.000129685               0.000000000               0.000000000               0.000000000               0.000000000               0.000204355               0.000490465               0.000052513               0.000015325               0.000158378               0.000173703               0.000000000               0.000000000               0.000000000               0.000000000               0.000225144               0.000624745               0.000042332               0.000006336               0.000206134               0.000212470               0.000000000               0.000000000               0.000000000               0.000000000               0.000248549               0.000747809               0.000030458              -0.000000270               0.000249357               0.000249087               0.000000000               0.000000000               0.000000000               0.000000000               0.000275661               0.000857628               0.000017508              -0.000003831               0.000287150               0.000283319               0.000000000               0.000000000               0.000000000               0.000000000               0.000305541               0.000954615               0.000007384              -0.000004749               0.000319785               0.000315036               0.000000000               0.000000000               0.000000000               0.000000000               0.000331984               0.001039513               0.000003816              -0.000005445               0.000348316               0.000342871               0.000000000               0.000000000               0.000000000               0.000000000               0.000353107               0.001114356               0.000004071              -0.000006879               0.000373741               0.000366862               0.000000000               0.000000000               0.000000000               0.000000000               0.000368785               0.001177942               0.000005409              -0.000008948               0.000395626               0.000386678               0.000000000               0.000000000               0.000000000               0.000000000               0.000381290               0.001237717               0.000007328              -0.000011731               0.000416479               0.000404748               0.000000000               0.000000000               0.000000000               0.000000000               0.000394201               0.001302107               0.000008079              -0.000014938               0.000439010               0.000424073               0.000000000               0.000000000               0.000000000               0.000000000               0.000409539               0.001373579               0.000007084              -0.000018120               0.000463895               0.000445775               0.000000000               0.000000000               0.000000000               0.000000000               0.000425279               0.001445168               0.000004916              -0.000021166               0.000488773               0.000467607               0.000000000               0.000000000               0.000000000               0.000000000               0.000440180               0.001512062               0.000003161              -0.000023940               0.000511995               0.000488055               0.000000000               0.000000000               0.000000000               0.000000000               0.000446575               0.001543844               0.000001935              -0.000025515               0.000523114               0.000497600               0.000000000               0.000000000               0.000000000               0.000000000               0.000065095               0.000078940               0.000016666               0.000014543               0.000021466               0.000036009               0.000000000               0.000000000               0.000000000               0.000000000               0.000128643               0.000166760               0.000025892               0.000027396               0.000046454               0.000073850               0.000000000               0.000000000               0.000000000               0.000000000               0.000185196               0.000319282               0.000031611               0.000029538               0.000096580               0.000126118               0.000000000               0.000000000               0.000000000               0.000000000               0.000217548               0.000466219               0.000029315               0.000023303               0.000147637               0.000170940               0.000000000               0.000000000               0.000000000               0.000000000               0.000239992               0.000603572               0.000024292               0.000014550               0.000196339               0.000210889               0.000000000               0.000000000               0.000000000               0.000000000               0.000260425               0.000732481               0.000017996               0.000006099               0.000242125               0.000248224               0.000000000               0.000000000               0.000000000               0.000000000               0.000282768               0.000847656               0.000010859               0.000000081               0.000282522               0.000282603               0.000000000               0.000000000               0.000000000               0.000000000               0.000309908               0.000951112               0.000004703              -0.000002673               0.000317925               0.000315252               0.000000000               0.000000000               0.000000000               0.000000000               0.000338263               0.001042393               0.000001887              -0.000003451               0.000348611               0.000345160               0.000000000               0.000000000               0.000000000               0.000000000               0.000363203               0.001121119               0.000001263              -0.000003939               0.000375015               0.000371077               0.000000000               0.000000000               0.000000000               0.000000000               0.000383936               0.001187372               0.000001363              -0.000004445               0.000397269               0.000392823               0.000000000               0.000000000               0.000000000               0.000000000               0.000401270               0.001245026               0.000002096              -0.000005152               0.000416722               0.000411570               0.000000000               0.000000000               0.000000000               0.000000000               0.000418459               0.001305282               0.000002440              -0.000006238               0.000437169               0.000430931               0.000000000               0.000000000               0.000000000               0.000000000               0.000437219               0.001372051               0.000002037              -0.000007549               0.000459862               0.000452313               0.000000000               0.000000000               0.000000000               0.000000000               0.000457542               0.001443590               0.000000997              -0.000008870               0.000484149               0.000475278               0.000000000               0.000000000               0.000000000               0.000000000               0.000477796               0.001514929               0.000000439              -0.000010193               0.000508369               0.000498176               0.000000000               0.000000000               0.000000000               0.000000000               0.000486548               0.001548267               0.000000198              -0.000011078               0.000519776               0.000508699               0.000000000               0.000000000               0.000000000               0.000000000               0.000059765               0.000075348              -0.000000000               0.000012993               0.000020784               0.000033778               0.000000000               0.000000000               0.000000000               0.000000000               0.000126701               0.000160811               0.000000000               0.000027411               0.000044466               0.000071877               0.000000000               0.000000000               0.000000000               0.000000000               0.000188282               0.000310824               0.000000000               0.000031752               0.000093023               0.000124775               0.000000000               0.000000000               0.000000000               0.000000000               0.000222325               0.000456862               0.000000000               0.000026264               0.000143531               0.000169795               0.000000000               0.000000000               0.000000000               0.000000000               0.000245330               0.000594844              -0.000000000               0.000017643               0.000192398               0.000210041               0.000000000               0.000000000               0.000000000               0.000000000               0.000265329               0.000725566              -0.000000000               0.000008802               0.000238919               0.000247721               0.000000000               0.000000000               0.000000000               0.000000000               0.000286634               0.000843895              -0.000000000               0.000002001               0.000280629               0.000282629               0.000000000               0.000000000               0.000000000               0.000000000               0.000312441               0.000950616              -0.000000000              -0.000001662               0.000317423               0.000315761               0.000000000               0.000000000               0.000000000               0.000000000               0.000340240               0.001043460              -0.000000000              -0.000002843               0.000348764               0.000345921               0.000000000               0.000000000               0.000000000               0.000000000               0.000366091               0.001122792              -0.000000000              -0.000003065               0.000375282               0.000372217               0.000000000               0.000000000               0.000000000               0.000000000               0.000388841               0.001190334               0.000000000              -0.000002977               0.000397766               0.000394790               0.000000000               0.000000000               0.000000000               0.000000000               0.000408108               0.001247435               0.000000000              -0.000002889               0.000416770               0.000413881               0.000000000               0.000000000               0.000000000               0.000000000               0.000427142               0.001306071               0.000000000              -0.000003081               0.000436380               0.000433299               0.000000000               0.000000000               0.000000000               0.000000000               0.000447330               0.001370906               0.000000000              -0.000003615               0.000458169               0.000454554               0.000000000               0.000000000               0.000000000               0.000000000               0.000468862               0.001442042               0.000000000              -0.000004432               0.000482153               0.000477721               0.000000000               0.000000000               0.000000000               0.000000000               0.000490354               0.001515393              -0.000000000              -0.000005541               0.000506973               0.000501432               0.000000000               0.000000000               0.000000000               0.000000000               0.000499406               0.001549702              -0.000000000              -0.000006436               0.000518707               0.000512272               0.000000000               0.000000000               0.000000000               0.000000000               0.000049132               0.000364211              -0.000000000              -0.000027102               0.000130436               0.000103335               0.000000000               0.000000000               0.000000000               0.000000000               0.000064109               0.000311336               0.000000000              -0.000014876               0.000108736               0.000093860               0.000000000               0.000000000               0.000000000               0.000000000               0.000095065               0.000283390               0.000000000               0.000000225               0.000094387               0.000094613               0.000000000               0.000000000               0.000000000               0.000000000               0.000102412               0.000281873               0.000000000               0.000003170               0.000092900               0.000096070               0.000000000               0.000000000               0.000000000               0.000000000               0.000097007               0.000291834               0.000000000              -0.000000102               0.000097311               0.000097209               0.000000000               0.000000000               0.000000000               0.000000000               0.000090482               0.000293227               0.000000000              -0.000002723               0.000098649               0.000095926               0.000000000               0.000000000               0.000000000               0.000000000               0.000087748               0.000289880              -0.000000000              -0.000003330               0.000097736               0.000094406               0.000000000               0.000000000               0.000000000               0.000000000               0.000086259               0.000287581              -0.000000000              -0.000003600               0.000097059               0.000093459               0.000000000               0.000000000               0.000000000               0.000000000               0.000086522               0.000279752              -0.000000000              -0.000002523               0.000094091               0.000091567               0.000000000               0.000000000               0.000000000               0.000000000               0.000090584               0.000268236              -0.000000000               0.000000439               0.000089265               0.000089704               0.000000000               0.000000000               0.000000000               0.000000000               0.000095061               0.000255526              -0.000000000               0.000003707               0.000083939               0.000087646               0.000000000               0.000000000               0.000000000               0.000000000               0.000095984               0.000244166               0.000000000               0.000005473               0.000079564               0.000085037               0.000000000               0.000000000               0.000000000               0.000000000               0.000091593               0.000237789               0.000000000               0.000004624               0.000077721               0.000082345               0.000000000               0.000000000               0.000000000               0.000000000               0.000079724               0.000238014               0.000000000               0.000000145               0.000079289               0.000079434               0.000000000               0.000000000               0.000000000               0.000000000               0.000059331               0.000245129              -0.000000000              -0.000008392               0.000084506               0.000076114               0.000000000               0.000000000               0.000000000               0.000000000               0.000031685               0.000258205              -0.000000000              -0.000020394               0.000092865               0.000072472               0.000000000               0.000000000               0.000000000               0.000000000               0.000018551               0.000271577               0.000000000              -0.000026990               0.000099521               0.000072531               0.000000000               0.000000000               0.000000000               0.000000000               0.000053554               0.000365976              -0.000031312              -0.000025664               0.000130546               0.000104881               0.000000000               0.000000000               0.000000000               0.000000000               0.000067368               0.000312394              -0.000018882              -0.000013786               0.000108726               0.000094939               0.000000000               0.000000000               0.000000000               0.000000000               0.000095230               0.000284470              -0.000004332               0.000000153               0.000094772               0.000094924               0.000000000               0.000000000               0.000000000               0.000000000               0.000101661               0.000283901               0.000003055               0.000002635               0.000093755               0.000096390               0.000000000               0.000000000               0.000000000               0.000000000               0.000098633               0.000293551               0.000002605               0.000000294               0.000097752               0.000098045               0.000000000               0.000000000               0.000000000               0.000000000               0.000092062               0.000295435              -0.000001508              -0.000002406               0.000099279               0.000096873               0.000000000               0.000000000               0.000000000               0.000000000               0.000089274               0.000292786              -0.000000753              -0.000003121               0.000098635               0.000095514               0.000000000               0.000000000               0.000000000               0.000000000               0.000091417               0.000292404              -0.000000034              -0.000002269               0.000098223               0.000095954               0.000000000               0.000000000               0.000000000               0.000000000               0.000093023               0.000287490              -0.000001799              -0.000001053               0.000096180               0.000095127               0.000000000               0.000000000               0.000000000               0.000000000               0.000095099               0.000280744              -0.000003183               0.000000569               0.000093391               0.000093960               0.000000000               0.000000000               0.000000000               0.000000000               0.000097591               0.000274799              -0.000004490               0.000002247               0.000090850               0.000093097               0.000000000               0.000000000               0.000000000               0.000000000               0.000096212               0.000270682              -0.000004711               0.000002244               0.000089478               0.000091722               0.000000000               0.000000000               0.000000000               0.000000000               0.000089357               0.000270900              -0.000003709              -0.000000354               0.000090417               0.000090063               0.000000000               0.000000000               0.000000000               0.000000000               0.000076797               0.000277211              -0.000002031              -0.000005853               0.000094354               0.000088501               0.000000000               0.000000000               0.000000000               0.000000000               0.000057119               0.000289941              -0.000000090              -0.000014823               0.000101587               0.000086764               0.000000000               0.000000000               0.000000000               0.000000000               0.000030393               0.000309220               0.000000970              -0.000027255               0.000112157               0.000084902               0.000000000               0.000000000               0.000000000               0.000000000               0.000018882               0.000328320              -0.000000495              -0.000033959               0.000120759               0.000086799               0.000000000               0.000000000               0.000000000               0.000000000               0.000065225               0.000364090              -0.000060229              -0.000021052               0.000128379               0.000107327               0.000000000               0.000000000               0.000000000               0.000000000               0.000074030               0.000310910              -0.000035137              -0.000011102               0.000107337               0.000096234               0.000000000               0.000000000               0.000000000               0.000000000               0.000095447               0.000288017              -0.000007483              -0.000000209               0.000096075               0.000095865               0.000000000               0.000000000               0.000000000               0.000000000               0.000097084               0.000292847               0.000006408              -0.000000199               0.000097681               0.000097482               0.000000000               0.000000000               0.000000000               0.000000000               0.000097591               0.000304868               0.000005690              -0.000001512               0.000102126               0.000100614               0.000000000               0.000000000               0.000000000               0.000000000               0.000100466               0.000309810              -0.000001895              -0.000001051               0.000103619               0.000102568               0.000000000               0.000000000               0.000000000               0.000000000               0.000105267               0.000312904              -0.000001800               0.000000362               0.000104180               0.000104542               0.000000000               0.000000000               0.000000000               0.000000000               0.000109959               0.000316035              -0.000002592               0.000001730               0.000104767               0.000106498               0.000000000               0.000000000               0.000000000               0.000000000               0.000110151               0.000318172              -0.000007541               0.000001535               0.000105544               0.000107080               0.000000000               0.000000000               0.000000000               0.000000000               0.000107567               0.000323381              -0.000011224              -0.000000085               0.000107821               0.000107736               0.000000000               0.000000000               0.000000000               0.000000000               0.000103849               0.000333239              -0.000014827              -0.000002712               0.000111983               0.000109271               0.000000000               0.000000000               0.000000000               0.000000000               0.000095638               0.000347504              -0.000016755              -0.000007574               0.000118358               0.000110784               0.000000000               0.000000000               0.000000000               0.000000000               0.000082267               0.000365585              -0.000016462              -0.000014848               0.000126810               0.000111962               0.000000000               0.000000000               0.000000000               0.000000000               0.000066364               0.000387996              -0.000014530              -0.000023613               0.000137202               0.000113589               0.000000000               0.000000000               0.000000000               0.000000000               0.000047609               0.000414800              -0.000010975              -0.000033996               0.000149597               0.000115601               0.000000000               0.000000000               0.000000000               0.000000000               0.000024756               0.000446534              -0.000005982              -0.000046533               0.000164354               0.000117821               0.000000000               0.000000000               0.000000000               0.000000000               0.000017353               0.000473810              -0.000006000              -0.000052719               0.000175508               0.000122789               0.000000000               0.000000000               0.000000000               0.000000000               0.000078490               0.000353325              -0.000083579              -0.000014732               0.000122685               0.000107953               0.000000000               0.000000000               0.000000000               0.000000000               0.000077849               0.000306786              -0.000047254              -0.000009155               0.000105313               0.000096158               0.000000000               0.000000000               0.000000000               0.000000000               0.000093922               0.000300171              -0.000008441              -0.000002300               0.000100823               0.000098522               0.000000000               0.000000000               0.000000000               0.000000000               0.000096495               0.000316690               0.000009715              -0.000003401               0.000106696               0.000103295               0.000000000               0.000000000               0.000000000               0.000000000               0.000102462               0.000334397               0.000007016              -0.000003377               0.000112590               0.000109214               0.000000000               0.000000000               0.000000000               0.000000000               0.000113784               0.000347355              -0.000004483              -0.000000750               0.000116034               0.000115284               0.000000000               0.000000000               0.000000000               0.000000000               0.000122861               0.000360750              -0.000008137               0.000000979               0.000119922               0.000120902               0.000000000               0.000000000               0.000000000               0.000000000               0.000129915               0.000373473              -0.000012033               0.000002034               0.000123812               0.000125846               0.000000000               0.000000000               0.000000000               0.000000000               0.000132386               0.000390176              -0.000019242               0.000000873               0.000129766               0.000130639               0.000000000               0.000000000               0.000000000               0.000000000               0.000127033               0.000411208              -0.000024834              -0.000003764               0.000138323               0.000134559               0.000000000               0.000000000               0.000000000               0.000000000               0.000119018               0.000439578              -0.000029088              -0.000010315               0.000149963               0.000139648               0.000000000               0.000000000               0.000000000               0.000000000               0.000105857               0.000473652              -0.000030996              -0.000019510               0.000164386               0.000144876               0.000000000               0.000000000               0.000000000               0.000000000               0.000086012               0.000510399              -0.000030476              -0.000031546               0.000180647               0.000149101               0.000000000               0.000000000               0.000000000               0.000000000               0.000064889               0.000549444              -0.000027421              -0.000044347               0.000197928               0.000153582               0.000000000               0.000000000               0.000000000               0.000000000               0.000043709               0.000589665              -0.000021465              -0.000057317               0.000215659               0.000158342               0.000000000               0.000000000               0.000000000               0.000000000               0.000021529               0.000629695              -0.000012168              -0.000070638               0.000233442               0.000162804               0.000000000               0.000000000               0.000000000               0.000000000               0.000015759               0.000658939              -0.000009815              -0.000076458               0.000245130               0.000168672               0.000000000               0.000000000               0.000000000               0.000000000               0.000091716               0.000341185              -0.000101872              -0.000008255               0.000116479               0.000108224               0.000000000               0.000000000               0.000000000               0.000000000               0.000082144               0.000310286              -0.000056907              -0.000007982               0.000106088               0.000098107               0.000000000               0.000000000               0.000000000               0.000000000               0.000092375               0.000326810              -0.000010421              -0.000006211               0.000111006               0.000104795               0.000000000               0.000000000               0.000000000               0.000000000               0.000097401               0.000357529               0.000007623              -0.000008166               0.000121897               0.000113731               0.000000000               0.000000000               0.000000000               0.000000000               0.000111122               0.000387677               0.000004057              -0.000006789               0.000131487               0.000124699               0.000000000               0.000000000               0.000000000               0.000000000               0.000133391               0.000418566              -0.000009261              -0.000002299               0.000140287               0.000137988               0.000000000               0.000000000               0.000000000               0.000000000               0.000147696               0.000445922              -0.000015822              -0.000000354               0.000148757               0.000148403               0.000000000               0.000000000               0.000000000               0.000000000               0.000154761               0.000474221              -0.000021320              -0.000001242               0.000158486               0.000157244               0.000000000               0.000000000               0.000000000               0.000000000               0.000153091               0.000505763              -0.000030091              -0.000005811               0.000170523               0.000164712               0.000000000               0.000000000               0.000000000               0.000000000               0.000143715               0.000541490              -0.000036546              -0.000013793               0.000185093               0.000171300               0.000000000               0.000000000               0.000000000               0.000000000               0.000132956               0.000584531              -0.000039930              -0.000023208               0.000202578               0.000179370               0.000000000               0.000000000               0.000000000               0.000000000               0.000116762               0.000630520              -0.000040622              -0.000035029               0.000221848               0.000186819               0.000000000               0.000000000               0.000000000               0.000000000               0.000094292               0.000677054              -0.000038285              -0.000049272               0.000242106               0.000192834               0.000000000               0.000000000               0.000000000               0.000000000               0.000070703               0.000723441              -0.000033067              -0.000063916               0.000262450               0.000198534               0.000000000               0.000000000               0.000000000               0.000000000               0.000047073               0.000767847              -0.000024804              -0.000078328               0.000282056               0.000203728               0.000000000               0.000000000               0.000000000               0.000000000               0.000022996               0.000808317              -0.000013520              -0.000092416               0.000300242               0.000207826               0.000000000               0.000000000               0.000000000               0.000000000               0.000016233               0.000835583              -0.000010133              -0.000098360               0.000311312               0.000212952               0.000000000               0.000000000               0.000000000               0.000000000               0.000108529               0.000332007              -0.000117270              -0.000000803               0.000110935               0.000110133               0.000000000               0.000000000               0.000000000               0.000000000               0.000089415               0.000322160              -0.000067498              -0.000006740               0.000109632               0.000102893               0.000000000               0.000000000               0.000000000               0.000000000               0.000092873               0.000366685              -0.000016916              -0.000011008               0.000125897               0.000114888               0.000000000               0.000000000               0.000000000               0.000000000               0.000105304               0.000420494               0.000002147              -0.000013073               0.000144521               0.000131448               0.000000000               0.000000000               0.000000000               0.000000000               0.000131603               0.000469279              -0.000000033              -0.000009309               0.000159528               0.000150219               0.000000000               0.000000000               0.000000000               0.000000000               0.000160044               0.000509442              -0.000015157              -0.000003664               0.000171033               0.000167370               0.000000000               0.000000000               0.000000000               0.000000000               0.000174114               0.000547284              -0.000024622              -0.000003118               0.000183465               0.000180348               0.000000000               0.000000000               0.000000000               0.000000000               0.000177914               0.000589294              -0.000031789              -0.000006944               0.000198744               0.000191800               0.000000000               0.000000000               0.000000000               0.000000000               0.000170123               0.000632386              -0.000041295              -0.000015252               0.000215877               0.000200625               0.000000000               0.000000000               0.000000000               0.000000000               0.000155915               0.000679929              -0.000046546              -0.000026523               0.000235482               0.000208959               0.000000000               0.000000000               0.000000000               0.000000000               0.000140527               0.000731561              -0.000047269              -0.000038747               0.000256767               0.000218020               0.000000000               0.000000000               0.000000000               0.000000000               0.000120617               0.000783671              -0.000045336              -0.000052727               0.000278797               0.000226069               0.000000000               0.000000000               0.000000000               0.000000000               0.000095871               0.000833177              -0.000040432              -0.000068195               0.000300455               0.000232259               0.000000000               0.000000000               0.000000000               0.000000000               0.000071562               0.000880404              -0.000033076              -0.000083214               0.000321203               0.000237989               0.000000000               0.000000000               0.000000000               0.000000000               0.000047690               0.000924250              -0.000023497              -0.000097647               0.000340629               0.000242982               0.000000000               0.000000000               0.000000000               0.000000000               0.000023073               0.000963555              -0.000012238              -0.000111792               0.000358446               0.000246654               0.000000000               0.000000000               0.000000000               0.000000000               0.000016154               0.000990344              -0.000009340              -0.000117735               0.000369356               0.000251621               0.000000000               0.000000000               0.000000000               0.000000000               0.000123423               0.000324335              -0.000127497               0.000005742               0.000106197               0.000111938               0.000000000               0.000000000               0.000000000               0.000000000               0.000097069               0.000338518              -0.000077156              -0.000005914               0.000114810               0.000108895               0.000000000               0.000000000               0.000000000               0.000000000               0.000099291               0.000416850              -0.000025080              -0.000014872               0.000143906               0.000129034               0.000000000               0.000000000               0.000000000               0.000000000               0.000121830               0.000491899              -0.000005404              -0.000015801               0.000169232               0.000153431               0.000000000               0.000000000               0.000000000               0.000000000               0.000156171               0.000549520              -0.000009975              -0.000010126               0.000186547               0.000176421               0.000000000               0.000000000               0.000000000               0.000000000               0.000187139               0.000592978              -0.000025008              -0.000003945               0.000198972               0.000195027               0.000000000               0.000000000               0.000000000               0.000000000               0.000199090               0.000640536              -0.000032938              -0.000005408               0.000215312               0.000209904               0.000000000               0.000000000               0.000000000               0.000000000               0.000195305               0.000691570              -0.000039448              -0.000013207               0.000234923               0.000221717               0.000000000               0.000000000               0.000000000               0.000000000               0.000180791               0.000743476              -0.000047458              -0.000025138               0.000256202               0.000231064               0.000000000               0.000000000               0.000000000               0.000000000               0.000162847               0.000800996              -0.000050312              -0.000039057               0.000280015               0.000240958               0.000000000               0.000000000               0.000000000               0.000000000               0.000144006               0.000860972              -0.000048178              -0.000053619               0.000304861               0.000251242               0.000000000               0.000000000               0.000000000               0.000000000               0.000119744               0.000918845              -0.000044050              -0.000069951               0.000329596               0.000259644               0.000000000               0.000000000               0.000000000               0.000000000               0.000093223               0.000974089              -0.000037853              -0.000086802               0.000353627               0.000266825               0.000000000               0.000000000               0.000000000               0.000000000               0.000068984               0.001027242              -0.000029524              -0.000102536               0.000376589               0.000274053               0.000000000               0.000000000               0.000000000               0.000000000               0.000045135               0.001077150              -0.000020345              -0.000117718               0.000398286               0.000280568               0.000000000               0.000000000               0.000000000               0.000000000               0.000021594               0.001122323              -0.000010577              -0.000132192               0.000418168               0.000285976               0.000000000               0.000000000               0.000000000               0.000000000               0.000015694               0.001152517              -0.000008781              -0.000138179               0.000430228               0.000292049               0.000000000               0.000000000               0.000000000               0.000000000               0.000131560               0.000312006              -0.000132000               0.000010334               0.000100556               0.000110890               0.000000000               0.000000000               0.000000000               0.000000000               0.000104397               0.000355663              -0.000085316              -0.000005309               0.000120323               0.000115014               0.000000000               0.000000000               0.000000000               0.000000000               0.000107641               0.000467420              -0.000035782              -0.000018062               0.000161826               0.000143764               0.000000000               0.000000000               0.000000000               0.000000000               0.000137668               0.000554212              -0.000016529              -0.000017651               0.000190619               0.000172968               0.000000000               0.000000000               0.000000000               0.000000000               0.000177981               0.000613565              -0.000017759              -0.000009953               0.000207837               0.000197884               0.000000000               0.000000000               0.000000000               0.000000000               0.000209526               0.000665340              -0.000028350              -0.000004595               0.000223309               0.000218714               0.000000000               0.000000000               0.000000000               0.000000000               0.000215574               0.000723674              -0.000034637              -0.000009619               0.000244429               0.000234810               0.000000000               0.000000000               0.000000000               0.000000000               0.000203274               0.000783633              -0.000041364              -0.000021726               0.000268450               0.000246724               0.000000000               0.000000000               0.000000000               0.000000000               0.000185426               0.000846736              -0.000047838              -0.000036307               0.000294345               0.000258038               0.000000000               0.000000000               0.000000000               0.000000000               0.000166626               0.000916224              -0.000047188              -0.000052043               0.000322753               0.000270709               0.000000000               0.000000000               0.000000000               0.000000000               0.000145579               0.000987223              -0.000044154              -0.000068811               0.000352008               0.000283197               0.000000000               0.000000000               0.000000000               0.000000000               0.000120539               0.001054932              -0.000039066              -0.000086664               0.000380529               0.000293864               0.000000000               0.000000000               0.000000000               0.000000000               0.000095624               0.001121371              -0.000031596              -0.000104312               0.000408557               0.000304245               0.000000000               0.000000000               0.000000000               0.000000000               0.000071249               0.001185379              -0.000023311              -0.000121454               0.000435607               0.000314153               0.000000000               0.000000000               0.000000000               0.000000000               0.000046667               0.001244521              -0.000014954              -0.000138065               0.000460858               0.000322793               0.000000000               0.000000000               0.000000000               0.000000000               0.000022750               0.001297816              -0.000007425              -0.000153695               0.000483833               0.000330137               0.000000000               0.000000000               0.000000000               0.000000000               0.000015259               0.001331781              -0.000006921              -0.000160750               0.000497506               0.000336756               0.000000000               0.000000000               0.000000000               0.000000000               0.000142724               0.000293386              -0.000132132               0.000016848               0.000092178               0.000109026               0.000000000               0.000000000               0.000000000               0.000000000               0.000115779               0.000365680              -0.000092738              -0.000002293               0.000122656               0.000120364               0.000000000               0.000000000               0.000000000               0.000000000               0.000116260               0.000503350              -0.000046960              -0.000019321               0.000174222               0.000154901               0.000000000               0.000000000               0.000000000               0.000000000               0.000144666               0.000598014              -0.000025299              -0.000020502               0.000206170               0.000185668               0.000000000               0.000000000               0.000000000               0.000000000               0.000185291               0.000658911              -0.000018626              -0.000012880               0.000223928               0.000211048               0.000000000               0.000000000               0.000000000               0.000000000               0.000218021               0.000719139              -0.000023028              -0.000008134               0.000242422               0.000234288               0.000000000               0.000000000               0.000000000               0.000000000               0.000221547               0.000788142              -0.000030222              -0.000015437               0.000267857               0.000252420               0.000000000               0.000000000               0.000000000               0.000000000               0.000209933               0.000858176              -0.000039032              -0.000028547               0.000295572               0.000267025               0.000000000               0.000000000               0.000000000               0.000000000               0.000196480               0.000933232              -0.000044424              -0.000042974               0.000325399               0.000282425               0.000000000               0.000000000               0.000000000               0.000000000               0.000180202               0.001013175              -0.000042847              -0.000059071               0.000357412               0.000298341               0.000000000               0.000000000               0.000000000               0.000000000               0.000160010               0.001092101              -0.000039768              -0.000076509               0.000389533               0.000313024               0.000000000               0.000000000               0.000000000               0.000000000               0.000137761               0.001168313              -0.000034064              -0.000094379               0.000420893               0.000326515               0.000000000               0.000000000               0.000000000               0.000000000               0.000115258               0.001243048              -0.000025322              -0.000112159               0.000451732               0.000339573               0.000000000               0.000000000               0.000000000               0.000000000               0.000091501               0.001314366              -0.000016794              -0.000129982               0.000481445               0.000351463               0.000000000               0.000000000               0.000000000               0.000000000               0.000068245               0.001381209              -0.000008745              -0.000147059               0.000509418               0.000362359               0.000000000               0.000000000               0.000000000               0.000000000               0.000048035               0.001443758              -0.000002075              -0.000162456               0.000535400               0.000372944               0.000000000               0.000000000               0.000000000               0.000000000               0.000037376               0.001477073              -0.000000040              -0.000170618               0.000549225               0.000378607               0.000000000               0.000000000               0.000000000               0.000000000               0.000151995               0.000266732              -0.000128046               0.000023656               0.000081024               0.000104681               0.000000000               0.000000000               0.000000000               0.000000000               0.000124268               0.000353203              -0.000099585               0.000002450               0.000116917               0.000119366               0.000000000               0.000000000               0.000000000               0.000000000               0.000120049               0.000504617              -0.000060766              -0.000018059               0.000174224               0.000156165               0.000000000               0.000000000               0.000000000               0.000000000               0.000142956               0.000607553              -0.000035997              -0.000022336               0.000209961               0.000187625               0.000000000               0.000000000               0.000000000               0.000000000               0.000182170               0.000682504              -0.000023564              -0.000016999               0.000233166               0.000216166               0.000000000               0.000000000               0.000000000               0.000000000               0.000223342               0.000753684              -0.000020075              -0.000010457               0.000254711               0.000244254               0.000000000               0.000000000               0.000000000               0.000000000               0.000239549               0.000825785              -0.000026326              -0.000013392               0.000279723               0.000266331               0.000000000               0.000000000               0.000000000               0.000000000               0.000235462               0.000898707              -0.000036939              -0.000024040               0.000307579               0.000283539               0.000000000               0.000000000               0.000000000               0.000000000               0.000225704               0.000971572              -0.000043094              -0.000036807               0.000336123               0.000299316               0.000000000               0.000000000               0.000000000               0.000000000               0.000213657               0.001047733              -0.000044378              -0.000050845               0.000366189               0.000315344               0.000000000               0.000000000               0.000000000               0.000000000               0.000198749               0.001127328              -0.000042167              -0.000066385               0.000397900               0.000331515               0.000000000               0.000000000               0.000000000               0.000000000               0.000179590               0.001203345              -0.000036729              -0.000083072               0.000428801               0.000345730               0.000000000               0.000000000               0.000000000               0.000000000               0.000159351               0.001278544              -0.000028917              -0.000100061               0.000459531               0.000359470               0.000000000               0.000000000               0.000000000               0.000000000               0.000138679               0.001353854              -0.000019477              -0.000117227               0.000490356               0.000373129               0.000000000               0.000000000               0.000000000               0.000000000               0.000117883               0.001428203              -0.000010225              -0.000134319               0.000520836               0.000386517               0.000000000               0.000000000               0.000000000               0.000000000               0.000099797               0.001502126              -0.000003094              -0.000150342               0.000550818               0.000400476               0.000000000               0.000000000               0.000000000               0.000000000               0.000084666               0.001533463               0.000002482              -0.000159933               0.000564460               0.000404527               0.000000000               0.000000000               0.000000000               0.000000000               0.000148231               0.000232968              -0.000116736               0.000026465               0.000068833               0.000095299               0.000000000               0.000000000               0.000000000               0.000000000               0.000128413               0.000326310              -0.000100490               0.000007366               0.000106314               0.000113680               0.000000000               0.000000000               0.000000000               0.000000000               0.000123913               0.000481960              -0.000073395              -0.000013778               0.000165244               0.000151467               0.000000000               0.000000000               0.000000000               0.000000000               0.000144066               0.000595753              -0.000049005              -0.000020444               0.000205397               0.000184953               0.000000000               0.000000000               0.000000000               0.000000000               0.000181137               0.000691485              -0.000032142              -0.000018509               0.000236663               0.000218153               0.000000000               0.000000000               0.000000000               0.000000000               0.000226094               0.000773677              -0.000021720              -0.000011924               0.000261865               0.000249940               0.000000000               0.000000000               0.000000000               0.000000000               0.000256823               0.000848658              -0.000021864              -0.000009774               0.000286141               0.000276368               0.000000000               0.000000000               0.000000000               0.000000000               0.000262407               0.000920512              -0.000029297              -0.000016661               0.000312388               0.000295727               0.000000000               0.000000000               0.000000000               0.000000000               0.000256797               0.000988989              -0.000036302              -0.000027324               0.000338768               0.000311443               0.000000000               0.000000000               0.000000000               0.000000000               0.000248959               0.001058316              -0.000040178              -0.000038930               0.000365745               0.000326816               0.000000000               0.000000000               0.000000000               0.000000000               0.000239573               0.001133596              -0.000040002              -0.000051859               0.000395148               0.000343289               0.000000000               0.000000000               0.000000000               0.000000000               0.000228260               0.001210172              -0.000036437              -0.000065674               0.000425278               0.000359604               0.000000000               0.000000000               0.000000000               0.000000000               0.000214243               0.001284212              -0.000031376              -0.000080185               0.000454795               0.000374610               0.000000000               0.000000000               0.000000000               0.000000000               0.000198769               0.001356455              -0.000023880              -0.000095018               0.000483820               0.000388802               0.000000000               0.000000000               0.000000000               0.000000000               0.000183554               0.001432072              -0.000014629              -0.000110176               0.000514078               0.000403902               0.000000000               0.000000000               0.000000000               0.000000000               0.000166737               0.001505186              -0.000006349              -0.000125622               0.000543598               0.000417976               0.000000000               0.000000000               0.000000000               0.000000000               0.000148000               0.001531224               0.000001032              -0.000135903               0.000555704               0.000419801               0.000000000               0.000000000               0.000000000               0.000000000               0.000134266               0.000186231              -0.000098998               0.000027071               0.000053053               0.000080123               0.000000000               0.000000000               0.000000000               0.000000000               0.000131071               0.000286432              -0.000095736               0.000013348               0.000091027               0.000104375               0.000000000               0.000000000               0.000000000               0.000000000               0.000135644               0.000447723              -0.000081703              -0.000005099               0.000150939               0.000145840               0.000000000               0.000000000               0.000000000               0.000000000               0.000154225               0.000579564              -0.000061625              -0.000014611               0.000198056               0.000183445               0.000000000               0.000000000               0.000000000               0.000000000               0.000185392               0.000693231              -0.000043116              -0.000017132               0.000236785               0.000219653               0.000000000               0.000000000               0.000000000               0.000000000               0.000225875               0.000785316              -0.000027021              -0.000013461               0.000266256               0.000252795               0.000000000               0.000000000               0.000000000               0.000000000               0.000261367               0.000863913              -0.000018285              -0.000009976               0.000291294               0.000281317               0.000000000               0.000000000               0.000000000               0.000000000               0.000278718               0.000937083              -0.000019204              -0.000012616               0.000316563               0.000303947               0.000000000               0.000000000               0.000000000               0.000000000               0.000281648               0.001005510              -0.000025511              -0.000020071               0.000341857               0.000321786               0.000000000               0.000000000               0.000000000               0.000000000               0.000279609               0.001070310              -0.000031219              -0.000028935               0.000366411               0.000337476               0.000000000               0.000000000               0.000000000               0.000000000               0.000276096               0.001139604              -0.000033884              -0.000038915               0.000392836               0.000353921               0.000000000               0.000000000               0.000000000               0.000000000               0.000273088               0.001214835              -0.000033190              -0.000049446               0.000421423               0.000371977               0.000000000               0.000000000               0.000000000               0.000000000               0.000268206               0.001290795              -0.000030206              -0.000060772               0.000450518               0.000389746               0.000000000               0.000000000               0.000000000               0.000000000               0.000259434               0.001361070              -0.000025823              -0.000072846               0.000477967               0.000405122               0.000000000               0.000000000               0.000000000               0.000000000               0.000250335               0.001434087              -0.000019078              -0.000085385               0.000506486               0.000421101               0.000000000               0.000000000               0.000000000               0.000000000               0.000239344               0.001508917              -0.000009950              -0.000098860               0.000535921               0.000437060               0.000000000               0.000000000               0.000000000               0.000000000               0.000223639               0.001538827              -0.000002078              -0.000108489               0.000549100               0.000440612               0.000000000               0.000000000               0.000000000               0.000000000               0.000117500               0.000144149              -0.000076940               0.000026044               0.000039368               0.000065412               0.000000000               0.000000000               0.000000000               0.000000000               0.000131588               0.000247297              -0.000085985               0.000018433               0.000076287               0.000094720               0.000000000               0.000000000               0.000000000               0.000000000               0.000149505               0.000413043              -0.000083660               0.000004434               0.000136202               0.000140636               0.000000000               0.000000000               0.000000000               0.000000000               0.000169911               0.000556895              -0.000068373              -0.000005895               0.000187595               0.000181700               0.000000000               0.000000000               0.000000000               0.000000000               0.000194708               0.000679069              -0.000050401              -0.000011868               0.000230310               0.000218442               0.000000000               0.000000000               0.000000000               0.000000000               0.000225887               0.000780060              -0.000031875              -0.000012800               0.000264284               0.000251484               0.000000000               0.000000000               0.000000000               0.000000000               0.000261413               0.000867399              -0.000017319              -0.000010395               0.000292595               0.000282200               0.000000000               0.000000000               0.000000000               0.000000000               0.000288785               0.000947844              -0.000012042              -0.000010186               0.000319340               0.000309154               0.000000000               0.000000000               0.000000000               0.000000000               0.000303890               0.001021671              -0.000015273              -0.000013750               0.000345137               0.000331387               0.000000000               0.000000000               0.000000000               0.000000000               0.000310072               0.001087050              -0.000020721              -0.000019604               0.000368881               0.000349277               0.000000000               0.000000000               0.000000000               0.000000000               0.000312261               0.001150807              -0.000024936              -0.000026753               0.000392516               0.000365763               0.000000000               0.000000000               0.000000000               0.000000000               0.000314304               0.001220410              -0.000026585              -0.000034687               0.000418362               0.000383674               0.000000000               0.000000000               0.000000000               0.000000000               0.000316955               0.001294917              -0.000024929              -0.000043007               0.000445970               0.000402964               0.000000000               0.000000000               0.000000000               0.000000000               0.000317275               0.001368029              -0.000021834              -0.000052025               0.000473347               0.000421322               0.000000000               0.000000000               0.000000000               0.000000000               0.000315124               0.001437822              -0.000017760              -0.000061556               0.000499788               0.000438232               0.000000000               0.000000000               0.000000000               0.000000000               0.000312115               0.001508374              -0.000010072              -0.000071504               0.000526621               0.000455117               0.000000000               0.000000000               0.000000000               0.000000000               0.000304824               0.001541544              -0.000003219              -0.000078384               0.000539971               0.000461587               0.000000000               0.000000000               0.000000000               0.000000000               0.000098305               0.000115666              -0.000055185               0.000022406               0.000031086               0.000053492               0.000000000               0.000000000               0.000000000               0.000000000               0.000131459               0.000214107              -0.000070899               0.000022534               0.000063857               0.000086391               0.000000000               0.000000000               0.000000000               0.000000000               0.000163719               0.000376208              -0.000076389               0.000014368               0.000120612               0.000134980               0.000000000               0.000000000               0.000000000               0.000000000               0.000187167               0.000523217              -0.000065954               0.000004785               0.000172809               0.000177594               0.000000000               0.000000000               0.000000000               0.000000000               0.000208601               0.000652592              -0.000050275              -0.000003348               0.000218645               0.000215296               0.000000000               0.000000000               0.000000000               0.000000000               0.000234734               0.000766195              -0.000033528              -0.000007749               0.000257979               0.000250230               0.000000000               0.000000000               0.000000000               0.000000000               0.000266916               0.000865646              -0.000018286              -0.000008112               0.000291250               0.000283138               0.000000000               0.000000000               0.000000000               0.000000000               0.000298082               0.000954386              -0.000009304              -0.000007517               0.000320631               0.000313114               0.000000000               0.000000000               0.000000000               0.000000000               0.000320928               0.001033608              -0.000008322              -0.000008853               0.000347484               0.000338631               0.000000000               0.000000000               0.000000000               0.000000000               0.000335484               0.001102831              -0.000010794              -0.000012047               0.000371622               0.000359575               0.000000000               0.000000000               0.000000000               0.000000000               0.000344042               0.001164184              -0.000013971              -0.000016507               0.000393560               0.000377053               0.000000000               0.000000000               0.000000000               0.000000000               0.000350731               0.001227876              -0.000016508              -0.000021960               0.000416608               0.000394648               0.000000000               0.000000000               0.000000000               0.000000000               0.000358740               0.001297453              -0.000016511              -0.000027654               0.000441698               0.000414044               0.000000000               0.000000000               0.000000000               0.000000000               0.000368485               0.001372783              -0.000014490              -0.000033416               0.000468729               0.000435312               0.000000000               0.000000000               0.000000000               0.000000000               0.000376006               0.001443533              -0.000011661              -0.000039439               0.000494319               0.000454880               0.000000000               0.000000000               0.000000000               0.000000000               0.000381955               0.001508722              -0.000007360              -0.000045357               0.000518021               0.000472664               0.000000000               0.000000000               0.000000000               0.000000000               0.000382668               0.001540519              -0.000003448              -0.000049064               0.000529856               0.000480792               0.000000000               0.000000000               0.000000000               0.000000000               0.000079067               0.000093173              -0.000035294               0.000018003               0.000025056               0.000043060               0.000000000               0.000000000               0.000000000               0.000000000               0.000130951               0.000185385              -0.000050382               0.000025933               0.000053150               0.000079083               0.000000000               0.000000000               0.000000000               0.000000000               0.000176500               0.000342246              -0.000058210               0.000023406               0.000106279               0.000129685               0.000000000               0.000000000               0.000000000               0.000000000               0.000204355               0.000490465              -0.000052513               0.000015325               0.000158378               0.000173703               0.000000000               0.000000000               0.000000000               0.000000000               0.000225144               0.000624745              -0.000042332               0.000006336               0.000206134               0.000212470               0.000000000               0.000000000               0.000000000               0.000000000               0.000248549               0.000747809              -0.000030458              -0.000000270               0.000249357               0.000249087               0.000000000               0.000000000               0.000000000               0.000000000               0.000275661               0.000857628              -0.000017508              -0.000003831               0.000287150               0.000283319               0.000000000               0.000000000               0.000000000               0.000000000               0.000305541               0.000954615              -0.000007384              -0.000004749               0.000319785               0.000315036               0.000000000               0.000000000               0.000000000               0.000000000               0.000331984               0.001039513              -0.000003816              -0.000005445               0.000348316               0.000342871               0.000000000               0.000000000               0.000000000               0.000000000               0.000353107               0.001114356              -0.000004071              -0.000006879               0.000373741               0.000366862               0.000000000               0.000000000               0.000000000               0.000000000               0.000368785               0.001177942              -0.000005409              -0.000008948               0.000395626               0.000386678               0.000000000               0.000000000               0.000000000               0.000000000               0.000381290               0.001237717              -0.000007328              -0.000011731               0.000416479               0.000404748               0.000000000               0.000000000               0.000000000               0.000000000               0.000394201               0.001302107              -0.000008079              -0.000014938               0.000439010               0.000424073               0.000000000               0.000000000               0.000000000               0.000000000               0.000409539               0.001373579              -0.000007084              -0.000018120               0.000463895               0.000445775               0.000000000               0.000000000               0.000000000               0.000000000               0.000425279               0.001445168              -0.000004916              -0.000021166               0.000488773               0.000467607               0.000000000               0.000000000               0.000000000               0.000000000               0.000440180               0.001512062              -0.000003161              -0.000023940               0.000511995               0.000488055               0.000000000               0.000000000               0.000000000               0.000000000               0.000446575               0.001543844              -0.000001935              -0.000025515               0.000523114               0.000497600               0.000000000               0.000000000               0.000000000               0.000000000               0.000065095               0.000078940              -0.000016666               0.000014543               0.000021466               0.000036009               0.000000000               0.000000000               0.000000000               0.000000000               0.000128643               0.000166760              -0.000025892               0.000027396               0.000046454               0.000073850               0.000000000               0.000000000               0.000000000               0.000000000               0.000185196               0.000319282              -0.000031611               0.000029538               0.000096580               0.000126118               0.000000000               0.000000000               0.000000000               0.000000000               0.000217548               0.000466219              -0.000029315               0.000023303               0.000147637               0.000170940               0.000000000               0.000000000               0.000000000               0.000000000               0.000239992               0.000603572              -0.000024292               0.000014550               0.000196339               0.000210889               0.000000000               0.000000000               0.000000000               0.000000000               0.000260425               0.000732481              -0.000017996               0.000006099               0.000242125               0.000248224               0.000000000               0.000000000               0.000000000               0.000000000               0.000282768               0.000847656              -0.000010859               0.000000081               0.000282522               0.000282603               0.000000000               0.000000000               0.000000000               0.000000000               0.000309908               0.000951112              -0.000004703              -0.000002673               0.000317925               0.000315252               0.000000000               0.000000000               0.000000000               0.000000000               0.000338263               0.001042393              -0.000001887              -0.000003451               0.000348611               0.000345160               0.000000000               0.000000000               0.000000000               0.000000000               0.000363203               0.001121119              -0.000001263              -0.000003939               0.000375015               0.000371077               0.000000000               0.000000000               0.000000000               0.000000000               0.000383936               0.001187372              -0.000001363              -0.000004445               0.000397269               0.000392823               0.000000000               0.000000000               0.000000000               0.000000000               0.000401270               0.001245026              -0.000002096              -0.000005152               0.000416722               0.000411570               0.000000000               0.000000000               0.000000000               0.000000000               0.000418459               0.001305282              -0.000002440              -0.000006238               0.000437169               0.000430931               0.000000000               0.000000000               0.000000000               0.000000000               0.000437219               0.001372051              -0.000002037              -0.000007549               0.000459862               0.000452313               0.000000000               0.000000000               0.000000000               0.000000000               0.000457542               0.001443590              -0.000000997              -0.000008870               0.000484149               0.000475278               0.000000000               0.000000000               0.000000000               0.000000000               0.000477796               0.001514929              -0.000000439              -0.000010193               0.000508369               0.000498176               0.000000000               0.000000000               0.000000000               0.000000000               0.000486548               0.001548267              -0.000000198              -0.000011078               0.000519776               0.000508699               0.000000000               0.000000000               0.000000000               0.000000000               0.000000000               0.000000000               0.000000000               0.000000000               0.000000000               0.000000000               0.000000000               0.000000000               0.000000000               0.000000000               0.000000000               0.000000000               0.000000000               0.000000000               0.000000000               0.000000000               0.000000000               0.000000000               0.000000000               0.000000000               0.000000000               0.000000000               0.000000000               0.000000000               0.000000000               0.000000000               0.000000000               0.000000000               0.000000000               0.000000000               0.000000000               0.000000000               0.000000000               0.000000000               0.000000000               0.000000000               0.000000000               0.000000000               0.000000000               0.000000000               0.000000000               0.000000000               0.000000000               0.000000000               0.000000000               0.000000000               0.000000000               0.000000000               0.000000000               0.000000000               0.000000000               0.000000000               0.000000000               0.000000000               0.000000000               0.000000000               0.000000000               0.000000000               0.000000000               0.000000000               0.000000000               0.000000000               0.000000000               0.000000000               0.000000000               0.000000000               0.000000000               0.000000000               0.000000000               0.000000000               0.000000000               0.000000000               0.000000000               0.000000000               0.000000000               0.000000000               0.000000000               0.000000000               0.000000000               0.000000000               0.000000000               0.000000000               0.000000000               0.000000000               0.000000000               0.000000000               0.000000000               0.000000000               0.000000000               0.000000000               0.000000000               0.000000000               0.000000000               0.000000000               0.000000000               0.000000000               0.000000000               0.000000000               0.000000000               0.000000000               0.000000000               0.000000000               0.000000000               0.000000000               0.000000000               0.000000000               0.000000000               0.000000000               0.000000000               0.000000000               0.000000000               0.000000000               0.000000000               0.000000000               0.000000000               0.000000000               0.000000000               0.000000000               0.000000000               0.000000000               0.000000000               0.000000000               0.000000000               0.000000000               0.000000000               0.000000000               0.000000000               0.000000000               0.000000000               0.000000000               0.000000000               0.000000000               0.000000000               0.000000000               0.000000000               0.000000000               0.000000000               0.000000000               0.000000000               0.000000000               0.000000000               0.000000000               0.000000000               0.000000000               0.000000000               0.000000000               0.000000000               0.000000000               0.000000000               0.000000000               0.000000000               0.000000000               0.000000000               0.000000000               0.000000000               0.000000000               0.000000000               0.000000000               0.000000000               0.000000000               0.000000000               0.000000000               0.000000000               0.000000000               0.000000000               0.000000000               0.000000000               0.000000000               0.000000000               0.000000000               0.000000000               0.000000000               0.000000000               0.000000000               0.000000000               0.000000000               0.000000000               0.000000000               0.000000000               0.000000000               0.000000000               0.000000000               0.000000000               0.000000000               0.000000000               0.000000000               0.000000000               0.000000000               0.000000000               0.000000000               0.000000000               0.000000000               0.000000000               0.000000000               0.000000000               0.000000000               0.000000000               0.000000000               0.000000000               0.000000000               0.000000000               0.000000000               0.000000000               0.000000000               0.000000000               0.000000000               0.000000000               0.000000000               0.000000000               0.000000000               0.000000000               0.000000000               0.000000000               0.000000000               0.000000000               0.000000000               0.000000000               0.000000000               0.000000000               0.000000000               0.000000000               0.000000000               0.000000000               0.000000000               0.000000000               0.000000000               0.000000000               0.000000000               0.000000000               0.000000000               0.000000000               0.000000000               0.000000000               0.000000000               0.000000000               0.000000000               0.000000000               0.000000000               0.000000000               0.000000000               0.000000000               0.000000000               0.000000000               0.000000000               0.000000000               0.000000000               0.000000000               0.000000000               0.000000000               0.000000000               0.000000000               0.000000000               0.000000000               0.000000000               0.000000000               0.000000000               0.000000000               0.000000000               0.000000000               0.000000000               0.000000000               0.000000000               0.000000000               0.000000000               0.000000000               0.000000000               0.000000000               0.000000000               0.000000000               0.000000000               0.000000000               0.000000000               0.000000000               0.000000000               0.000000000               0.000000000               0.000000000               0.000000000               0.000000000               0.000000000               0.000000000               0.000000000               0.000000000               0.000000000               0.000000000               0.000000000               0.000000000               0.000000000               0.000000000               0.000000000               0.000000000               0.000000000               0.000000000               0.000000000               0.000000000               0.000000000               0.000000000               0.000000000               0.000000000               0.000000000               0.000000000               0.000000000               0.000000000               0.000000000               0.000000000               0.000000000               0.000000000               0.000000000               0.000000000               0.000000000               0.000000000               0.000000000               0.000000000               0.000000000               0.000000000               0.000000000               0.000000000               0.000000000               0.000000000               0.000000000               0.000000000               0.000000000               0.000000000               0.000000000               0.000000000               0.000000000               0.000000000               0.000000000               0.000000000               0.000000000               0.000000000               0.000000000               0.000000000               0.000000000               0.000000000               0.000000000               0.000000000               0.000000000               0.000000000               0.000000000               0.000053554               0.000365976               0.000031312              -0.000025664               0.000130546               0.000104881               0.000000000               0.000000000               0.000000000               0.000000000               0.000067368               0.000312394               0.000018882              -0.000013786               0.000108726               0.000094939               0.000000000               0.000000000               0.000000000               0.000000000               0.000095230               0.000284470               0.000004332               0.000000153               0.000094772               0.000094924               0.000000000               0.000000000               0.000000000               0.000000000               0.000101661               0.000283901              -0.000003055               0.000002635               0.000093755               0.000096390               0.000000000               0.000000000               0.000000000               0.000000000               0.000098633               0.000293551              -0.000002605               0.000000294               0.000097752               0.000098045               0.000000000               0.000000000               0.000000000               0.000000000               0.000092062               0.000295435               0.000001508              -0.000002406               0.000099279               0.000096873               0.000000000               0.000000000               0.000000000               0.000000000               0.000089274               0.000292786               0.000000753              -0.000003121               0.000098635               0.000095514               0.000000000               0.000000000               0.000000000               0.000000000               0.000091417               0.000292404               0.000000034              -0.000002269               0.000098223               0.000095954               0.000000000               0.000000000               0.000000000               0.000000000               0.000093023               0.000287490               0.000001799              -0.000001053               0.000096180               0.000095127               0.000000000               0.000000000               0.000000000               0.000000000               0.000095099               0.000280744               0.000003183               0.000000569               0.000093391               0.000093960               0.000000000               0.000000000               0.000000000               0.000000000               0.000097591               0.000274799               0.000004490               0.000002247               0.000090850               0.000093097               0.000000000               0.000000000               0.000000000               0.000000000               0.000096212               0.000270682               0.000004711               0.000002244               0.000089478               0.000091722               0.000000000               0.000000000               0.000000000               0.000000000               0.000089357               0.000270900               0.000003709              -0.000000354               0.000090417               0.000090063               0.000000000               0.000000000               0.000000000               0.000000000               0.000076797               0.000277211               0.000002031              -0.000005853               0.000094354               0.000088501               0.000000000               0.000000000               0.000000000               0.000000000               0.000057119               0.000289941               0.000000090              -0.000014823               0.000101587               0.000086764               0.000000000               0.000000000               0.000000000               0.000000000               0.000030393               0.000309220              -0.000000970              -0.000027255               0.000112157               0.000084902               0.000000000               0.000000000               0.000000000               0.000000000               0.000018882               0.000328320               0.000000495              -0.000033959               0.000120759               0.000086799               0.000000000               0.000000000               0.000000000               0.000000000               0.000065225               0.000364090               0.000060229              -0.000021052               0.000128379               0.000107327               0.000000000               0.000000000               0.000000000               0.000000000               0.000074030               0.000310910               0.000035137              -0.000011102               0.000107337               0.000096234               0.000000000               0.000000000               0.000000000               0.000000000               0.000095447               0.000288017               0.000007483              -0.000000209               0.000096075               0.000095865               0.000000000               0.000000000               0.000000000               0.000000000               0.000097084               0.000292847              -0.000006408              -0.000000199               0.000097681               0.000097482               0.000000000               0.000000000               0.000000000               0.000000000               0.000097591               0.000304868              -0.000005690              -0.000001512               0.000102126               0.000100614               0.000000000               0.000000000               0.000000000               0.000000000               0.000100466               0.000309810               0.000001895              -0.000001051               0.000103619               0.000102568               0.000000000               0.000000000               0.000000000               0.000000000               0.000105267               0.000312904               0.000001800               0.000000362               0.000104180               0.000104542               0.000000000               0.000000000               0.000000000               0.000000000               0.000109959               0.000316035               0.000002592               0.000001730               0.000104767               0.000106498               0.000000000               0.000000000               0.000000000               0.000000000               0.000110151               0.000318172               0.000007541               0.000001535               0.000105544               0.000107080               0.000000000               0.000000000               0.000000000               0.000000000               0.000107567               0.000323381               0.000011224              -0.000000085               0.000107821               0.000107736               0.000000000               0.000000000               0.000000000               0.000000000               0.000103849               0.000333239               0.000014827              -0.000002712               0.000111983               0.000109271               0.000000000               0.000000000               0.000000000               0.000000000               0.000095638               0.000347504               0.000016755              -0.000007574               0.000118358               0.000110784               0.000000000               0.000000000               0.000000000               0.000000000               0.000082267               0.000365585               0.000016462              -0.000014848               0.000126810               0.000111962               0.000000000               0.000000000               0.000000000               0.000000000               0.000066364               0.000387996               0.000014530              -0.000023613               0.000137202               0.000113589               0.000000000               0.000000000               0.000000000               0.000000000               0.000047609               0.000414800               0.000010975              -0.000033996               0.000149597               0.000115601               0.000000000               0.000000000               0.000000000               0.000000000               0.000024756               0.000446534               0.000005982              -0.000046533               0.000164354               0.000117821               0.000000000               0.000000000               0.000000000               0.000000000               0.000017353               0.000473810               0.000006000              -0.000052719               0.000175508               0.000122789               0.000000000               0.000000000               0.000000000               0.000000000               0.000078490               0.000353325               0.000083579              -0.000014732               0.000122685               0.000107953               0.000000000               0.000000000               0.000000000               0.000000000               0.000077849               0.000306786               0.000047254              -0.000009155               0.000105313               0.000096158               0.000000000               0.000000000               0.000000000               0.000000000               0.000093922               0.000300171               0.000008441              -0.000002300               0.000100823               0.000098522               0.000000000               0.000000000               0.000000000               0.000000000               0.000096495               0.000316690              -0.000009715              -0.000003401               0.000106696               0.000103295               0.000000000               0.000000000               0.000000000               0.000000000               0.000102462               0.000334397              -0.000007016              -0.000003377               0.000112590               0.000109214               0.000000000               0.000000000               0.000000000               0.000000000               0.000113784               0.000347355               0.000004483              -0.000000750               0.000116034               0.000115284               0.000000000               0.000000000               0.000000000               0.000000000               0.000122861               0.000360750               0.000008137               0.000000979               0.000119922               0.000120902               0.000000000               0.000000000               0.000000000               0.000000000               0.000129915               0.000373473               0.000012033               0.000002034               0.000123812               0.000125846               0.000000000               0.000000000               0.000000000               0.000000000               0.000132386               0.000390176               0.000019242               0.000000873               0.000129766               0.000130639               0.000000000               0.000000000               0.000000000               0.000000000               0.000127033               0.000411208               0.000024834              -0.000003764               0.000138323               0.000134559               0.000000000               0.000000000               0.000000000               0.000000000               0.000119018               0.000439578               0.000029088              -0.000010315               0.000149963               0.000139648               0.000000000               0.000000000               0.000000000               0.000000000               0.000105857               0.000473652               0.000030996              -0.000019510               0.000164386               0.000144876               0.000000000               0.000000000               0.000000000               0.000000000               0.000086012               0.000510399               0.000030476              -0.000031546               0.000180647               0.000149101               0.000000000               0.000000000               0.000000000               0.000000000               0.000064889               0.000549444               0.000027421              -0.000044347               0.000197928               0.000153582               0.000000000               0.000000000               0.000000000               0.000000000               0.000043709               0.000589665               0.000021465              -0.000057317               0.000215659               0.000158342               0.000000000               0.000000000               0.000000000               0.000000000               0.000021529               0.000629695               0.000012168              -0.000070638               0.000233442               0.000162804               0.000000000               0.000000000               0.000000000               0.000000000               0.000015759               0.000658939               0.000009815              -0.000076458               0.000245130               0.000168672               0.000000000               0.000000000               0.000000000               0.000000000               0.000091716               0.000341185               0.000101872              -0.000008255               0.000116479               0.000108224               0.000000000               0.000000000               0.000000000               0.000000000               0.000082144               0.000310286               0.000056907              -0.000007982               0.000106088               0.000098107               0.000000000               0.000000000               0.000000000               0.000000000               0.000092375               0.000326810               0.000010421              -0.000006211               0.000111006               0.000104795               0.000000000               0.000000000               0.000000000               0.000000000               0.000097401               0.000357529              -0.000007623              -0.000008166               0.000121897               0.000113731               0.000000000               0.000000000               0.000000000               0.000000000               0.000111122               0.000387677              -0.000004057              -0.000006789               0.000131487               0.000124699               0.000000000               0.000000000               0.000000000               0.000000000               0.000133391               0.000418566               0.000009261              -0.000002299               0.000140287               0.000137988               0.000000000               0.000000000               0.000000000               0.000000000               0.000147696               0.000445922               0.000015822              -0.000000354               0.000148757               0.000148403               0.000000000               0.000000000               0.000000000               0.000000000               0.000154761               0.000474221               0.000021320              -0.000001242               0.000158486               0.000157244               0.000000000               0.000000000               0.000000000               0.000000000               0.000153091               0.000505763               0.000030091              -0.000005811               0.000170523               0.000164712               0.000000000               0.000000000               0.000000000               0.000000000               0.000143715               0.000541490               0.000036546              -0.000013793               0.000185093               0.000171300               0.000000000               0.000000000               0.000000000               0.000000000               0.000132956               0.000584531               0.000039930              -0.000023208               0.000202578               0.000179370               0.000000000               0.000000000               0.000000000               0.000000000               0.000116762               0.000630520               0.000040622              -0.000035029               0.000221848               0.000186819               0.000000000               0.000000000               0.000000000               0.000000000               0.000094292               0.000677054               0.000038285              -0.000049272               0.000242106               0.000192834               0.000000000               0.000000000               0.000000000               0.000000000               0.000070703               0.000723441               0.000033067              -0.000063916               0.000262450               0.000198534               0.000000000               0.000000000               0.000000000               0.000000000               0.000047073               0.000767847               0.000024804              -0.000078328               0.000282056               0.000203728               0.000000000               0.000000000               0.000000000               0.000000000               0.000022996               0.000808317               0.000013520              -0.000092416               0.000300242               0.000207826               0.000000000               0.000000000               0.000000000               0.000000000               0.000016233               0.000835583               0.000010133              -0.000098360               0.000311312               0.000212952               0.000000000               0.000000000               0.000000000               0.000000000               0.000108529               0.000332007               0.000117270              -0.000000803               0.000110935               0.000110133               0.000000000               0.000000000               0.000000000               0.000000000               0.000089415               0.000322160               0.000067498              -0.000006740               0.000109632               0.000102893               0.000000000               0.000000000               0.000000000               0.000000000               0.000092873               0.000366685               0.000016916              -0.000011008               0.000125897               0.000114888               0.000000000               0.000000000               0.000000000               0.000000000               0.000105304               0.000420494              -0.000002147              -0.000013073               0.000144521               0.000131448               0.000000000               0.000000000               0.000000000               0.000000000               0.000131603               0.000469279               0.000000033              -0.000009309               0.000159528               0.000150219               0.000000000               0.000000000               0.000000000               0.000000000               0.000160044               0.000509442               0.000015157              -0.000003664               0.000171033               0.000167370               0.000000000               0.000000000               0.000000000               0.000000000               0.000174114               0.000547284               0.000024622              -0.000003118               0.000183465               0.000180348               0.000000000               0.000000000               0.000000000               0.000000000               0.000177914               0.000589294               0.000031789              -0.000006944               0.000198744               0.000191800               0.000000000               0.000000000               0.000000000               0.000000000               0.000170123               0.000632386               0.000041295              -0.000015252               0.000215877               0.000200625               0.000000000               0.000000000               0.000000000               0.000000000               0.000155915               0.000679929               0.000046546              -0.000026523               0.000235482               0.000208959               0.000000000               0.000000000               0.000000000               0.000000000               0.000140527               0.000731561               0.000047269              -0.000038747               0.000256767               0.000218020               0.000000000               0.000000000               0.000000000               0.000000000               0.000120617               0.000783671               0.000045336              -0.000052727               0.000278797               0.000226069               0.000000000               0.000000000               0.000000000               0.000000000               0.000095871               0.000833177               0.000040432              -0.000068195               0.000300455               0.000232259               0.000000000               0.000000000               0.000000000               0.000000000               0.000071562               0.000880404               0.000033076              -0.000083214               0.000321203               0.000237989               0.000000000               0.000000000               0.000000000               0.000000000               0.000047690               0.000924250               0.000023497              -0.000097647               0.000340629               0.000242982               0.000000000               0.000000000               0.000000000               0.000000000               0.000023073               0.000963555               0.000012238              -0.000111792               0.000358446               0.000246654               0.000000000               0.000000000               0.000000000               0.000000000               0.000016154               0.000990344               0.000009340              -0.000117735               0.000369356               0.000251621               0.000000000               0.000000000               0.000000000               0.000000000               0.000123423               0.000324335               0.000127497               0.000005742               0.000106197               0.000111938               0.000000000               0.000000000               0.000000000               0.000000000               0.000097069               0.000338518               0.000077156              -0.000005914               0.000114810               0.000108895               0.000000000               0.000000000               0.000000000               0.000000000               0.000099291               0.000416850               0.000025080              -0.000014872               0.000143906               0.000129034               0.000000000               0.000000000               0.000000000               0.000000000               0.000121830               0.000491899               0.000005404              -0.000015801               0.000169232               0.000153431               0.000000000               0.000000000               0.000000000               0.000000000               0.000156171               0.000549520               0.000009975              -0.000010126               0.000186547               0.000176421               0.000000000               0.000000000               0.000000000               0.000000000               0.000187139               0.000592978               0.000025008              -0.000003945               0.000198972               0.000195027               0.000000000               0.000000000               0.000000000               0.000000000               0.000199090               0.000640536               0.000032938              -0.000005408               0.000215312               0.000209904               0.000000000               0.000000000               0.000000000               0.000000000               0.000195305               0.000691570               0.000039448              -0.000013207               0.000234923               0.000221717               0.000000000               0.000000000               0.000000000               0.000000000               0.000180791               0.000743476               0.000047458              -0.000025138               0.000256202               0.000231064               0.000000000               0.000000000               0.000000000               0.000000000               0.000162847               0.000800996               0.000050312              -0.000039057               0.000280015               0.000240958               0.000000000               0.000000000               0.000000000               0.000000000               0.000144006               0.000860972               0.000048178              -0.000053619               0.000304861               0.000251242               0.000000000               0.000000000               0.000000000               0.000000000               0.000119744               0.000918845               0.000044050              -0.000069951               0.000329596               0.000259644               0.000000000               0.000000000               0.000000000               0.000000000               0.000093223               0.000974089               0.000037853              -0.000086802               0.000353627               0.000266825               0.000000000               0.000000000               0.000000000               0.000000000               0.000068984               0.001027242               0.000029524              -0.000102536               0.000376589               0.000274053               0.000000000               0.000000000               0.000000000               0.000000000               0.000045135               0.001077150               0.000020345              -0.000117718               0.000398286               0.000280568               0.000000000               0.000000000               0.000000000               0.000000000               0.000021594               0.001122323               0.000010577              -0.000132192               0.000418168               0.000285976               0.000000000               0.000000000               0.000000000               0.000000000               0.000015694               0.001152517               0.000008781              -0.000138179               0.000430228               0.000292049               0.000000000               0.000000000               0.000000000               0.000000000               0.000131560               0.000312006               0.000132000               0.000010334               0.000100556               0.000110890               0.000000000               0.000000000               0.000000000               0.000000000               0.000104397               0.000355663               0.000085316              -0.000005309               0.000120323               0.000115014               0.000000000               0.000000000               0.000000000               0.000000000               0.000107641               0.000467420               0.000035782              -0.000018062               0.000161826               0.000143764               0.000000000               0.000000000               0.000000000               0.000000000               0.000137668               0.000554212               0.000016529              -0.000017651               0.000190619               0.000172968               0.000000000               0.000000000               0.000000000               0.000000000               0.000177981               0.000613565               0.000017759              -0.000009953               0.000207837               0.000197884               0.000000000               0.000000000               0.000000000               0.000000000               0.000209526               0.000665340               0.000028350              -0.000004595               0.000223309               0.000218714               0.000000000               0.000000000               0.000000000               0.000000000               0.000215574               0.000723674               0.000034637              -0.000009619               0.000244429               0.000234810               0.000000000               0.000000000               0.000000000               0.000000000               0.000203274               0.000783633               0.000041364              -0.000021726               0.000268450               0.000246724               0.000000000               0.000000000               0.000000000               0.000000000               0.000185426               0.000846736               0.000047838              -0.000036307               0.000294345               0.000258038               0.000000000               0.000000000               0.000000000               0.000000000               0.000166626               0.000916224               0.000047188              -0.000052043               0.000322753               0.000270709               0.000000000               0.000000000               0.000000000               0.000000000               0.000145579               0.000987223               0.000044154              -0.000068811               0.000352008               0.000283197               0.000000000               0.000000000               0.000000000               0.000000000               0.000120539               0.001054932               0.000039066              -0.000086664               0.000380529               0.000293864               0.000000000               0.000000000               0.000000000               0.000000000               0.000095624               0.001121371               0.000031596              -0.000104312               0.000408557               0.000304245               0.000000000               0.000000000               0.000000000               0.000000000               0.000071249               0.001185379               0.000023311              -0.000121454               0.000435607               0.000314153               0.000000000               0.000000000               0.000000000               0.000000000               0.000046667               0.001244521               0.000014954              -0.000138065               0.000460858               0.000322793               0.000000000               0.000000000               0.000000000               0.000000000               0.000022750               0.001297816               0.000007425              -0.000153695               0.000483833               0.000330137               0.000000000               0.000000000               0.000000000               0.000000000               0.000015259               0.001331781               0.000006921              -0.000160750               0.000497506               0.000336756               0.000000000               0.000000000               0.000000000               0.000000000               0.000142724               0.000293386               0.000132132               0.000016848               0.000092178               0.000109026               0.000000000               0.000000000               0.000000000               0.000000000               0.000115779               0.000365680               0.000092738              -0.000002293               0.000122656               0.000120364               0.000000000               0.000000000               0.000000000               0.000000000               0.000116260               0.000503350               0.000046960              -0.000019321               0.000174222               0.000154901               0.000000000               0.000000000               0.000000000               0.000000000               0.000144666               0.000598014               0.000025299              -0.000020502               0.000206170               0.000185668               0.000000000               0.000000000               0.000000000               0.000000000               0.000185291               0.000658911               0.000018626              -0.000012880               0.000223928               0.000211048               0.000000000               0.000000000               0.000000000               0.000000000               0.000218021               0.000719139               0.000023028              -0.000008134               0.000242422               0.000234288               0.000000000               0.000000000               0.000000000               0.000000000               0.000221547               0.000788142               0.000030222              -0.000015437               0.000267857               0.000252420               0.000000000               0.000000000               0.000000000               0.000000000               0.000209933               0.000858176               0.000039032              -0.000028547               0.000295572               0.000267025               0.000000000               0.000000000               0.000000000               0.000000000               0.000196480               0.000933232               0.000044424              -0.000042974               0.000325399               0.000282425               0.000000000               0.000000000               0.000000000               0.000000000               0.000180202               0.001013175               0.000042847              -0.000059071               0.000357412               0.000298341               0.000000000               0.000000000               0.000000000               0.000000000               0.000160010               0.001092101               0.000039768              -0.000076509               0.000389533               0.000313024               0.000000000               0.000000000               0.000000000               0.000000000               0.000137761               0.001168313               0.000034064              -0.000094379               0.000420893               0.000326515               0.000000000               0.000000000               0.000000000               0.000000000               0.000115258               0.001243048               0.000025322              -0.000112159               0.000451732               0.000339573               0.000000000               0.000000000               0.000000000               0.000000000               0.000091501               0.001314366               0.000016794              -0.000129982               0.000481445               0.000351463               0.000000000               0.000000000               0.000000000               0.000000000               0.000068245               0.001381209               0.000008745              -0.000147059               0.000509418               0.000362359               0.000000000               0.000000000               0.000000000               0.000000000               0.000048035               0.001443758               0.000002075              -0.000162456               0.000535400               0.000372944               0.000000000               0.000000000               0.000000000               0.000000000               0.000037376               0.001477073               0.000000040              -0.000170618               0.000549225               0.000378607               0.000000000               0.000000000               0.000000000               0.000000000               0.000151995               0.000266732               0.000128046               0.000023656               0.000081024               0.000104681               0.000000000               0.000000000               0.000000000               0.000000000               0.000124268               0.000353203               0.000099585               0.000002450               0.000116917               0.000119366               0.000000000               0.000000000               0.000000000               0.000000000               0.000120049               0.000504617               0.000060766              -0.000018059               0.000174224               0.000156165               0.000000000               0.000000000               0.000000000               0.000000000               0.000142956               0.000607553               0.000035997              -0.000022336               0.000209961               0.000187625               0.000000000               0.000000000               0.000000000               0.000000000               0.000182170               0.000682504               0.000023564              -0.000016999               0.000233166               0.000216166               0.000000000               0.000000000               0.000000000               0.000000000               0.000223342               0.000753684               0.000020075              -0.000010457               0.000254711               0.000244254               0.000000000               0.000000000               0.000000000               0.000000000               0.000239549               0.000825785               0.000026326              -0.000013392               0.000279723               0.000266331               0.000000000               0.000000000               0.000000000               0.000000000               0.000235462               0.000898707               0.000036939              -0.000024040               0.000307579               0.000283539               0.000000000               0.000000000               0.000000000               0.000000000               0.000225704               0.000971572               0.000043094              -0.000036807               0.000336123               0.000299316               0.000000000               0.000000000               0.000000000               0.000000000               0.000213657               0.001047733               0.000044378              -0.000050845               0.000366189               0.000315344               0.000000000               0.000000000               0.000000000               0.000000000               0.000198749               0.001127328               0.000042167              -0.000066385               0.000397900               0.000331515               0.000000000               0.000000000               0.000000000               0.000000000               0.000179590               0.001203345               0.000036729              -0.000083072               0.000428801               0.000345730               0.000000000               0.000000000               0.000000000               0.000000000               0.000159351               0.001278544               0.000028917              -0.000100061               0.000459531               0.000359470               0.000000000               0.000000000               0.000000000               0.000000000               0.000138679               0.001353854               0.000019477              -0.000117227               0.000490356               0.000373129               0.000000000               0.000000000               0.000000000               0.000000000               0.000117883               0.001428203               0.000010225              -0.000134319               0.000520836               0.000386517               0.000000000               0.000000000               0.000000000               0.000000000               0.000099797               0.001502126               0.000003094              -0.000150342               0.000550818               0.000400476               0.000000000               0.000000000               0.000000000               0.000000000               0.000084666               0.001533463              -0.000002482              -0.000159933               0.000564460               0.000404527               0.000000000               0.000000000               0.000000000               0.000000000               0.000148231               0.000232968               0.000116736               0.000026465               0.000068833               0.000095299               0.000000000               0.000000000               0.000000000               0.000000000               0.000128413               0.000326310               0.000100490               0.000007366               0.000106314               0.000113680               0.000000000               0.000000000               0.000000000               0.000000000               0.000123913               0.000481960               0.000073395              -0.000013778               0.000165244               0.000151467               0.000000000               0.000000000               0.000000000               0.000000000               0.000144066               0.000595753               0.000049005              -0.000020444               0.000205397               0.000184953               0.000000000               0.000000000               0.000000000               0.000000000               0.000181137               0.000691485               0.000032142              -0.000018509               0.000236663               0.000218153               0.000000000               0.000000000               0.000000000               0.000000000               0.000226094               0.000773677               0.000021720              -0.000011924               0.000261865               0.000249940               0.000000000               0.000000000               0.000000000               0.000000000               0.000256823               0.000848658               0.000021864              -0.000009774               0.000286141               0.000276368               0.000000000               0.000000000               0.000000000               0.000000000               0.000262407               0.000920512               0.000029297              -0.000016661               0.000312388               0.000295727               0.000000000               0.000000000               0.000000000               0.000000000               0.000256797               0.000988989               0.000036302              -0.000027324               0.000338768               0.000311443               0.000000000               0.000000000               0.000000000               0.000000000               0.000248959               0.001058316               0.000040178              -0.000038930               0.000365745               0.000326816               0.000000000               0.000000000               0.000000000               0.000000000               0.000239573               0.001133596               0.000040002              -0.000051859               0.000395148               0.000343289               0.000000000               0.000000000               0.000000000               0.000000000               0.000228260               0.001210172               0.000036437              -0.000065674               0.000425278               0.000359604               0.000000000               0.000000000               0.000000000               0.000000000               0.000214243               0.001284212               0.000031376              -0.000080185               0.000454795               0.000374610               0.000000000               0.000000000               0.000000000               0.000000000               0.000198769               0.001356455               0.000023880              -0.000095018               0.000483820               0.000388802               0.000000000               0.000000000               0.000000000               0.000000000               0.000183554               0.001432072               0.000014629              -0.000110176               0.000514078               0.000403902               0.000000000               0.000000000               0.000000000               0.000000000               0.000166737               0.001505186               0.000006349              -0.000125622               0.000543598               0.000417976               0.000000000               0.000000000               0.000000000               0.000000000               0.000148000               0.001531224              -0.000001032              -0.000135903               0.000555704               0.000419801               0.000000000               0.000000000               0.000000000               0.000000000               0.000134266               0.000186231               0.000098998               0.000027071               0.000053053               0.000080123               0.000000000               0.000000000               0.000000000               0.000000000               0.000131071               0.000286432               0.000095736               0.000013348               0.000091027               0.000104375               0.000000000               0.000000000               0.000000000               0.000000000               0.000135644               0.000447723               0.000081703              -0.000005099               0.000150939               0.000145840               0.000000000               0.000000000               0.000000000               0.000000000               0.000154225               0.000579564               0.000061625              -0.000014611               0.000198056               0.000183445               0.000000000               0.000000000               0.000000000               0.000000000               0.000185392               0.000693231               0.000043116              -0.000017132               0.000236785               0.000219653               0.000000000               0.000000000               0.000000000               0.000000000               0.000225875               0.000785316               0.000027021              -0.000013461               0.000266256               0.000252795               0.000000000               0.000000000               0.000000000               0.000000000               0.000261367               0.000863913               0.000018285              -0.000009976               0.000291294               0.000281317               0.000000000               0.000000000               0.000000000               0.000000000               0.000278718               0.000937083               0.000019204              -0.000012616               0.000316563               0.000303947               0.000000000               0.000000000               0.000000000               0.000000000               0.000281648               0.001005510               0.000025511              -0.000020071               0.000341857               0.000321786               0.000000000               0.000000000               0.000000000               0.000000000               0.000279609               0.001070310               0.000031219              -0.000028935               0.000366411               0.000337476               0.000000000               0.000000000               0.000000000               0.000000000               0.000276096               0.001139604               0.000033884              -0.000038915               0.000392836               0.000353921               0.000000000               0.000000000               0.000000000               0.000000000               0.000273088               0.001214835               0.000033190              -0.000049446               0.000421423               0.000371977               0.000000000               0.000000000               0.000000000               0.000000000               0.000268206               0.001290795               0.000030206              -0.000060772               0.000450518               0.000389746               0.000000000               0.000000000               0.000000000               0.000000000               0.000259434               0.001361070               0.000025823              -0.000072846               0.000477967               0.000405122               0.000000000               0.000000000               0.000000000               0.000000000               0.000250335               0.001434087               0.000019078              -0.000085385               0.000506486               0.000421101               0.000000000               0.000000000               0.000000000               0.000000000               0.000239344               0.001508917               0.000009950              -0.000098860               0.000535921               0.000437060               0.000000000               0.000000000               0.000000000               0.000000000               0.000223639               0.001538827               0.000002078              -0.000108489               0.000549100               0.000440612               0.000000000               0.000000000               0.000000000               0.000000000               0.000117500               0.000144149               0.000076940               0.000026044               0.000039368               0.000065412               0.000000000               0.000000000               0.000000000               0.000000000               0.000131588               0.000247297               0.000085985               0.000018433               0.000076287               0.000094720               0.000000000               0.000000000               0.000000000               0.000000000               0.000149505               0.000413043               0.000083660               0.000004434               0.000136202               0.000140636               0.000000000               0.000000000               0.000000000               0.000000000               0.000169911               0.000556895               0.000068373              -0.000005895               0.000187595               0.000181700               0.000000000               0.000000000               0.000000000               0.000000000               0.000194708               0.000679069               0.000050401              -0.000011868               0.000230310               0.000218442               0.000000000               0.000000000               0.000000000               0.000000000               0.000225887               0.000780060               0.000031875              -0.000012800               0.000264284               0.000251484               0.000000000               0.000000000               0.000000000               0.000000000               0.000261413               0.000867399               0.000017319              -0.000010395               0.000292595               0.000282200               0.000000000               0.000000000               0.000000000               0.000000000               0.000288785               0.000947844               0.000012042              -0.000010186               0.000319340               0.000309154               0.000000000               0.000000000               0.000000000               0.000000000               0.000303890               0.001021671               0.000015273              -0.000013750               0.000345137               0.000331387               0.000000000               0.000000000               0.000000000               0.000000000               0.000310072               0.001087050               0.000020721              -0.000019604               0.000368881               0.000349277               0.000000000               0.000000000               0.000000000               0.000000000               0.000312261               0.001150807               0.000024936              -0.000026753               0.000392516               0.000365763               0.000000000               0.000000000               0.000000000               0.000000000               0.000314304               0.001220410               0.000026585              -0.000034687               0.000418362               0.000383674               0.000000000               0.000000000               0.000000000               0.000000000               0.000316955               0.001294917               0.000024929              -0.000043007               0.000445970               0.000402964               0.000000000               0.000000000               0.000000000               0.000000000               0.000317275               0.001368029               0.000021834              -0.000052025               0.000473347               0.000421322               0.000000000               0.000000000               0.000000000               0.000000000               0.000315124               0.001437822               0.000017760              -0.000061556               0.000499788               0.000438232               0.000000000               0.000000000               0.000000000               0.000000000               0.000312115               0.001508374               0.000010072              -0.000071504               0.000526621               0.000455117               0.000000000               0.000000000               0.000000000               0.000000000               0.000304824               0.001541544               0.000003219              -0.000078384               0.000539971               0.000461587               0.000000000               0.000000000               0.000000000               0.000000000               0.000098305               0.000115666               0.000055185               0.000022406               0.000031086               0.000053492               0.000000000               0.000000000               0.000000000               0.000000000               0.000131459               0.000214107               0.000070899               0.000022534               0.000063857               0.000086391               0.000000000               0.000000000               0.000000000               0.000000000               0.000163719               0.000376208               0.000076389               0.000014368               0.000120612               0.000134980               0.000000000               0.000000000               0.000000000               0.000000000               0.000187167               0.000523217               0.000065954               0.000004785               0.000172809               0.000177594               0.000000000               0.000000000               0.000000000               0.000000000               0.000208601               0.000652592               0.000050275              -0.000003348               0.000218645               0.000215296               0.000000000               0.000000000               0.000000000               0.000000000               0.000234734               0.000766195               0.000033528              -0.000007749               0.000257979               0.000250230               0.000000000               0.000000000               0.000000000               0.000000000               0.000266916               0.000865646               0.000018286              -0.000008112               0.000291250               0.000283138               0.000000000               0.000000000               0.000000000               0.000000000               0.000298082               0.000954386               0.000009304              -0.000007517               0.000320631               0.000313114               0.000000000               0.000000000               0.000000000               0.000000000               0.000320928               0.001033608               0.000008322              -0.000008853               0.000347484               0.000338631               0.000000000               0.000000000               0.000000000               0.000000000               0.000335484               0.001102831               0.000010794              -0.000012047               0.000371622               0.000359575               0.000000000               0.000000000               0.000000000               0.000000000               0.000344042               0.001164184               0.000013971              -0.000016507               0.000393560               0.000377053               0.000000000               0.000000000               0.000000000               0.000000000               0.000350731               0.001227876               0.000016508              -0.000021960               0.000416608               0.000394648               0.000000000               0.000000000               0.000000000               0.000000000               0.000358740               0.001297453               0.000016511              -0.000027654               0.000441698               0.000414044               0.000000000               0.000000000               0.000000000               0.000000000               0.000368485               0.001372783               0.000014490              -0.000033416               0.000468729               0.000435312               0.000000000               0.000000000               0.000000000               0.000000000               0.000376006               0.001443533               0.000011661              -0.000039439               0.000494319               0.000454880               0.000000000               0.000000000               0.000000000               0.000000000               0.000381955               0.001508722               0.000007360              -0.000045357               0.000518021               0.000472664               0.000000000               0.000000000               0.000000000               0.000000000               0.000382668               0.001540519               0.000003448              -0.000049064               0.000529856               0.000480792               0.000000000               0.000000000               0.000000000               0.000000000               0.000079067               0.000093173               0.000035294               0.000018003               0.000025056               0.000043060               0.000000000               0.000000000               0.000000000               0.000000000               0.000130951               0.000185385               0.000050382               0.000025933               0.000053150               0.000079083               0.000000000               0.000000000               0.000000000               0.000000000               0.000176500               0.000342246               0.000058210               0.000023406               0.000106279               0.000129685               0.000000000               0.000000000               0.000000000               0.000000000               0.000204355               0.000490465               0.000052513               0.000015325               0.000158378               0.000173703               0.000000000               0.000000000               0.000000000               0.000000000               0.000225144               0.000624745               0.000042332               0.000006336               0.000206134               0.000212470               0.000000000               0.000000000               0.000000000               0.000000000               0.000248549               0.000747809               0.000030458              -0.000000270               0.000249357               0.000249087               0.000000000               0.000000000               0.000000000               0.000000000               0.000275661               0.000857628               0.000017508              -0.000003831               0.000287150               0.000283319               0.000000000               0.000000000               0.000000000               0.000000000               0.000305541               0.000954615               0.000007384              -0.000004749               0.000319785               0.000315036               0.000000000               0.000000000               0.000000000               0.000000000               0.000331984               0.001039513               0.000003816              -0.000005445               0.000348316               0.000342871               0.000000000               0.000000000               0.000000000               0.000000000               0.000353107               0.001114356               0.000004071              -0.000006879               0.000373741               0.000366862               0.000000000               0.000000000               0.000000000               0.000000000               0.000368785               0.001177942               0.000005409              -0.000008948               0.000395626               0.000386678               0.000000000               0.000000000               0.000000000               0.000000000               0.000381290               0.001237717               0.000007328              -0.000011731               0.000416479               0.000404748               0.000000000               0.000000000               0.000000000               0.000000000               0.000394201               0.001302107               0.000008079              -0.000014938               0.000439010               0.000424073               0.000000000               0.000000000               0.000000000               0.000000000               0.000409539               0.001373579               0.000007084              -0.000018120               0.000463895               0.000445775               0.000000000               0.000000000               0.000000000               0.000000000               0.000425279               0.001445168               0.000004916              -0.000021166               0.000488773               0.000467607               0.000000000               0.000000000               0.000000000               0.000000000               0.000440180               0.001512062               0.000003161              -0.000023940               0.000511995               0.000488055               0.000000000               0.000000000               0.000000000               0.000000000               0.000446575               0.001543844               0.000001935              -0.000025515               0.000523114               0.000497600               0.000000000               0.000000000               0.000000000               0.000000000               0.000065095               0.000078940               0.000016666               0.000014543               0.000021466               0.000036009               0.000000000               0.000000000               0.000000000               0.000000000               0.000128643               0.000166760               0.000025892               0.000027396               0.000046454               0.000073850               0.000000000               0.000000000               0.000000000               0.000000000               0.000185196               0.000319282               0.000031611               0.000029538               0.000096580               0.000126118               0.000000000               0.000000000               0.000000000               0.000000000               0.000217548               0.000466219               0.000029315               0.000023303               0.000147637               0.000170940               0.000000000               0.000000000               0.000000000               0.000000000               0.000239992               0.000603572               0.000024292               0.000014550               0.000196339               0.000210889               0.000000000               0.000000000               0.000000000               0.000000000               0.000260425               0.000732481               0.000017996               0.000006099               0.000242125               0.000248224               0.000000000               0.000000000               0.000000000               0.000000000               0.000282768               0.000847656               0.000010859               0.000000081               0.000282522               0.000282603               0.000000000               0.000000000               0.000000000               0.000000000               0.000309908               0.000951112               0.000004703              -0.000002673               0.000317925               0.000315252               0.000000000               0.000000000               0.000000000               0.000000000               0.000338263               0.001042393               0.000001887              -0.000003451               0.000348611               0.000345160               0.000000000               0.000000000               0.000000000               0.000000000               0.000363203               0.001121119               0.000001263              -0.000003939               0.000375015               0.000371077               0.000000000               0.000000000               0.000000000               0.000000000               0.000383936               0.001187372               0.000001363              -0.000004445               0.000397269               0.000392823               0.000000000               0.000000000               0.000000000               0.000000000               0.000401270               0.001245026               0.000002096              -0.000005152               0.000416722               0.000411570               0.000000000               0.000000000               0.000000000               0.000000000               0.000418459               0.001305282               0.000002440              -0.000006238               0.000437169               0.000430931               0.000000000               0.000000000               0.000000000               0.000000000               0.000437219               0.001372051               0.000002037              -0.000007549               0.000459862               0.000452313               0.000000000               0.000000000               0.000000000               0.000000000               0.000457542               0.001443590               0.000000997              -0.000008870               0.000484149               0.000475278               0.000000000               0.000000000               0.000000000               0.000000000               0.000477796               0.001514929               0.000000439              -0.000010193               0.000508369               0.000498176               0.000000000               0.000000000               0.000000000               0.000000000               0.000486548               0.001548267               0.000000198              -0.000011078               0.000519776               0.000508699               0.000000000               0.000000000               0.000000000               0.000000000               0.000000000               0.000000000               0.000000000               0.000000000               0.000000000               0.000000000               0.000000000               0.000000000               0.000000000               0.000000000               0.000000000               0.000000000               0.000000000               0.000000000               0.000000000               0.000000000               0.000000000               0.000000000               0.000000000               0.000000000               0.000000000               0.000000000               0.000000000               0.000000000               0.000000000               0.000000000               0.000000000               0.000000000               0.000000000               0.000000000               0.000000000               0.000000000               0.000000000               0.000000000               0.000000000               0.000000000               0.000000000               0.000000000               0.000000000               0.000000000               0.000000000               0.000000000               0.000000000               0.000000000               0.000000000               0.000000000               0.000000000               0.000000000               0.000000000               0.000000000               0.000000000               0.000000000               0.000000000               0.000000000               0.000000000               0.000000000               0.000000000               0.000000000               0.000000000               0.000000000               0.000000000               0.000000000               0.000000000               0.000000000               0.000000000               0.000000000               0.000000000               0.000000000               0.000000000               0.000000000               0.000000000               0.000000000               0.000000000               0.000000000               0.000000000               0.000000000               0.000000000               0.000000000               0.000000000               0.000000000               0.000000000               0.000000000               0.000000000               0.000000000               0.000000000               0.000000000               0.000000000               0.000000000               0.000000000               0.000000000               0.000000000               0.000000000               0.000000000               0.000000000               0.000000000               0.000000000               0.000000000               0.000000000               0.000000000               0.000000000               0.000000000               0.000000000               0.000000000               0.000000000               0.000000000               0.000000000               0.000000000               0.000000000               0.000000000               0.000000000               0.000000000               0.000000000               0.000000000               0.000000000               0.000000000               0.000000000               0.000000000               0.000000000               0.000000000               0.000000000               0.000000000               0.000000000               0.000000000               0.000000000               0.000000000               0.000000000               0.000000000               0.000000000               0.000000000               0.000000000               0.000000000               0.000000000               0.000000000               0.000000000               0.000000000               0.000000000               0.000000000               0.000000000               0.000000000               0.000000000               0.000000000               0.000000000               0.000000000               0.000000000               0.000000000               0.000000000               0.000000000               0.000000000               0.000000000               0.000000000               0.000000000               0.000000000               0.000000000               0.000000000               0.000000000               0.000000000               0.000000000               0.000000000               0.000000000               0.000000000               0.000000000               0.000000000               0.000000000               0.000000000               0.000000000               0.000000000               0.000000000               0.000000000               0.000000000               0.000000000 </DataArray>
</PointData>
</Piece>
</UnstructuredGrid> </VTKFile>
