<?xml version="1.0"?>
<VTKFile type="UnstructuredGrid" version="0.1">
<UnstructuredGrid>
<Piece NumberOfPoints="      1156" NumberOfCells="      1024">
<Points>
<DataArray type="Float64"                                    Name="coordinates"                                                      NumberOfComponents=" 3" format="ascii">
              0.133000000               0.000000000               0.000000000               0.155937500               0.000000000               0.000000000               0.178875000               0.000000000               0.000000000               0.201812500               0.000000000               0.000000000               0.224750000               0.000000000               0.000000000               0.247687500               0.000000000               0.000000000               0.270625000               0.000000000               0.000000000               0.293562500               0.000000000               0.000000000               0.316500000               0.000000000               0.000000000               0.339437500               0.000000000               0.000000000               0.362375000               0.000000000               0.000000000               0.385312500               0.000000000               0.000000000               0.408250000               0.000000000               0.000000000               0.431187500               0.000000000               0.000000000               0.454125000               0.000000000               0.000000000               0.477062500               0.000000000               0.000000000               0.500000000               0.000000000               0.000000000               0.132359569               0.013036280               0.000000000               0.155337096               0.016127762               0.000000000               0.178314623               0.019219245               0.000000000               0.201292150               0.022310727               0.000000000               0.224269676               0.025402210               0.000000000               0.247247203               0.028493692               0.000000000               0.270224730               0.031585175               0.000000000               0.293202257               0.034676657               0.000000000               0.316179784               0.037768140               0.000000000               0.339157311               0.040859622               0.000000000               0.362134838               0.043951105               0.000000000               0.385112365               0.047042587               0.000000000               0.408089892               0.050134070               0.000000000               0.431067419               0.053225552               0.000000000               0.454044946               0.056317035               0.000000000               0.477022473               0.059408517               0.000000000               0.500000000               0.062500000               0.000000000               0.130444442               0.025947013               0.000000000               0.153541665               0.032137825               0.000000000               0.176638887               0.038328636               0.000000000               0.199736109               0.044519448               0.000000000               0.222833332               0.050710260               0.000000000               0.245930554               0.056901071               0.000000000               0.269027776               0.063091883               0.000000000               0.292124999               0.069282695               0.000000000               0.315222221               0.075473506               0.000000000               0.338319444               0.081664318               0.000000000               0.361416666               0.087855130               0.000000000               0.384513888               0.094045942               0.000000000               0.407611111               0.100236753               0.000000000               0.430708333               0.106427565               0.000000000               0.453805555               0.112618377               0.000000000               0.476902778               0.118809188               0.000000000               0.500000000               0.125000000               0.000000000               0.127273065               0.038607862               0.000000000               0.150568498               0.047913621               0.000000000               0.173863932               0.057219379               0.000000000               0.197159365               0.066525138               0.000000000               0.220454798               0.075830897               0.000000000               0.243750232               0.085136655               0.000000000               0.267045665               0.094442414               0.000000000               0.290341099               0.103748172               0.000000000               0.313636532               0.113053931               0.000000000               0.336931966               0.122359690               0.000000000               0.360227399               0.131665448               0.000000000               0.383522833               0.140971207               0.000000000               0.406818266               0.150276966               0.000000000               0.430113700               0.159582724               0.000000000               0.453409133               0.168888483               0.000000000               0.476704567               0.178194241               0.000000000               0.500000000               0.187500000               0.000000000               0.122875978               0.050896897               0.000000000               0.146446229               0.063340840               0.000000000               0.170016481               0.075784784               0.000000000               0.193586732               0.088228728               0.000000000               0.217156983               0.100672672               0.000000000               0.240727235               0.113116616               0.000000000               0.264297486               0.125560560               0.000000000               0.287867738               0.138004504               0.000000000               0.311437989               0.150448448               0.000000000               0.335008240               0.162892392               0.000000000               0.358578492               0.175336336               0.000000000               0.382148743               0.187780280               0.000000000               0.405718994               0.200224224               0.000000000               0.429289246               0.212668168               0.000000000               0.452859497               0.225112112               0.000000000               0.476429749               0.237556056               0.000000000               0.500000000               0.250000000               0.000000000               0.117295528               0.062695766               0.000000000               0.141214558               0.078308531               0.000000000               0.165133587               0.093921295               0.000000000               0.189052617               0.109534060               0.000000000               0.212971646               0.125146824               0.000000000               0.236890676               0.140759589               0.000000000               0.260809705               0.156372354               0.000000000               0.284728735               0.171985118               0.000000000               0.308647764               0.187597883               0.000000000               0.332566794               0.203210648               0.000000000               0.356485823               0.218823412               0.000000000               0.380404853               0.234436177               0.000000000               0.404323882               0.250048941               0.000000000               0.428242912               0.265661706               0.000000000               0.452161941               0.281274471               0.000000000               0.476080971               0.296887235               0.000000000               0.500000000               0.312500000               0.000000000               0.110585458               0.073890841               0.000000000               0.134923867               0.092710163               0.000000000               0.159262276               0.111529486               0.000000000               0.183600685               0.130348808               0.000000000               0.207939094               0.149168131               0.000000000               0.232277503               0.167987453               0.000000000               0.256615912               0.186806776               0.000000000               0.280954320               0.205626098               0.000000000               0.305292729               0.224445420               0.000000000               0.329631138               0.243264743               0.000000000               0.353969547               0.262084065               0.000000000               0.378307956               0.280903388               0.000000000               0.402646365               0.299722710               0.000000000               0.426984773               0.318542033               0.000000000               0.451323182               0.337361355               0.000000000               0.475661591               0.356180678               0.000000000               0.500000000               0.375000000               0.000000000               0.102810390               0.084374307               0.000000000               0.127634741               0.106444663               0.000000000               0.152459092               0.128515018               0.000000000               0.177283442               0.150585374               0.000000000               0.202107793               0.172655730               0.000000000               0.226932143               0.194726086               0.000000000               0.251756494               0.216796442               0.000000000               0.276580845               0.238866798               0.000000000               0.301405195               0.260937153               0.000000000               0.326229546               0.283007509               0.000000000               0.351053896               0.305077865               0.000000000               0.375878247               0.327148221               0.000000000               0.400702598               0.349218577               0.000000000               0.425526948               0.371288933               0.000000000               0.450351299               0.393359288               0.000000000               0.475175649               0.415429644               0.000000000               0.500000000               0.437500000               0.000000000               0.094045202               0.094045202               0.000000000               0.119417377               0.119417377               0.000000000               0.144789552               0.144789552               0.000000000               0.170161727               0.170161727               0.000000000               0.195533901               0.195533901               0.000000000               0.220906076               0.220906076               0.000000000               0.246278251               0.246278251               0.000000000               0.271650426               0.271650426               0.000000000               0.297022601               0.297022601               0.000000000               0.322394776               0.322394776               0.000000000               0.347766951               0.347766951               0.000000000               0.373139126               0.373139126               0.000000000               0.398511300               0.398511300               0.000000000               0.423883475               0.423883475               0.000000000               0.449255650               0.449255650               0.000000000               0.474627825               0.474627825               0.000000000               0.500000000               0.500000000               0.000000000               0.084374307               0.102810390               0.000000000               0.106444663               0.127634741               0.000000000               0.128515018               0.152459092               0.000000000               0.150585374               0.177283442               0.000000000               0.172655730               0.202107793               0.000000000               0.194726086               0.226932143               0.000000000               0.216796442               0.251756494               0.000000000               0.238866798               0.276580845               0.000000000               0.260937153               0.301405195               0.000000000               0.283007509               0.326229546               0.000000000               0.305077865               0.351053896               0.000000000               0.327148221               0.375878247               0.000000000               0.349218577               0.400702598               0.000000000               0.371288933               0.425526948               0.000000000               0.393359288               0.450351299               0.000000000               0.415429644               0.475175649               0.000000000               0.437500000               0.500000000               0.000000000               0.073890841               0.110585458               0.000000000               0.092710163               0.134923867               0.000000000               0.111529486               0.159262276               0.000000000               0.130348808               0.183600685               0.000000000               0.149168131               0.207939094               0.000000000               0.167987453               0.232277503               0.000000000               0.186806776               0.256615912               0.000000000               0.205626098               0.280954320               0.000000000               0.224445420               0.305292729               0.000000000               0.243264743               0.329631138               0.000000000               0.262084065               0.353969547               0.000000000               0.280903388               0.378307956               0.000000000               0.299722710               0.402646365               0.000000000               0.318542033               0.426984773               0.000000000               0.337361355               0.451323182               0.000000000               0.356180678               0.475661591               0.000000000               0.375000000               0.500000000               0.000000000               0.062695766               0.117295528               0.000000000               0.078308531               0.141214558               0.000000000               0.093921295               0.165133587               0.000000000               0.109534060               0.189052617               0.000000000               0.125146824               0.212971646               0.000000000               0.140759589               0.236890676               0.000000000               0.156372354               0.260809705               0.000000000               0.171985118               0.284728735               0.000000000               0.187597883               0.308647764               0.000000000               0.203210648               0.332566794               0.000000000               0.218823412               0.356485823               0.000000000               0.234436177               0.380404853               0.000000000               0.250048941               0.404323882               0.000000000               0.265661706               0.428242912               0.000000000               0.281274471               0.452161941               0.000000000               0.296887235               0.476080971               0.000000000               0.312500000               0.500000000               0.000000000               0.050896897               0.122875978               0.000000000               0.063340840               0.146446229               0.000000000               0.075784784               0.170016481               0.000000000               0.088228728               0.193586732               0.000000000               0.100672672               0.217156983               0.000000000               0.113116616               0.240727235               0.000000000               0.125560560               0.264297486               0.000000000               0.138004504               0.287867738               0.000000000               0.150448448               0.311437989               0.000000000               0.162892392               0.335008240               0.000000000               0.175336336               0.358578492               0.000000000               0.187780280               0.382148743               0.000000000               0.200224224               0.405718994               0.000000000               0.212668168               0.429289246               0.000000000               0.225112112               0.452859497               0.000000000               0.237556056               0.476429749               0.000000000               0.250000000               0.500000000               0.000000000               0.038607862               0.127273065               0.000000000               0.047913621               0.150568498               0.000000000               0.057219379               0.173863932               0.000000000               0.066525138               0.197159365               0.000000000               0.075830897               0.220454798               0.000000000               0.085136655               0.243750232               0.000000000               0.094442414               0.267045665               0.000000000               0.103748172               0.290341099               0.000000000               0.113053931               0.313636532               0.000000000               0.122359690               0.336931966               0.000000000               0.131665448               0.360227399               0.000000000               0.140971207               0.383522833               0.000000000               0.150276966               0.406818266               0.000000000               0.159582724               0.430113700               0.000000000               0.168888483               0.453409133               0.000000000               0.178194241               0.476704567               0.000000000               0.187500000               0.500000000               0.000000000               0.025947013               0.130444442               0.000000000               0.032137825               0.153541665               0.000000000               0.038328636               0.176638887               0.000000000               0.044519448               0.199736109               0.000000000               0.050710260               0.222833332               0.000000000               0.056901071               0.245930554               0.000000000               0.063091883               0.269027776               0.000000000               0.069282695               0.292124999               0.000000000               0.075473506               0.315222221               0.000000000               0.081664318               0.338319444               0.000000000               0.087855130               0.361416666               0.000000000               0.094045942               0.384513888               0.000000000               0.100236753               0.407611111               0.000000000               0.106427565               0.430708333               0.000000000               0.112618377               0.453805555               0.000000000               0.118809188               0.476902778               0.000000000               0.125000000               0.500000000               0.000000000               0.013036280               0.132359569               0.000000000               0.016127762               0.155337096               0.000000000               0.019219245               0.178314623               0.000000000               0.022310727               0.201292150               0.000000000               0.025402210               0.224269676               0.000000000               0.028493692               0.247247203               0.000000000               0.031585175               0.270224730               0.000000000               0.034676657               0.293202257               0.000000000               0.037768140               0.316179784               0.000000000               0.040859622               0.339157311               0.000000000               0.043951105               0.362134838               0.000000000               0.047042587               0.385112365               0.000000000               0.050134070               0.408089892               0.000000000               0.053225552               0.431067419               0.000000000               0.056317035               0.454044946               0.000000000               0.059408517               0.477022473               0.000000000               0.062500000               0.500000000               0.000000000               0.000000000               0.133000000               0.000000000               0.000000000               0.155937500               0.000000000               0.000000000               0.178875000               0.000000000               0.000000000               0.201812500               0.000000000               0.000000000               0.224750000               0.000000000               0.000000000               0.247687500               0.000000000               0.000000000               0.270625000               0.000000000               0.000000000               0.293562500               0.000000000               0.000000000               0.316500000               0.000000000               0.000000000               0.339437500               0.000000000               0.000000000               0.362375000               0.000000000               0.000000000               0.385312500               0.000000000               0.000000000               0.408250000               0.000000000               0.000000000               0.431187500               0.000000000               0.000000000               0.454125000               0.000000000               0.000000000               0.477062500               0.000000000               0.000000000               0.500000000               0.000000000               0.133000000               0.000000000               0.000000000               0.155937500               0.000000000               0.000000000               0.178875000               0.000000000               0.000000000               0.201812500               0.000000000               0.000000000               0.224750000               0.000000000               0.000000000               0.247687500               0.000000000               0.000000000               0.270625000               0.000000000               0.000000000               0.293562500               0.000000000               0.000000000               0.316500000               0.000000000               0.000000000               0.339437500               0.000000000               0.000000000               0.362375000               0.000000000               0.000000000               0.385312500               0.000000000               0.000000000               0.408250000               0.000000000               0.000000000               0.431187500               0.000000000               0.000000000               0.454125000               0.000000000               0.000000000               0.477062500               0.000000000               0.000000000               0.500000000               0.000000000               0.000000000               0.132359569              -0.013036280               0.000000000               0.155337096              -0.016127762               0.000000000               0.178314623              -0.019219245               0.000000000               0.201292150              -0.022310727               0.000000000               0.224269676              -0.025402210               0.000000000               0.247247203              -0.028493692               0.000000000               0.270224730              -0.031585175               0.000000000               0.293202257              -0.034676657               0.000000000               0.316179784              -0.037768140               0.000000000               0.339157311              -0.040859622               0.000000000               0.362134838              -0.043951105               0.000000000               0.385112365              -0.047042587               0.000000000               0.408089892              -0.050134070               0.000000000               0.431067419              -0.053225552               0.000000000               0.454044946              -0.056317035               0.000000000               0.477022473              -0.059408517               0.000000000               0.500000000              -0.062500000               0.000000000               0.130444442              -0.025947013               0.000000000               0.153541665              -0.032137825               0.000000000               0.176638887              -0.038328636               0.000000000               0.199736109              -0.044519448               0.000000000               0.222833332              -0.050710260               0.000000000               0.245930554              -0.056901071               0.000000000               0.269027776              -0.063091883               0.000000000               0.292124999              -0.069282695               0.000000000               0.315222221              -0.075473506               0.000000000               0.338319444              -0.081664318               0.000000000               0.361416666              -0.087855130               0.000000000               0.384513888              -0.094045942               0.000000000               0.407611111              -0.100236753               0.000000000               0.430708333              -0.106427565               0.000000000               0.453805555              -0.112618377               0.000000000               0.476902778              -0.118809188               0.000000000               0.500000000              -0.125000000               0.000000000               0.127273065              -0.038607862               0.000000000               0.150568498              -0.047913621               0.000000000               0.173863932              -0.057219379               0.000000000               0.197159365              -0.066525138               0.000000000               0.220454798              -0.075830897               0.000000000               0.243750232              -0.085136655               0.000000000               0.267045665              -0.094442414               0.000000000               0.290341099              -0.103748172               0.000000000               0.313636532              -0.113053931               0.000000000               0.336931966              -0.122359690               0.000000000               0.360227399              -0.131665448               0.000000000               0.383522833              -0.140971207               0.000000000               0.406818266              -0.150276966               0.000000000               0.430113700              -0.159582724               0.000000000               0.453409133              -0.168888483               0.000000000               0.476704567              -0.178194241               0.000000000               0.500000000              -0.187500000               0.000000000               0.122875978              -0.050896897               0.000000000               0.146446229              -0.063340840               0.000000000               0.170016481              -0.075784784               0.000000000               0.193586732              -0.088228728               0.000000000               0.217156983              -0.100672672               0.000000000               0.240727235              -0.113116616               0.000000000               0.264297486              -0.125560560               0.000000000               0.287867738              -0.138004504               0.000000000               0.311437989              -0.150448448               0.000000000               0.335008240              -0.162892392               0.000000000               0.358578492              -0.175336336               0.000000000               0.382148743              -0.187780280               0.000000000               0.405718994              -0.200224224               0.000000000               0.429289246              -0.212668168               0.000000000               0.452859497              -0.225112112               0.000000000               0.476429749              -0.237556056               0.000000000               0.500000000              -0.250000000               0.000000000               0.117295528              -0.062695766               0.000000000               0.141214558              -0.078308531               0.000000000               0.165133587              -0.093921295               0.000000000               0.189052617              -0.109534060               0.000000000               0.212971646              -0.125146824               0.000000000               0.236890676              -0.140759589               0.000000000               0.260809705              -0.156372354               0.000000000               0.284728735              -0.171985118               0.000000000               0.308647764              -0.187597883               0.000000000               0.332566794              -0.203210648               0.000000000               0.356485823              -0.218823412               0.000000000               0.380404853              -0.234436177               0.000000000               0.404323882              -0.250048941               0.000000000               0.428242912              -0.265661706               0.000000000               0.452161941              -0.281274471               0.000000000               0.476080971              -0.296887235               0.000000000               0.500000000              -0.312500000               0.000000000               0.110585458              -0.073890841               0.000000000               0.134923867              -0.092710163               0.000000000               0.159262276              -0.111529486               0.000000000               0.183600685              -0.130348808               0.000000000               0.207939094              -0.149168131               0.000000000               0.232277503              -0.167987453               0.000000000               0.256615912              -0.186806776               0.000000000               0.280954320              -0.205626098               0.000000000               0.305292729              -0.224445420               0.000000000               0.329631138              -0.243264743               0.000000000               0.353969547              -0.262084065               0.000000000               0.378307956              -0.280903388               0.000000000               0.402646365              -0.299722710               0.000000000               0.426984773              -0.318542033               0.000000000               0.451323182              -0.337361355               0.000000000               0.475661591              -0.356180678               0.000000000               0.500000000              -0.375000000               0.000000000               0.102810390              -0.084374307               0.000000000               0.127634741              -0.106444663               0.000000000               0.152459092              -0.128515018               0.000000000               0.177283442              -0.150585374               0.000000000               0.202107793              -0.172655730               0.000000000               0.226932143              -0.194726086               0.000000000               0.251756494              -0.216796442               0.000000000               0.276580845              -0.238866798               0.000000000               0.301405195              -0.260937153               0.000000000               0.326229546              -0.283007509               0.000000000               0.351053896              -0.305077865               0.000000000               0.375878247              -0.327148221               0.000000000               0.400702598              -0.349218577               0.000000000               0.425526948              -0.371288933               0.000000000               0.450351299              -0.393359288               0.000000000               0.475175649              -0.415429644               0.000000000               0.500000000              -0.437500000               0.000000000               0.094045202              -0.094045202               0.000000000               0.119417377              -0.119417377               0.000000000               0.144789552              -0.144789552               0.000000000               0.170161727              -0.170161727               0.000000000               0.195533901              -0.195533901               0.000000000               0.220906076              -0.220906076               0.000000000               0.246278251              -0.246278251               0.000000000               0.271650426              -0.271650426               0.000000000               0.297022601              -0.297022601               0.000000000               0.322394776              -0.322394776               0.000000000               0.347766951              -0.347766951               0.000000000               0.373139126              -0.373139126               0.000000000               0.398511300              -0.398511300               0.000000000               0.423883475              -0.423883475               0.000000000               0.449255650              -0.449255650               0.000000000               0.474627825              -0.474627825               0.000000000               0.500000000              -0.500000000               0.000000000               0.084374307              -0.102810390               0.000000000               0.106444663              -0.127634741               0.000000000               0.128515018              -0.152459092               0.000000000               0.150585374              -0.177283442               0.000000000               0.172655730              -0.202107793               0.000000000               0.194726086              -0.226932143               0.000000000               0.216796442              -0.251756494               0.000000000               0.238866798              -0.276580845               0.000000000               0.260937153              -0.301405195               0.000000000               0.283007509              -0.326229546               0.000000000               0.305077865              -0.351053896               0.000000000               0.327148221              -0.375878247               0.000000000               0.349218577              -0.400702598               0.000000000               0.371288933              -0.425526948               0.000000000               0.393359288              -0.450351299               0.000000000               0.415429644              -0.475175649               0.000000000               0.437500000              -0.500000000               0.000000000               0.073890841              -0.110585458               0.000000000               0.092710163              -0.134923867               0.000000000               0.111529486              -0.159262276               0.000000000               0.130348808              -0.183600685               0.000000000               0.149168131              -0.207939094               0.000000000               0.167987453              -0.232277503               0.000000000               0.186806776              -0.256615912               0.000000000               0.205626098              -0.280954320               0.000000000               0.224445420              -0.305292729               0.000000000               0.243264743              -0.329631138               0.000000000               0.262084065              -0.353969547               0.000000000               0.280903388              -0.378307956               0.000000000               0.299722710              -0.402646365               0.000000000               0.318542033              -0.426984773               0.000000000               0.337361355              -0.451323182               0.000000000               0.356180678              -0.475661591               0.000000000               0.375000000              -0.500000000               0.000000000               0.062695766              -0.117295528               0.000000000               0.078308531              -0.141214558               0.000000000               0.093921295              -0.165133587               0.000000000               0.109534060              -0.189052617               0.000000000               0.125146824              -0.212971646               0.000000000               0.140759589              -0.236890676               0.000000000               0.156372354              -0.260809705               0.000000000               0.171985118              -0.284728735               0.000000000               0.187597883              -0.308647764               0.000000000               0.203210648              -0.332566794               0.000000000               0.218823412              -0.356485823               0.000000000               0.234436177              -0.380404853               0.000000000               0.250048941              -0.404323882               0.000000000               0.265661706              -0.428242912               0.000000000               0.281274471              -0.452161941               0.000000000               0.296887235              -0.476080971               0.000000000               0.312500000              -0.500000000               0.000000000               0.050896897              -0.122875978               0.000000000               0.063340840              -0.146446229               0.000000000               0.075784784              -0.170016481               0.000000000               0.088228728              -0.193586732               0.000000000               0.100672672              -0.217156983               0.000000000               0.113116616              -0.240727235               0.000000000               0.125560560              -0.264297486               0.000000000               0.138004504              -0.287867738               0.000000000               0.150448448              -0.311437989               0.000000000               0.162892392              -0.335008240               0.000000000               0.175336336              -0.358578492               0.000000000               0.187780280              -0.382148743               0.000000000               0.200224224              -0.405718994               0.000000000               0.212668168              -0.429289246               0.000000000               0.225112112              -0.452859497               0.000000000               0.237556056              -0.476429749               0.000000000               0.250000000              -0.500000000               0.000000000               0.038607862              -0.127273065               0.000000000               0.047913621              -0.150568498               0.000000000               0.057219379              -0.173863932               0.000000000               0.066525138              -0.197159365               0.000000000               0.075830897              -0.220454798               0.000000000               0.085136655              -0.243750232               0.000000000               0.094442414              -0.267045665               0.000000000               0.103748172              -0.290341099               0.000000000               0.113053931              -0.313636532               0.000000000               0.122359690              -0.336931966               0.000000000               0.131665448              -0.360227399               0.000000000               0.140971207              -0.383522833               0.000000000               0.150276966              -0.406818266               0.000000000               0.159582724              -0.430113700               0.000000000               0.168888483              -0.453409133               0.000000000               0.178194241              -0.476704567               0.000000000               0.187500000              -0.500000000               0.000000000               0.025947013              -0.130444442               0.000000000               0.032137825              -0.153541665               0.000000000               0.038328636              -0.176638887               0.000000000               0.044519448              -0.199736109               0.000000000               0.050710260              -0.222833332               0.000000000               0.056901071              -0.245930554               0.000000000               0.063091883              -0.269027776               0.000000000               0.069282695              -0.292124999               0.000000000               0.075473506              -0.315222221               0.000000000               0.081664318              -0.338319444               0.000000000               0.087855130              -0.361416666               0.000000000               0.094045942              -0.384513888               0.000000000               0.100236753              -0.407611111               0.000000000               0.106427565              -0.430708333               0.000000000               0.112618377              -0.453805555               0.000000000               0.118809188              -0.476902778               0.000000000               0.125000000              -0.500000000               0.000000000               0.013036280              -0.132359569               0.000000000               0.016127762              -0.155337096               0.000000000               0.019219245              -0.178314623               0.000000000               0.022310727              -0.201292150               0.000000000               0.025402210              -0.224269676               0.000000000               0.028493692              -0.247247203               0.000000000               0.031585175              -0.270224730               0.000000000               0.034676657              -0.293202257               0.000000000               0.037768140              -0.316179784               0.000000000               0.040859622              -0.339157311               0.000000000               0.043951105              -0.362134838               0.000000000               0.047042587              -0.385112365               0.000000000               0.050134070              -0.408089892               0.000000000               0.053225552              -0.431067419               0.000000000               0.056317035              -0.454044946               0.000000000               0.059408517              -0.477022473               0.000000000               0.062500000              -0.500000000               0.000000000               0.000000000              -0.133000000               0.000000000               0.000000000              -0.155937500               0.000000000               0.000000000              -0.178875000               0.000000000               0.000000000              -0.201812500               0.000000000               0.000000000              -0.224750000               0.000000000               0.000000000              -0.247687500               0.000000000               0.000000000              -0.270625000               0.000000000               0.000000000              -0.293562500               0.000000000               0.000000000              -0.316500000               0.000000000               0.000000000              -0.339437500               0.000000000               0.000000000              -0.362375000               0.000000000               0.000000000              -0.385312500               0.000000000               0.000000000              -0.408250000               0.000000000               0.000000000              -0.431187500               0.000000000               0.000000000              -0.454125000               0.000000000               0.000000000              -0.477062500               0.000000000               0.000000000              -0.500000000               0.000000000              -0.133000000               0.000000000               0.000000000              -0.155937500               0.000000000               0.000000000              -0.178875000               0.000000000               0.000000000              -0.201812500               0.000000000               0.000000000              -0.224750000               0.000000000               0.000000000              -0.247687500               0.000000000               0.000000000              -0.270625000               0.000000000               0.000000000              -0.293562500               0.000000000               0.000000000              -0.316500000               0.000000000               0.000000000              -0.339437500               0.000000000               0.000000000              -0.362375000               0.000000000               0.000000000              -0.385312500               0.000000000               0.000000000              -0.408250000               0.000000000               0.000000000              -0.431187500               0.000000000               0.000000000              -0.454125000               0.000000000               0.000000000              -0.477062500               0.000000000               0.000000000              -0.500000000               0.000000000               0.000000000              -0.132359569              -0.013036280               0.000000000              -0.155337096              -0.016127762               0.000000000              -0.178314623              -0.019219245               0.000000000              -0.201292150              -0.022310727               0.000000000              -0.224269676              -0.025402210               0.000000000              -0.247247203              -0.028493692               0.000000000              -0.270224730              -0.031585175               0.000000000              -0.293202257              -0.034676657               0.000000000              -0.316179784              -0.037768140               0.000000000              -0.339157311              -0.040859622               0.000000000              -0.362134838              -0.043951105               0.000000000              -0.385112365              -0.047042587               0.000000000              -0.408089892              -0.050134070               0.000000000              -0.431067419              -0.053225552               0.000000000              -0.454044946              -0.056317035               0.000000000              -0.477022473              -0.059408517               0.000000000              -0.500000000              -0.062500000               0.000000000              -0.130444442              -0.025947013               0.000000000              -0.153541665              -0.032137825               0.000000000              -0.176638887              -0.038328636               0.000000000              -0.199736109              -0.044519448               0.000000000              -0.222833332              -0.050710260               0.000000000              -0.245930554              -0.056901071               0.000000000              -0.269027776              -0.063091883               0.000000000              -0.292124999              -0.069282695               0.000000000              -0.315222221              -0.075473506               0.000000000              -0.338319444              -0.081664318               0.000000000              -0.361416666              -0.087855130               0.000000000              -0.384513888              -0.094045942               0.000000000              -0.407611111              -0.100236753               0.000000000              -0.430708333              -0.106427565               0.000000000              -0.453805555              -0.112618377               0.000000000              -0.476902778              -0.118809188               0.000000000              -0.500000000              -0.125000000               0.000000000              -0.127273065              -0.038607862               0.000000000              -0.150568498              -0.047913621               0.000000000              -0.173863932              -0.057219379               0.000000000              -0.197159365              -0.066525138               0.000000000              -0.220454798              -0.075830897               0.000000000              -0.243750232              -0.085136655               0.000000000              -0.267045665              -0.094442414               0.000000000              -0.290341099              -0.103748172               0.000000000              -0.313636532              -0.113053931               0.000000000              -0.336931966              -0.122359690               0.000000000              -0.360227399              -0.131665448               0.000000000              -0.383522833              -0.140971207               0.000000000              -0.406818266              -0.150276966               0.000000000              -0.430113700              -0.159582724               0.000000000              -0.453409133              -0.168888483               0.000000000              -0.476704567              -0.178194241               0.000000000              -0.500000000              -0.187500000               0.000000000              -0.122875978              -0.050896897               0.000000000              -0.146446229              -0.063340840               0.000000000              -0.170016481              -0.075784784               0.000000000              -0.193586732              -0.088228728               0.000000000              -0.217156983              -0.100672672               0.000000000              -0.240727235              -0.113116616               0.000000000              -0.264297486              -0.125560560               0.000000000              -0.287867738              -0.138004504               0.000000000              -0.311437989              -0.150448448               0.000000000              -0.335008240              -0.162892392               0.000000000              -0.358578492              -0.175336336               0.000000000              -0.382148743              -0.187780280               0.000000000              -0.405718994              -0.200224224               0.000000000              -0.429289246              -0.212668168               0.000000000              -0.452859497              -0.225112112               0.000000000              -0.476429749              -0.237556056               0.000000000              -0.500000000              -0.250000000               0.000000000              -0.117295528              -0.062695766               0.000000000              -0.141214558              -0.078308531               0.000000000              -0.165133587              -0.093921295               0.000000000              -0.189052617              -0.109534060               0.000000000              -0.212971646              -0.125146824               0.000000000              -0.236890676              -0.140759589               0.000000000              -0.260809705              -0.156372354               0.000000000              -0.284728735              -0.171985118               0.000000000              -0.308647764              -0.187597883               0.000000000              -0.332566794              -0.203210648               0.000000000              -0.356485823              -0.218823412               0.000000000              -0.380404853              -0.234436177               0.000000000              -0.404323882              -0.250048941               0.000000000              -0.428242912              -0.265661706               0.000000000              -0.452161941              -0.281274471               0.000000000              -0.476080971              -0.296887235               0.000000000              -0.500000000              -0.312500000               0.000000000              -0.110585458              -0.073890841               0.000000000              -0.134923867              -0.092710163               0.000000000              -0.159262276              -0.111529486               0.000000000              -0.183600685              -0.130348808               0.000000000              -0.207939094              -0.149168131               0.000000000              -0.232277503              -0.167987453               0.000000000              -0.256615912              -0.186806776               0.000000000              -0.280954320              -0.205626098               0.000000000              -0.305292729              -0.224445420               0.000000000              -0.329631138              -0.243264743               0.000000000              -0.353969547              -0.262084065               0.000000000              -0.378307956              -0.280903388               0.000000000              -0.402646365              -0.299722710               0.000000000              -0.426984773              -0.318542033               0.000000000              -0.451323182              -0.337361355               0.000000000              -0.475661591              -0.356180678               0.000000000              -0.500000000              -0.375000000               0.000000000              -0.102810390              -0.084374307               0.000000000              -0.127634741              -0.106444663               0.000000000              -0.152459092              -0.128515018               0.000000000              -0.177283442              -0.150585374               0.000000000              -0.202107793              -0.172655730               0.000000000              -0.226932143              -0.194726086               0.000000000              -0.251756494              -0.216796442               0.000000000              -0.276580845              -0.238866798               0.000000000              -0.301405195              -0.260937153               0.000000000              -0.326229546              -0.283007509               0.000000000              -0.351053896              -0.305077865               0.000000000              -0.375878247              -0.327148221               0.000000000              -0.400702598              -0.349218577               0.000000000              -0.425526948              -0.371288933               0.000000000              -0.450351299              -0.393359288               0.000000000              -0.475175649              -0.415429644               0.000000000              -0.500000000              -0.437500000               0.000000000              -0.094045202              -0.094045202               0.000000000              -0.119417377              -0.119417377               0.000000000              -0.144789552              -0.144789552               0.000000000              -0.170161727              -0.170161727               0.000000000              -0.195533901              -0.195533901               0.000000000              -0.220906076              -0.220906076               0.000000000              -0.246278251              -0.246278251               0.000000000              -0.271650426              -0.271650426               0.000000000              -0.297022601              -0.297022601               0.000000000              -0.322394776              -0.322394776               0.000000000              -0.347766951              -0.347766951               0.000000000              -0.373139126              -0.373139126               0.000000000              -0.398511300              -0.398511300               0.000000000              -0.423883475              -0.423883475               0.000000000              -0.449255650              -0.449255650               0.000000000              -0.474627825              -0.474627825               0.000000000              -0.500000000              -0.500000000               0.000000000              -0.084374307              -0.102810390               0.000000000              -0.106444663              -0.127634741               0.000000000              -0.128515018              -0.152459092               0.000000000              -0.150585374              -0.177283442               0.000000000              -0.172655730              -0.202107793               0.000000000              -0.194726086              -0.226932143               0.000000000              -0.216796442              -0.251756494               0.000000000              -0.238866798              -0.276580845               0.000000000              -0.260937153              -0.301405195               0.000000000              -0.283007509              -0.326229546               0.000000000              -0.305077865              -0.351053896               0.000000000              -0.327148221              -0.375878247               0.000000000              -0.349218577              -0.400702598               0.000000000              -0.371288933              -0.425526948               0.000000000              -0.393359288              -0.450351299               0.000000000              -0.415429644              -0.475175649               0.000000000              -0.437500000              -0.500000000               0.000000000              -0.073890841              -0.110585458               0.000000000              -0.092710163              -0.134923867               0.000000000              -0.111529486              -0.159262276               0.000000000              -0.130348808              -0.183600685               0.000000000              -0.149168131              -0.207939094               0.000000000              -0.167987453              -0.232277503               0.000000000              -0.186806776              -0.256615912               0.000000000              -0.205626098              -0.280954320               0.000000000              -0.224445420              -0.305292729               0.000000000              -0.243264743              -0.329631138               0.000000000              -0.262084065              -0.353969547               0.000000000              -0.280903388              -0.378307956               0.000000000              -0.299722710              -0.402646365               0.000000000              -0.318542033              -0.426984773               0.000000000              -0.337361355              -0.451323182               0.000000000              -0.356180678              -0.475661591               0.000000000              -0.375000000              -0.500000000               0.000000000              -0.062695766              -0.117295528               0.000000000              -0.078308531              -0.141214558               0.000000000              -0.093921295              -0.165133587               0.000000000              -0.109534060              -0.189052617               0.000000000              -0.125146824              -0.212971646               0.000000000              -0.140759589              -0.236890676               0.000000000              -0.156372354              -0.260809705               0.000000000              -0.171985118              -0.284728735               0.000000000              -0.187597883              -0.308647764               0.000000000              -0.203210648              -0.332566794               0.000000000              -0.218823412              -0.356485823               0.000000000              -0.234436177              -0.380404853               0.000000000              -0.250048941              -0.404323882               0.000000000              -0.265661706              -0.428242912               0.000000000              -0.281274471              -0.452161941               0.000000000              -0.296887235              -0.476080971               0.000000000              -0.312500000              -0.500000000               0.000000000              -0.050896897              -0.122875978               0.000000000              -0.063340840              -0.146446229               0.000000000              -0.075784784              -0.170016481               0.000000000              -0.088228728              -0.193586732               0.000000000              -0.100672672              -0.217156983               0.000000000              -0.113116616              -0.240727235               0.000000000              -0.125560560              -0.264297486               0.000000000              -0.138004504              -0.287867738               0.000000000              -0.150448448              -0.311437989               0.000000000              -0.162892392              -0.335008240               0.000000000              -0.175336336              -0.358578492               0.000000000              -0.187780280              -0.382148743               0.000000000              -0.200224224              -0.405718994               0.000000000              -0.212668168              -0.429289246               0.000000000              -0.225112112              -0.452859497               0.000000000              -0.237556056              -0.476429749               0.000000000              -0.250000000              -0.500000000               0.000000000              -0.038607862              -0.127273065               0.000000000              -0.047913621              -0.150568498               0.000000000              -0.057219379              -0.173863932               0.000000000              -0.066525138              -0.197159365               0.000000000              -0.075830897              -0.220454798               0.000000000              -0.085136655              -0.243750232               0.000000000              -0.094442414              -0.267045665               0.000000000              -0.103748172              -0.290341099               0.000000000              -0.113053931              -0.313636532               0.000000000              -0.122359690              -0.336931966               0.000000000              -0.131665448              -0.360227399               0.000000000              -0.140971207              -0.383522833               0.000000000              -0.150276966              -0.406818266               0.000000000              -0.159582724              -0.430113700               0.000000000              -0.168888483              -0.453409133               0.000000000              -0.178194241              -0.476704567               0.000000000              -0.187500000              -0.500000000               0.000000000              -0.025947013              -0.130444442               0.000000000              -0.032137825              -0.153541665               0.000000000              -0.038328636              -0.176638887               0.000000000              -0.044519448              -0.199736109               0.000000000              -0.050710260              -0.222833332               0.000000000              -0.056901071              -0.245930554               0.000000000              -0.063091883              -0.269027776               0.000000000              -0.069282695              -0.292124999               0.000000000              -0.075473506              -0.315222221               0.000000000              -0.081664318              -0.338319444               0.000000000              -0.087855130              -0.361416666               0.000000000              -0.094045942              -0.384513888               0.000000000              -0.100236753              -0.407611111               0.000000000              -0.106427565              -0.430708333               0.000000000              -0.112618377              -0.453805555               0.000000000              -0.118809188              -0.476902778               0.000000000              -0.125000000              -0.500000000               0.000000000              -0.013036280              -0.132359569               0.000000000              -0.016127762              -0.155337096               0.000000000              -0.019219245              -0.178314623               0.000000000              -0.022310727              -0.201292150               0.000000000              -0.025402210              -0.224269676               0.000000000              -0.028493692              -0.247247203               0.000000000              -0.031585175              -0.270224730               0.000000000              -0.034676657              -0.293202257               0.000000000              -0.037768140              -0.316179784               0.000000000              -0.040859622              -0.339157311               0.000000000              -0.043951105              -0.362134838               0.000000000              -0.047042587              -0.385112365               0.000000000              -0.050134070              -0.408089892               0.000000000              -0.053225552              -0.431067419               0.000000000              -0.056317035              -0.454044946               0.000000000              -0.059408517              -0.477022473               0.000000000              -0.062500000              -0.500000000               0.000000000               0.000000000              -0.133000000               0.000000000               0.000000000              -0.155937500               0.000000000               0.000000000              -0.178875000               0.000000000               0.000000000              -0.201812500               0.000000000               0.000000000              -0.224750000               0.000000000               0.000000000              -0.247687500               0.000000000               0.000000000              -0.270625000               0.000000000               0.000000000              -0.293562500               0.000000000               0.000000000              -0.316500000               0.000000000               0.000000000              -0.339437500               0.000000000               0.000000000              -0.362375000               0.000000000               0.000000000              -0.385312500               0.000000000               0.000000000              -0.408250000               0.000000000               0.000000000              -0.431187500               0.000000000               0.000000000              -0.454125000               0.000000000               0.000000000              -0.477062500               0.000000000               0.000000000              -0.500000000               0.000000000              -0.133000000               0.000000000               0.000000000              -0.155937500               0.000000000               0.000000000              -0.178875000               0.000000000               0.000000000              -0.201812500               0.000000000               0.000000000              -0.224750000               0.000000000               0.000000000              -0.247687500               0.000000000               0.000000000              -0.270625000               0.000000000               0.000000000              -0.293562500               0.000000000               0.000000000              -0.316500000               0.000000000               0.000000000              -0.339437500               0.000000000               0.000000000              -0.362375000               0.000000000               0.000000000              -0.385312500               0.000000000               0.000000000              -0.408250000               0.000000000               0.000000000              -0.431187500               0.000000000               0.000000000              -0.454125000               0.000000000               0.000000000              -0.477062500               0.000000000               0.000000000              -0.500000000               0.000000000               0.000000000              -0.132359569               0.013036280               0.000000000              -0.155337096               0.016127762               0.000000000              -0.178314623               0.019219245               0.000000000              -0.201292150               0.022310727               0.000000000              -0.224269676               0.025402210               0.000000000              -0.247247203               0.028493692               0.000000000              -0.270224730               0.031585175               0.000000000              -0.293202257               0.034676657               0.000000000              -0.316179784               0.037768140               0.000000000              -0.339157311               0.040859622               0.000000000              -0.362134838               0.043951105               0.000000000              -0.385112365               0.047042587               0.000000000              -0.408089892               0.050134070               0.000000000              -0.431067419               0.053225552               0.000000000              -0.454044946               0.056317035               0.000000000              -0.477022473               0.059408517               0.000000000              -0.500000000               0.062500000               0.000000000              -0.130444442               0.025947013               0.000000000              -0.153541665               0.032137825               0.000000000              -0.176638887               0.038328636               0.000000000              -0.199736109               0.044519448               0.000000000              -0.222833332               0.050710260               0.000000000              -0.245930554               0.056901071               0.000000000              -0.269027776               0.063091883               0.000000000              -0.292124999               0.069282695               0.000000000              -0.315222221               0.075473506               0.000000000              -0.338319444               0.081664318               0.000000000              -0.361416666               0.087855130               0.000000000              -0.384513888               0.094045942               0.000000000              -0.407611111               0.100236753               0.000000000              -0.430708333               0.106427565               0.000000000              -0.453805555               0.112618377               0.000000000              -0.476902778               0.118809188               0.000000000              -0.500000000               0.125000000               0.000000000              -0.127273065               0.038607862               0.000000000              -0.150568498               0.047913621               0.000000000              -0.173863932               0.057219379               0.000000000              -0.197159365               0.066525138               0.000000000              -0.220454798               0.075830897               0.000000000              -0.243750232               0.085136655               0.000000000              -0.267045665               0.094442414               0.000000000              -0.290341099               0.103748172               0.000000000              -0.313636532               0.113053931               0.000000000              -0.336931966               0.122359690               0.000000000              -0.360227399               0.131665448               0.000000000              -0.383522833               0.140971207               0.000000000              -0.406818266               0.150276966               0.000000000              -0.430113700               0.159582724               0.000000000              -0.453409133               0.168888483               0.000000000              -0.476704567               0.178194241               0.000000000              -0.500000000               0.187500000               0.000000000              -0.122875978               0.050896897               0.000000000              -0.146446229               0.063340840               0.000000000              -0.170016481               0.075784784               0.000000000              -0.193586732               0.088228728               0.000000000              -0.217156983               0.100672672               0.000000000              -0.240727235               0.113116616               0.000000000              -0.264297486               0.125560560               0.000000000              -0.287867738               0.138004504               0.000000000              -0.311437989               0.150448448               0.000000000              -0.335008240               0.162892392               0.000000000              -0.358578492               0.175336336               0.000000000              -0.382148743               0.187780280               0.000000000              -0.405718994               0.200224224               0.000000000              -0.429289246               0.212668168               0.000000000              -0.452859497               0.225112112               0.000000000              -0.476429749               0.237556056               0.000000000              -0.500000000               0.250000000               0.000000000              -0.117295528               0.062695766               0.000000000              -0.141214558               0.078308531               0.000000000              -0.165133587               0.093921295               0.000000000              -0.189052617               0.109534060               0.000000000              -0.212971646               0.125146824               0.000000000              -0.236890676               0.140759589               0.000000000              -0.260809705               0.156372354               0.000000000              -0.284728735               0.171985118               0.000000000              -0.308647764               0.187597883               0.000000000              -0.332566794               0.203210648               0.000000000              -0.356485823               0.218823412               0.000000000              -0.380404853               0.234436177               0.000000000              -0.404323882               0.250048941               0.000000000              -0.428242912               0.265661706               0.000000000              -0.452161941               0.281274471               0.000000000              -0.476080971               0.296887235               0.000000000              -0.500000000               0.312500000               0.000000000              -0.110585458               0.073890841               0.000000000              -0.134923867               0.092710163               0.000000000              -0.159262276               0.111529486               0.000000000              -0.183600685               0.130348808               0.000000000              -0.207939094               0.149168131               0.000000000              -0.232277503               0.167987453               0.000000000              -0.256615912               0.186806776               0.000000000              -0.280954320               0.205626098               0.000000000              -0.305292729               0.224445420               0.000000000              -0.329631138               0.243264743               0.000000000              -0.353969547               0.262084065               0.000000000              -0.378307956               0.280903388               0.000000000              -0.402646365               0.299722710               0.000000000              -0.426984773               0.318542033               0.000000000              -0.451323182               0.337361355               0.000000000              -0.475661591               0.356180678               0.000000000              -0.500000000               0.375000000               0.000000000              -0.102810390               0.084374307               0.000000000              -0.127634741               0.106444663               0.000000000              -0.152459092               0.128515018               0.000000000              -0.177283442               0.150585374               0.000000000              -0.202107793               0.172655730               0.000000000              -0.226932143               0.194726086               0.000000000              -0.251756494               0.216796442               0.000000000              -0.276580845               0.238866798               0.000000000              -0.301405195               0.260937153               0.000000000              -0.326229546               0.283007509               0.000000000              -0.351053896               0.305077865               0.000000000              -0.375878247               0.327148221               0.000000000              -0.400702598               0.349218577               0.000000000              -0.425526948               0.371288933               0.000000000              -0.450351299               0.393359288               0.000000000              -0.475175649               0.415429644               0.000000000              -0.500000000               0.437500000               0.000000000              -0.094045202               0.094045202               0.000000000              -0.119417377               0.119417377               0.000000000              -0.144789552               0.144789552               0.000000000              -0.170161727               0.170161727               0.000000000              -0.195533901               0.195533901               0.000000000              -0.220906076               0.220906076               0.000000000              -0.246278251               0.246278251               0.000000000              -0.271650426               0.271650426               0.000000000              -0.297022601               0.297022601               0.000000000              -0.322394776               0.322394776               0.000000000              -0.347766951               0.347766951               0.000000000              -0.373139126               0.373139126               0.000000000              -0.398511300               0.398511300               0.000000000              -0.423883475               0.423883475               0.000000000              -0.449255650               0.449255650               0.000000000              -0.474627825               0.474627825               0.000000000              -0.500000000               0.500000000               0.000000000              -0.084374307               0.102810390               0.000000000              -0.106444663               0.127634741               0.000000000              -0.128515018               0.152459092               0.000000000              -0.150585374               0.177283442               0.000000000              -0.172655730               0.202107793               0.000000000              -0.194726086               0.226932143               0.000000000              -0.216796442               0.251756494               0.000000000              -0.238866798               0.276580845               0.000000000              -0.260937153               0.301405195               0.000000000              -0.283007509               0.326229546               0.000000000              -0.305077865               0.351053896               0.000000000              -0.327148221               0.375878247               0.000000000              -0.349218577               0.400702598               0.000000000              -0.371288933               0.425526948               0.000000000              -0.393359288               0.450351299               0.000000000              -0.415429644               0.475175649               0.000000000              -0.437500000               0.500000000               0.000000000              -0.073890841               0.110585458               0.000000000              -0.092710163               0.134923867               0.000000000              -0.111529486               0.159262276               0.000000000              -0.130348808               0.183600685               0.000000000              -0.149168131               0.207939094               0.000000000              -0.167987453               0.232277503               0.000000000              -0.186806776               0.256615912               0.000000000              -0.205626098               0.280954320               0.000000000              -0.224445420               0.305292729               0.000000000              -0.243264743               0.329631138               0.000000000              -0.262084065               0.353969547               0.000000000              -0.280903388               0.378307956               0.000000000              -0.299722710               0.402646365               0.000000000              -0.318542033               0.426984773               0.000000000              -0.337361355               0.451323182               0.000000000              -0.356180678               0.475661591               0.000000000              -0.375000000               0.500000000               0.000000000              -0.062695766               0.117295528               0.000000000              -0.078308531               0.141214558               0.000000000              -0.093921295               0.165133587               0.000000000              -0.109534060               0.189052617               0.000000000              -0.125146824               0.212971646               0.000000000              -0.140759589               0.236890676               0.000000000              -0.156372354               0.260809705               0.000000000              -0.171985118               0.284728735               0.000000000              -0.187597883               0.308647764               0.000000000              -0.203210648               0.332566794               0.000000000              -0.218823412               0.356485823               0.000000000              -0.234436177               0.380404853               0.000000000              -0.250048941               0.404323882               0.000000000              -0.265661706               0.428242912               0.000000000              -0.281274471               0.452161941               0.000000000              -0.296887235               0.476080971               0.000000000              -0.312500000               0.500000000               0.000000000              -0.050896897               0.122875978               0.000000000              -0.063340840               0.146446229               0.000000000              -0.075784784               0.170016481               0.000000000              -0.088228728               0.193586732               0.000000000              -0.100672672               0.217156983               0.000000000              -0.113116616               0.240727235               0.000000000              -0.125560560               0.264297486               0.000000000              -0.138004504               0.287867738               0.000000000              -0.150448448               0.311437989               0.000000000              -0.162892392               0.335008240               0.000000000              -0.175336336               0.358578492               0.000000000              -0.187780280               0.382148743               0.000000000              -0.200224224               0.405718994               0.000000000              -0.212668168               0.429289246               0.000000000              -0.225112112               0.452859497               0.000000000              -0.237556056               0.476429749               0.000000000              -0.250000000               0.500000000               0.000000000              -0.038607862               0.127273065               0.000000000              -0.047913621               0.150568498               0.000000000              -0.057219379               0.173863932               0.000000000              -0.066525138               0.197159365               0.000000000              -0.075830897               0.220454798               0.000000000              -0.085136655               0.243750232               0.000000000              -0.094442414               0.267045665               0.000000000              -0.103748172               0.290341099               0.000000000              -0.113053931               0.313636532               0.000000000              -0.122359690               0.336931966               0.000000000              -0.131665448               0.360227399               0.000000000              -0.140971207               0.383522833               0.000000000              -0.150276966               0.406818266               0.000000000              -0.159582724               0.430113700               0.000000000              -0.168888483               0.453409133               0.000000000              -0.178194241               0.476704567               0.000000000              -0.187500000               0.500000000               0.000000000              -0.025947013               0.130444442               0.000000000              -0.032137825               0.153541665               0.000000000              -0.038328636               0.176638887               0.000000000              -0.044519448               0.199736109               0.000000000              -0.050710260               0.222833332               0.000000000              -0.056901071               0.245930554               0.000000000              -0.063091883               0.269027776               0.000000000              -0.069282695               0.292124999               0.000000000              -0.075473506               0.315222221               0.000000000              -0.081664318               0.338319444               0.000000000              -0.087855130               0.361416666               0.000000000              -0.094045942               0.384513888               0.000000000              -0.100236753               0.407611111               0.000000000              -0.106427565               0.430708333               0.000000000              -0.112618377               0.453805555               0.000000000              -0.118809188               0.476902778               0.000000000              -0.125000000               0.500000000               0.000000000              -0.013036280               0.132359569               0.000000000              -0.016127762               0.155337096               0.000000000              -0.019219245               0.178314623               0.000000000              -0.022310727               0.201292150               0.000000000              -0.025402210               0.224269676               0.000000000              -0.028493692               0.247247203               0.000000000              -0.031585175               0.270224730               0.000000000              -0.034676657               0.293202257               0.000000000              -0.037768140               0.316179784               0.000000000              -0.040859622               0.339157311               0.000000000              -0.043951105               0.362134838               0.000000000              -0.047042587               0.385112365               0.000000000              -0.050134070               0.408089892               0.000000000              -0.053225552               0.431067419               0.000000000              -0.056317035               0.454044946               0.000000000              -0.059408517               0.477022473               0.000000000              -0.062500000               0.500000000               0.000000000               0.000000000               0.133000000               0.000000000               0.000000000               0.155937500               0.000000000               0.000000000               0.178875000               0.000000000               0.000000000               0.201812500               0.000000000               0.000000000               0.224750000               0.000000000               0.000000000               0.247687500               0.000000000               0.000000000               0.270625000               0.000000000               0.000000000               0.293562500               0.000000000               0.000000000               0.316500000               0.000000000               0.000000000               0.339437500               0.000000000               0.000000000               0.362375000               0.000000000               0.000000000               0.385312500               0.000000000               0.000000000               0.408250000               0.000000000               0.000000000               0.431187500               0.000000000               0.000000000               0.454125000               0.000000000               0.000000000               0.477062500               0.000000000               0.000000000               0.500000000               0.000000000 </DataArray>
</Points>
<Cells>
<DataArray type="Int32"                                    Name="connectivity"                                                      NumberOfComponents=" 1" format="ascii">
         0          1         18         17          1          2         19         18          2          3         20         19          3          4         21         20          4          5         22         21          5          6         23         22          6          7         24         23          7          8         25         24          8          9         26         25          9         10         27         26         10         11         28         27         11         12         29         28         12         13         30         29         13         14         31         30         14         15         32         31         15         16         33         32         17         18         35         34         18         19         36         35         19         20         37         36         20         21         38         37         21         22         39         38         22         23         40         39         23         24         41         40         24         25         42         41         25         26         43         42         26         27         44         43         27         28         45         44         28         29         46         45         29         30         47         46         30         31         48         47         31         32         49         48         32         33         50         49         34         35         52         51         35         36         53         52         36         37         54         53         37         38         55         54         38         39         56         55         39         40         57         56         40         41         58         57         41         42         59         58         42         43         60         59         43         44         61         60         44         45         62         61         45         46         63         62         46         47         64         63         47         48         65         64         48         49         66         65         49         50         67         66         51         52         69         68         52         53         70         69         53         54         71         70         54         55         72         71         55         56         73         72         56         57         74         73         57         58         75         74         58         59         76         75         59         60         77         76         60         61         78         77         61         62         79         78         62         63         80         79         63         64         81         80         64         65         82         81         65         66         83         82         66         67         84         83         68         69         86         85         69         70         87         86         70         71         88         87         71         72         89         88         72         73         90         89         73         74         91         90         74         75         92         91         75         76         93         92         76         77         94         93         77         78         95         94         78         79         96         95         79         80         97         96         80         81         98         97         81         82         99         98         82         83        100         99         83         84        101        100         85         86        103        102         86         87        104        103         87         88        105        104         88         89        106        105         89         90        107        106         90         91        108        107         91         92        109        108         92         93        110        109         93         94        111        110         94         95        112        111         95         96        113        112         96         97        114        113         97         98        115        114         98         99        116        115         99        100        117        116        100        101        118        117        102        103        120        119        103        104        121        120        104        105        122        121        105        106        123        122        106        107        124        123        107        108        125        124        108        109        126        125        109        110        127        126        110        111        128        127        111        112        129        128        112        113        130        129        113        114        131        130        114        115        132        131        115        116        133        132        116        117        134        133        117        118        135        134        119        120        137        136        120        121        138        137        121        122        139        138        122        123        140        139        123        124        141        140        124        125        142        141        125        126        143        142        126        127        144        143        127        128        145        144        128        129        146        145        129        130        147        146        130        131        148        147        131        132        149        148        132        133        150        149        133        134        151        150        134        135        152        151        136        137        154        153        137        138        155        154        138        139        156        155        139        140        157        156        140        141        158        157        141        142        159        158        142        143        160        159        143        144        161        160        144        145        162        161        145        146        163        162        146        147        164        163        147        148        165        164        148        149        166        165        149        150        167        166        150        151        168        167        151        152        169        168        153        154        171        170        154        155        172        171        155        156        173        172        156        157        174        173        157        158        175        174        158        159        176        175        159        160        177        176        160        161        178        177        161        162        179        178        162        163        180        179        163        164        181        180        164        165        182        181        165        166        183        182        166        167        184        183        167        168        185        184        168        169        186        185        170        171        188        187        171        172        189        188        172        173        190        189        173        174        191        190        174        175        192        191        175        176        193        192        176        177        194        193        177        178        195        194        178        179        196        195        179        180        197        196        180        181        198        197        181        182        199        198        182        183        200        199        183        184        201        200        184        185        202        201        185        186        203        202        187        188        205        204        188        189        206        205        189        190        207        206        190        191        208        207        191        192        209        208        192        193        210        209        193        194        211        210        194        195        212        211        195        196        213        212        196        197        214        213        197        198        215        214        198        199        216        215        199        200        217        216        200        201        218        217        201        202        219        218        202        203        220        219        204        205        222        221        205        206        223        222        206        207        224        223        207        208        225        224        208        209        226        225        209        210        227        226        210        211        228        227        211        212        229        228        212        213        230        229        213        214        231        230        214        215        232        231        215        216        233        232        216        217        234        233        217        218        235        234        218        219        236        235        219        220        237        236        221        222        239        238        222        223        240        239        223        224        241        240        224        225        242        241        225        226        243        242        226        227        244        243        227        228        245        244        228        229        246        245        229        230        247        246        230        231        248        247        231        232        249        248        232        233        250        249        233        234        251        250        234        235        252        251        235        236        253        252        236        237        254        253        238        239        256        255        239        240        257        256        240        241        258        257        241        242        259        258        242        243        260        259        243        244        261        260        244        245        262        261        245        246        263        262        246        247        264        263        247        248        265        264        248        249        266        265        249        250        267        266        250        251        268        267        251        252        269        268        252        253        270        269        253        254        271        270        255        256        273        272        256        257        274        273        257        258        275        274        258        259        276        275        259        260        277        276        260        261        278        277        261        262        279        278        262        263        280        279        263        264        281        280        264        265        282        281        265        266        283        282        266        267        284        283        267        268        285        284        268        269        286        285        269        270        287        286        270        271        288        287        306        307          1          0        307        308          2          1        308        309          3          2        309        310          4          3        310        311          5          4        311        312          6          5        312        313          7          6        313        314          8          7        314        315          9          8        315        316         10          9        316        317         11         10        317        318         12         11        318        319         13         12        319        320         14         13        320        321         15         14        321        322         16         15        323        324        307        306        324        325        308        307        325        326        309        308        326        327        310        309        327        328        311        310        328        329        312        311        329        330        313        312        330        331        314        313        331        332        315        314        332        333        316        315        333        334        317        316        334        335        318        317        335        336        319        318        336        337        320        319        337        338        321        320        338        339        322        321        340        341        324        323        341        342        325        324        342        343        326        325        343        344        327        326        344        345        328        327        345        346        329        328        346        347        330        329        347        348        331        330        348        349        332        331        349        350        333        332        350        351        334        333        351        352        335        334        352        353        336        335        353        354        337        336        354        355        338        337        355        356        339        338        357        358        341        340        358        359        342        341        359        360        343        342        360        361        344        343        361        362        345        344        362        363        346        345        363        364        347        346        364        365        348        347        365        366        349        348        366        367        350        349        367        368        351        350        368        369        352        351        369        370        353        352        370        371        354        353        371        372        355        354        372        373        356        355        374        375        358        357        375        376        359        358        376        377        360        359        377        378        361        360        378        379        362        361        379        380        363        362        380        381        364        363        381        382        365        364        382        383        366        365        383        384        367        366        384        385        368        367        385        386        369        368        386        387        370        369        387        388        371        370        388        389        372        371        389        390        373        372        391        392        375        374        392        393        376        375        393        394        377        376        394        395        378        377        395        396        379        378        396        397        380        379        397        398        381        380        398        399        382        381        399        400        383        382        400        401        384        383        401        402        385        384        402        403        386        385        403        404        387        386        404        405        388        387        405        406        389        388        406        407        390        389        408        409        392        391        409        410        393        392        410        411        394        393        411        412        395        394        412        413        396        395        413        414        397        396        414        415        398        397        415        416        399        398        416        417        400        399        417        418        401        400        418        419        402        401        419        420        403        402        420        421        404        403        421        422        405        404        422        423        406        405        423        424        407        406        425        426        409        408        426        427        410        409        427        428        411        410        428        429        412        411        429        430        413        412        430        431        414        413        431        432        415        414        432        433        416        415        433        434        417        416        434        435        418        417        435        436        419        418        436        437        420        419        437        438        421        420        438        439        422        421        439        440        423        422        440        441        424        423        442        443        426        425        443        444        427        426        444        445        428        427        445        446        429        428        446        447        430        429        447        448        431        430        448        449        432        431        449        450        433        432        450        451        434        433        451        452        435        434        452        453        436        435        453        454        437        436        454        455        438        437        455        456        439        438        456        457        440        439        457        458        441        440        459        460        443        442        460        461        444        443        461        462        445        444        462        463        446        445        463        464        447        446        464        465        448        447        465        466        449        448        466        467        450        449        467        468        451        450        468        469        452        451        469        470        453        452        470        471        454        453        471        472        455        454        472        473        456        455        473        474        457        456        474        475        458        457        476        477        460        459        477        478        461        460        478        479        462        461        479        480        463        462        480        481        464        463        481        482        465        464        482        483        466        465        483        484        467        466        484        485        468        467        485        486        469        468        486        487        470        469        487        488        471        470        488        489        472        471        489        490        473        472        490        491        474        473        491        492        475        474        493        494        477        476        494        495        478        477        495        496        479        478        496        497        480        479        497        498        481        480        498        499        482        481        499        500        483        482        500        501        484        483        501        502        485        484        502        503        486        485        503        504        487        486        504        505        488        487        505        506        489        488        506        507        490        489        507        508        491        490        508        509        492        491        510        511        494        493        511        512        495        494        512        513        496        495        513        514        497        496        514        515        498        497        515        516        499        498        516        517        500        499        517        518        501        500        518        519        502        501        519        520        503        502        520        521        504        503        521        522        505        504        522        523        506        505        523        524        507        506        524        525        508        507        525        526        509        508        527        528        511        510        528        529        512        511        529        530        513        512        530        531        514        513        531        532        515        514        532        533        516        515        533        534        517        516        534        535        518        517        535        536        519        518        536        537        520        519        537        538        521        520        538        539        522        521        539        540        523        522        540        541        524        523        541        542        525        524        542        543        526        525        544        545        528        527        545        546        529        528        546        547        530        529        547        548        531        530        548        549        532        531        549        550        533        532        550        551        534        533        551        552        535        534        552        553        536        535        553        554        537        536        554        555        538        537        555        556        539        538        556        557        540        539        557        558        541        540        558        559        542        541        559        560        543        542        561        562        545        544        562        563        546        545        563        564        547        546        564        565        548        547        565        566        549        548        566        567        550        549        567        568        551        550        568        569        552        551        569        570        553        552        570        571        554        553        571        572        555        554        572        573        556        555        573        574        557        556        574        575        558        557        575        576        559        558        576        577        560        559        578        579        596        595        579        580        597        596        580        581        598        597        581        582        599        598        582        583        600        599        583        584        601        600        584        585        602        601        585        586        603        602        586        587        604        603        587        588        605        604        588        589        606        605        589        590        607        606        590        591        608        607        591        592        609        608        592        593        610        609        593        594        611        610        595        596        613        612        596        597        614        613        597        598        615        614        598        599        616        615        599        600        617        616        600        601        618        617        601        602        619        618        602        603        620        619        603        604        621        620        604        605        622        621        605        606        623        622        606        607        624        623        607        608        625        624        608        609        626        625        609        610        627        626        610        611        628        627        612        613        630        629        613        614        631        630        614        615        632        631        615        616        633        632        616        617        634        633        617        618        635        634        618        619        636        635        619        620        637        636        620        621        638        637        621        622        639        638        622        623        640        639        623        624        641        640        624        625        642        641        625        626        643        642        626        627        644        643        627        628        645        644        629        630        647        646        630        631        648        647        631        632        649        648        632        633        650        649        633        634        651        650        634        635        652        651        635        636        653        652        636        637        654        653        637        638        655        654        638        639        656        655        639        640        657        656        640        641        658        657        641        642        659        658        642        643        660        659        643        644        661        660        644        645        662        661        646        647        664        663        647        648        665        664        648        649        666        665        649        650        667        666        650        651        668        667        651        652        669        668        652        653        670        669        653        654        671        670        654        655        672        671        655        656        673        672        656        657        674        673        657        658        675        674        658        659        676        675        659        660        677        676        660        661        678        677        661        662        679        678        663        664        681        680        664        665        682        681        665        666        683        682        666        667        684        683        667        668        685        684        668        669        686        685        669        670        687        686        670        671        688        687        671        672        689        688        672        673        690        689        673        674        691        690        674        675        692        691        675        676        693        692        676        677        694        693        677        678        695        694        678        679        696        695        680        681        698        697        681        682        699        698        682        683        700        699        683        684        701        700        684        685        702        701        685        686        703        702        686        687        704        703        687        688        705        704        688        689        706        705        689        690        707        706        690        691        708        707        691        692        709        708        692        693        710        709        693        694        711        710        694        695        712        711        695        696        713        712        697        698        715        714        698        699        716        715        699        700        717        716        700        701        718        717        701        702        719        718        702        703        720        719        703        704        721        720        704        705        722        721        705        706        723        722        706        707        724        723        707        708        725        724        708        709        726        725        709        710        727        726        710        711        728        727        711        712        729        728        712        713        730        729        714        715        732        731        715        716        733        732        716        717        734        733        717        718        735        734        718        719        736        735        719        720        737        736        720        721        738        737        721        722        739        738        722        723        740        739        723        724        741        740        724        725        742        741        725        726        743        742        726        727        744        743        727        728        745        744        728        729        746        745        729        730        747        746        731        732        749        748        732        733        750        749        733        734        751        750        734        735        752        751        735        736        753        752        736        737        754        753        737        738        755        754        738        739        756        755        739        740        757        756        740        741        758        757        741        742        759        758        742        743        760        759        743        744        761        760        744        745        762        761        745        746        763        762        746        747        764        763        748        749        766        765        749        750        767        766        750        751        768        767        751        752        769        768        752        753        770        769        753        754        771        770        754        755        772        771        755        756        773        772        756        757        774        773        757        758        775        774        758        759        776        775        759        760        777        776        760        761        778        777        761        762        779        778        762        763        780        779        763        764        781        780        765        766        783        782        766        767        784        783        767        768        785        784        768        769        786        785        769        770        787        786        770        771        788        787        771        772        789        788        772        773        790        789        773        774        791        790        774        775        792        791        775        776        793        792        776        777        794        793        777        778        795        794        778        779        796        795        779        780        797        796        780        781        798        797        782        783        800        799        783        784        801        800        784        785        802        801        785        786        803        802        786        787        804        803        787        788        805        804        788        789        806        805        789        790        807        806        790        791        808        807        791        792        809        808        792        793        810        809        793        794        811        810        794        795        812        811        795        796        813        812        796        797        814        813        797        798        815        814        799        800        817        816        800        801        818        817        801        802        819        818        802        803        820        819        803        804        821        820        804        805        822        821        805        806        823        822        806        807        824        823        807        808        825        824        808        809        826        825        809        810        827        826        810        811        828        827        811        812        829        828        812        813        830        829        813        814        831        830        814        815        832        831        816        817        834        833        817        818        835        834        818        819        836        835        819        820        837        836        820        821        838        837        821        822        839        838        822        823        840        839        823        824        841        840        824        825        842        841        825        826        843        842        826        827        844        843        827        828        845        844        828        829        846        845        829        830        847        846        830        831        848        847        831        832        849        848        833        834        562        561        834        835        563        562        835        836        564        563        836        837        565        564        837        838        566        565        838        839        567        566        839        840        568        567        840        841        569        568        841        842        570        569        842        843        571        570        843        844        572        571        844        845        573        572        845        846        574        573        846        847        575        574        847        848        576        575        848        849        577        576        884        885        579        578        885        886        580        579        886        887        581        580        887        888        582        581        888        889        583        582        889        890        584        583        890        891        585        584        891        892        586        585        892        893        587        586        893        894        588        587        894        895        589        588        895        896        590        589        896        897        591        590        897        898        592        591        898        899        593        592        899        900        594        593        901        902        885        884        902        903        886        885        903        904        887        886        904        905        888        887        905        906        889        888        906        907        890        889        907        908        891        890        908        909        892        891        909        910        893        892        910        911        894        893        911        912        895        894        912        913        896        895        913        914        897        896        914        915        898        897        915        916        899        898        916        917        900        899        918        919        902        901        919        920        903        902        920        921        904        903        921        922        905        904        922        923        906        905        923        924        907        906        924        925        908        907        925        926        909        908        926        927        910        909        927        928        911        910        928        929        912        911        929        930        913        912        930        931        914        913        931        932        915        914        932        933        916        915        933        934        917        916        935        936        919        918        936        937        920        919        937        938        921        920        938        939        922        921        939        940        923        922        940        941        924        923        941        942        925        924        942        943        926        925        943        944        927        926        944        945        928        927        945        946        929        928        946        947        930        929        947        948        931        930        948        949        932        931        949        950        933        932        950        951        934        933        952        953        936        935        953        954        937        936        954        955        938        937        955        956        939        938        956        957        940        939        957        958        941        940        958        959        942        941        959        960        943        942        960        961        944        943        961        962        945        944        962        963        946        945        963        964        947        946        964        965        948        947        965        966        949        948        966        967        950        949        967        968        951        950        969        970        953        952        970        971        954        953        971        972        955        954        972        973        956        955        973        974        957        956        974        975        958        957        975        976        959        958        976        977        960        959        977        978        961        960        978        979        962        961        979        980        963        962        980        981        964        963        981        982        965        964        982        983        966        965        983        984        967        966        984        985        968        967        986        987        970        969        987        988        971        970        988        989        972        971        989        990        973        972        990        991        974        973        991        992        975        974        992        993        976        975        993        994        977        976        994        995        978        977        995        996        979        978        996        997        980        979        997        998        981        980        998        999        982        981        999       1000        983        982       1000       1001        984        983       1001       1002        985        984       1003       1004        987        986       1004       1005        988        987       1005       1006        989        988       1006       1007        990        989       1007       1008        991        990       1008       1009        992        991       1009       1010        993        992       1010       1011        994        993       1011       1012        995        994       1012       1013        996        995       1013       1014        997        996       1014       1015        998        997       1015       1016        999        998       1016       1017       1000        999       1017       1018       1001       1000       1018       1019       1002       1001       1020       1021       1004       1003       1021       1022       1005       1004       1022       1023       1006       1005       1023       1024       1007       1006       1024       1025       1008       1007       1025       1026       1009       1008       1026       1027       1010       1009       1027       1028       1011       1010       1028       1029       1012       1011       1029       1030       1013       1012       1030       1031       1014       1013       1031       1032       1015       1014       1032       1033       1016       1015       1033       1034       1017       1016       1034       1035       1018       1017       1035       1036       1019       1018       1037       1038       1021       1020       1038       1039       1022       1021       1039       1040       1023       1022       1040       1041       1024       1023       1041       1042       1025       1024       1042       1043       1026       1025       1043       1044       1027       1026       1044       1045       1028       1027       1045       1046       1029       1028       1046       1047       1030       1029       1047       1048       1031       1030       1048       1049       1032       1031       1049       1050       1033       1032       1050       1051       1034       1033       1051       1052       1035       1034       1052       1053       1036       1035       1054       1055       1038       1037       1055       1056       1039       1038       1056       1057       1040       1039       1057       1058       1041       1040       1058       1059       1042       1041       1059       1060       1043       1042       1060       1061       1044       1043       1061       1062       1045       1044       1062       1063       1046       1045       1063       1064       1047       1046       1064       1065       1048       1047       1065       1066       1049       1048       1066       1067       1050       1049       1067       1068       1051       1050       1068       1069       1052       1051       1069       1070       1053       1052       1071       1072       1055       1054       1072       1073       1056       1055       1073       1074       1057       1056       1074       1075       1058       1057       1075       1076       1059       1058       1076       1077       1060       1059       1077       1078       1061       1060       1078       1079       1062       1061       1079       1080       1063       1062       1080       1081       1064       1063       1081       1082       1065       1064       1082       1083       1066       1065       1083       1084       1067       1066       1084       1085       1068       1067       1085       1086       1069       1068       1086       1087       1070       1069       1088       1089       1072       1071       1089       1090       1073       1072       1090       1091       1074       1073       1091       1092       1075       1074       1092       1093       1076       1075       1093       1094       1077       1076       1094       1095       1078       1077       1095       1096       1079       1078       1096       1097       1080       1079       1097       1098       1081       1080       1098       1099       1082       1081       1099       1100       1083       1082       1100       1101       1084       1083       1101       1102       1085       1084       1102       1103       1086       1085       1103       1104       1087       1086       1105       1106       1089       1088       1106       1107       1090       1089       1107       1108       1091       1090       1108       1109       1092       1091       1109       1110       1093       1092       1110       1111       1094       1093       1111       1112       1095       1094       1112       1113       1096       1095       1113       1114       1097       1096       1114       1115       1098       1097       1115       1116       1099       1098       1116       1117       1100       1099       1117       1118       1101       1100       1118       1119       1102       1101       1119       1120       1103       1102       1120       1121       1104       1103       1122       1123       1106       1105       1123       1124       1107       1106       1124       1125       1108       1107       1125       1126       1109       1108       1126       1127       1110       1109       1127       1128       1111       1110       1128       1129       1112       1111       1129       1130       1113       1112       1130       1131       1114       1113       1131       1132       1115       1114       1132       1133       1116       1115       1133       1134       1117       1116       1134       1135       1118       1117       1135       1136       1119       1118       1136       1137       1120       1119       1137       1138       1121       1120        272        273       1123       1122        273        274       1124       1123        274        275       1125       1124        275        276       1126       1125        276        277       1127       1126        277        278       1128       1127        278        279       1129       1128        279        280       1130       1129        280        281       1131       1130        281        282       1132       1131        282        283       1133       1132        283        284       1134       1133        284        285       1135       1134        285        286       1136       1135        286        287       1137       1136        287        288       1138       1137 </DataArray>
<DataArray type="Int32"                                    Name="offsets"                                                      NumberOfComponents=" 1" format="ascii">
         4          8         12         16         20         24         28         32         36         40         44         48         52         56         60         64         68         72         76         80         84         88         92         96        100        104        108        112        116        120        124        128        132        136        140        144        148        152        156        160        164        168        172        176        180        184        188        192        196        200        204        208        212        216        220        224        228        232        236        240        244        248        252        256        260        264        268        272        276        280        284        288        292        296        300        304        308        312        316        320        324        328        332        336        340        344        348        352        356        360        364        368        372        376        380        384        388        392        396        400        404        408        412        416        420        424        428        432        436        440        444        448        452        456        460        464        468        472        476        480        484        488        492        496        500        504        508        512        516        520        524        528        532        536        540        544        548        552        556        560        564        568        572        576        580        584        588        592        596        600        604        608        612        616        620        624        628        632        636        640        644        648        652        656        660        664        668        672        676        680        684        688        692        696        700        704        708        712        716        720        724        728        732        736        740        744        748        752        756        760        764        768        772        776        780        784        788        792        796        800        804        808        812        816        820        824        828        832        836        840        844        848        852        856        860        864        868        872        876        880        884        888        892        896        900        904        908        912        916        920        924        928        932        936        940        944        948        952        956        960        964        968        972        976        980        984        988        992        996       1000       1004       1008       1012       1016       1020       1024       1028       1032       1036       1040       1044       1048       1052       1056       1060       1064       1068       1072       1076       1080       1084       1088       1092       1096       1100       1104       1108       1112       1116       1120       1124       1128       1132       1136       1140       1144       1148       1152       1156       1160       1164       1168       1172       1176       1180       1184       1188       1192       1196       1200       1204       1208       1212       1216       1220       1224       1228       1232       1236       1240       1244       1248       1252       1256       1260       1264       1268       1272       1276       1280       1284       1288       1292       1296       1300       1304       1308       1312       1316       1320       1324       1328       1332       1336       1340       1344       1348       1352       1356       1360       1364       1368       1372       1376       1380       1384       1388       1392       1396       1400       1404       1408       1412       1416       1420       1424       1428       1432       1436       1440       1444       1448       1452       1456       1460       1464       1468       1472       1476       1480       1484       1488       1492       1496       1500       1504       1508       1512       1516       1520       1524       1528       1532       1536       1540       1544       1548       1552       1556       1560       1564       1568       1572       1576       1580       1584       1588       1592       1596       1600       1604       1608       1612       1616       1620       1624       1628       1632       1636       1640       1644       1648       1652       1656       1660       1664       1668       1672       1676       1680       1684       1688       1692       1696       1700       1704       1708       1712       1716       1720       1724       1728       1732       1736       1740       1744       1748       1752       1756       1760       1764       1768       1772       1776       1780       1784       1788       1792       1796       1800       1804       1808       1812       1816       1820       1824       1828       1832       1836       1840       1844       1848       1852       1856       1860       1864       1868       1872       1876       1880       1884       1888       1892       1896       1900       1904       1908       1912       1916       1920       1924       1928       1932       1936       1940       1944       1948       1952       1956       1960       1964       1968       1972       1976       1980       1984       1988       1992       1996       2000       2004       2008       2012       2016       2020       2024       2028       2032       2036       2040       2044       2048       2052       2056       2060       2064       2068       2072       2076       2080       2084       2088       2092       2096       2100       2104       2108       2112       2116       2120       2124       2128       2132       2136       2140       2144       2148       2152       2156       2160       2164       2168       2172       2176       2180       2184       2188       2192       2196       2200       2204       2208       2212       2216       2220       2224       2228       2232       2236       2240       2244       2248       2252       2256       2260       2264       2268       2272       2276       2280       2284       2288       2292       2296       2300       2304       2308       2312       2316       2320       2324       2328       2332       2336       2340       2344       2348       2352       2356       2360       2364       2368       2372       2376       2380       2384       2388       2392       2396       2400       2404       2408       2412       2416       2420       2424       2428       2432       2436       2440       2444       2448       2452       2456       2460       2464       2468       2472       2476       2480       2484       2488       2492       2496       2500       2504       2508       2512       2516       2520       2524       2528       2532       2536       2540       2544       2548       2552       2556       2560       2564       2568       2572       2576       2580       2584       2588       2592       2596       2600       2604       2608       2612       2616       2620       2624       2628       2632       2636       2640       2644       2648       2652       2656       2660       2664       2668       2672       2676       2680       2684       2688       2692       2696       2700       2704       2708       2712       2716       2720       2724       2728       2732       2736       2740       2744       2748       2752       2756       2760       2764       2768       2772       2776       2780       2784       2788       2792       2796       2800       2804       2808       2812       2816       2820       2824       2828       2832       2836       2840       2844       2848       2852       2856       2860       2864       2868       2872       2876       2880       2884       2888       2892       2896       2900       2904       2908       2912       2916       2920       2924       2928       2932       2936       2940       2944       2948       2952       2956       2960       2964       2968       2972       2976       2980       2984       2988       2992       2996       3000       3004       3008       3012       3016       3020       3024       3028       3032       3036       3040       3044       3048       3052       3056       3060       3064       3068       3072       3076       3080       3084       3088       3092       3096       3100       3104       3108       3112       3116       3120       3124       3128       3132       3136       3140       3144       3148       3152       3156       3160       3164       3168       3172       3176       3180       3184       3188       3192       3196       3200       3204       3208       3212       3216       3220       3224       3228       3232       3236       3240       3244       3248       3252       3256       3260       3264       3268       3272       3276       3280       3284       3288       3292       3296       3300       3304       3308       3312       3316       3320       3324       3328       3332       3336       3340       3344       3348       3352       3356       3360       3364       3368       3372       3376       3380       3384       3388       3392       3396       3400       3404       3408       3412       3416       3420       3424       3428       3432       3436       3440       3444       3448       3452       3456       3460       3464       3468       3472       3476       3480       3484       3488       3492       3496       3500       3504       3508       3512       3516       3520       3524       3528       3532       3536       3540       3544       3548       3552       3556       3560       3564       3568       3572       3576       3580       3584       3588       3592       3596       3600       3604       3608       3612       3616       3620       3624       3628       3632       3636       3640       3644       3648       3652       3656       3660       3664       3668       3672       3676       3680       3684       3688       3692       3696       3700       3704       3708       3712       3716       3720       3724       3728       3732       3736       3740       3744       3748       3752       3756       3760       3764       3768       3772       3776       3780       3784       3788       3792       3796       3800       3804       3808       3812       3816       3820       3824       3828       3832       3836       3840       3844       3848       3852       3856       3860       3864       3868       3872       3876       3880       3884       3888       3892       3896       3900       3904       3908       3912       3916       3920       3924       3928       3932       3936       3940       3944       3948       3952       3956       3960       3964       3968       3972       3976       3980       3984       3988       3992       3996       4000       4004       4008       4012       4016       4020       4024       4028       4032       4036       4040       4044       4048       4052       4056       4060       4064       4068       4072       4076       4080       4084       4088       4092       4096 </DataArray>
<DataArray type="UInt8"                                    Name="types"                                                      NumberOfComponents=" 1" format="ascii">
         9          9          9          9          9          9          9          9          9          9          9          9          9          9          9          9          9          9          9          9          9          9          9          9          9          9          9          9          9          9          9          9          9          9          9          9          9          9          9          9          9          9          9          9          9          9          9          9          9          9          9          9          9          9          9          9          9          9          9          9          9          9          9          9          9          9          9          9          9          9          9          9          9          9          9          9          9          9          9          9          9          9          9          9          9          9          9          9          9          9          9          9          9          9          9          9          9          9          9          9          9          9          9          9          9          9          9          9          9          9          9          9          9          9          9          9          9          9          9          9          9          9          9          9          9          9          9          9          9          9          9          9          9          9          9          9          9          9          9          9          9          9          9          9          9          9          9          9          9          9          9          9          9          9          9          9          9          9          9          9          9          9          9          9          9          9          9          9          9          9          9          9          9          9          9          9          9          9          9          9          9          9          9          9          9          9          9          9          9          9          9          9          9          9          9          9          9          9          9          9          9          9          9          9          9          9          9          9          9          9          9          9          9          9          9          9          9          9          9          9          9          9          9          9          9          9          9          9          9          9          9          9          9          9          9          9          9          9          9          9          9          9          9          9          9          9          9          9          9          9          9          9          9          9          9          9          9          9          9          9          9          9          9          9          9          9          9          9          9          9          9          9          9          9          9          9          9          9          9          9          9          9          9          9          9          9          9          9          9          9          9          9          9          9          9          9          9          9          9          9          9          9          9          9          9          9          9          9          9          9          9          9          9          9          9          9          9          9          9          9          9          9          9          9          9          9          9          9          9          9          9          9          9          9          9          9          9          9          9          9          9          9          9          9          9          9          9          9          9          9          9          9          9          9          9          9          9          9          9          9          9          9          9          9          9          9          9          9          9          9          9          9          9          9          9          9          9          9          9          9          9          9          9          9          9          9          9          9          9          9          9          9          9          9          9          9          9          9          9          9          9          9          9          9          9          9          9          9          9          9          9          9          9          9          9          9          9          9          9          9          9          9          9          9          9          9          9          9          9          9          9          9          9          9          9          9          9          9          9          9          9          9          9          9          9          9          9          9          9          9          9          9          9          9          9          9          9          9          9          9          9          9          9          9          9          9          9          9          9          9          9          9          9          9          9          9          9          9          9          9          9          9          9          9          9          9          9          9          9          9          9          9          9          9          9          9          9          9          9          9          9          9          9          9          9          9          9          9          9          9          9          9          9          9          9          9          9          9          9          9          9          9          9          9          9          9          9          9          9          9          9          9          9          9          9          9          9          9          9          9          9          9          9          9          9          9          9          9          9          9          9          9          9          9          9          9          9          9          9          9          9          9          9          9          9          9          9          9          9          9          9          9          9          9          9          9          9          9          9          9          9          9          9          9          9          9          9          9          9          9          9          9          9          9          9          9          9          9          9          9          9          9          9          9          9          9          9          9          9          9          9          9          9          9          9          9          9          9          9          9          9          9          9          9          9          9          9          9          9          9          9          9          9          9          9          9          9          9          9          9          9          9          9          9          9          9          9          9          9          9          9          9          9          9          9          9          9          9          9          9          9          9          9          9          9          9          9          9          9          9          9          9          9          9          9          9          9          9          9          9          9          9          9          9          9          9          9          9          9          9          9          9          9          9          9          9          9          9          9          9          9          9          9          9          9          9          9          9          9          9          9          9          9          9          9          9          9          9          9          9          9          9          9          9          9          9          9          9          9          9          9          9          9          9          9          9          9          9          9          9          9          9          9          9          9          9          9          9          9          9          9          9          9          9          9          9          9          9          9          9          9          9          9          9          9          9          9          9          9          9          9          9          9          9          9          9          9          9          9          9          9          9          9          9          9          9          9          9          9          9          9          9          9          9          9          9          9          9          9          9          9          9          9          9          9          9          9          9          9          9          9          9          9          9          9          9          9          9          9          9          9          9          9          9          9          9          9          9          9          9          9          9          9          9          9          9          9          9          9          9          9          9          9          9          9          9          9          9          9          9          9          9          9          9          9          9          9          9          9          9          9          9          9          9          9          9          9          9          9          9          9          9          9          9          9          9          9          9          9          9          9          9          9          9          9          9          9          9          9          9          9          9          9          9          9          9          9          9          9          9          9          9          9          9          9          9          9          9          9          9          9          9          9          9          9          9          9          9          9          9          9          9          9          9          9          9          9          9          9          9          9          9          9          9          9          9          9          9          9          9          9          9          9          9          9          9          9          9          9          9          9          9          9          9          9          9          9          9          9          9          9          9          9          9          9          9          9          9          9          9          9          9          9          9          9          9          9          9          9          9          9          9          9          9          9          9          9          9          9          9          9          9          9          9          9          9          9          9          9          9          9          9          9          9          9          9          9          9          9          9          9          9          9          9          9          9          9          9          9          9          9          9          9          9 </DataArray>
</Cells>
<CellData>
<DataArray type="Int32"                                    Name="material"                                                      NumberOfComponents=" 1" format="ascii">
         1          1          1          1          1          1          1          1          1          1          1          1          1          1          1          1          1          1          1          1          1          1          1          1          1          1          1          1          1          1          1          1          1          1          1          1          1          1          1          1          1          1          1          1          1          1          1          1          1          1          1          1          1          1          1          1          1          1          1          1          1          1          1          1          1          1          1          1          1          1          1          1          1          1          1          1          1          1          1          1          1          1          1          1          1          1          1          1          1          1          1          1          1          1          1          1          1          1          1          1          1          1          1          1          1          1          1          1          1          1          1          1          1          1          1          1          1          1          1          1          1          1          1          1          1          1          1          1          1          1          1          1          1          1          1          1          1          1          1          1          1          1          1          1          1          1          1          1          1          1          1          1          1          1          1          1          1          1          1          1          1          1          1          1          1          1          1          1          1          1          1          1          1          1          1          1          1          1          1          1          1          1          1          1          1          1          1          1          1          1          1          1          1          1          1          1          1          1          1          1          1          1          1          1          1          1          1          1          1          1          1          1          1          1          1          1          1          1          1          1          1          1          1          1          1          1          1          1          1          1          1          1          1          1          1          1          1          1          1          1          1          1          1          1          1          1          1          1          1          1          1          1          1          1          1          1          1          1          1          1          1          1          1          1          1          1          1          1          1          1          1          1          1          1          1          1          1          1          1          1          1          1          1          1          1          1          1          1          1          1          1          1          1          1          1          1          1          1          1          1          1          1          1          1          1          1          1          1          1          1          1          1          1          1          1          1          1          1          1          1          1          1          1          1          1          1          1          1          1          1          1          1          1          1          1          1          1          1          1          1          1          1          1          1          1          1          1          1          1          1          1          1          1          1          1          1          1          1          1          1          1          1          1          1          1          1          1          1          1          1          1          1          1          1          1          1          1          1          1          1          1          1          1          1          1          1          1          1          1          1          1          1          1          1          1          1          1          1          1          1          1          1          1          1          1          1          1          1          1          1          1          1          1          1          1          1          1          1          1          1          1          1          1          1          1          1          1          1          1          1          1          1          1          1          1          1          1          1          1          1          1          1          1          1          1          1          1          1          1          1          1          1          1          1          1          1          1          1          1          1          1          1          1          1          1          1          1          1          1          1          1          1          1          1          1          1          1          1          1          1          1          1          1          1          1          1          1          1          1          1          1          1          1          1          1          1          1          1          1          1          1          1          1          1          1          1          1          1          1          1          1          1          1          1          1          1          1          1          1          1          1          1          1          1          1          1          1          1          1          1          1          1          1          1          1          1          1          1          1          1          1          1          1          1          1          1          1          1          1          1          1          1          1          1          1          1          1          1          1          1          1          1          1          1          1          1          1          1          1          1          1          1          1          1          1          1          1          1          1          1          1          1          1          1          1          1          1          1          1          1          1          1          1          1          1          1          1          1          1          1          1          1          1          1          1          1          1          1          1          1          1          1          1          1          1          1          1          1          1          1          1          1          1          1          1          1          1          1          1          1          1          1          1          1          1          1          1          1          1          1          1          1          1          1          1          1          1          1          1          1          1          1          1          1          1          1          1          1          1          1          1          1          1          1          1          1          1          1          1          1          1          1          1          1          1          1          1          1          1          1          1          1          1          1          1          1          1          1          1          1          1          1          1          1          1          1          1          1          1          1          1          1          1          1          1          1          1          1          1          1          1          1          1          1          1          1          1          1          1          1          1          1          1          1          1          1          1          1          1          1          1          1          1          1          1          1          1          1          1          1          1          1          1          1          1          1          1          1          1          1          1          1          1          1          1          1          1          1          1          1          1          1          1          1          1          1          1          1          1          1          1          1          1          1          1          1          1          1          1          1          1          1          1          1          1          1          1          1          1          1          1          1          1          1          1          1          1          1          1          1          1          1          1          1          1          1          1          1          1          1          1          1          1          1          1          1          1          1          1          1          1          1          1          1          1          1          1          1          1          1          1          1          1          1          1          1          1          1          1          1          1          1          1          1          1          1          1          1          1          1          1          1          1          1          1          1          1          1          1          1          1          1          1          1          1          1          1          1          1          1          1          1          1          1          1          1          1          1          1          1          1          1          1          1          1          1          1          1          1          1          1          1          1          1          1          1          1          1          1          1          1          1          1          1          1          1          1          1          1          1          1          1          1          1          1          1          1          1          1          1          1          1          1          1          1          1          1          1          1          1          1          1          1          1          1          1          1          1          1          1          1          1          1          1          1          1          1          1          1          1          1          1          1          1          1          1          1          1          1          1          1          1          1          1          1          1          1          1          1          1          1          1          1          1          1          1          1          1          1          1          1          1          1          1          1          1          1          1          1          1          1          1          1          1          1          1          1          1          1          1          1          1          1          1          1          1          1          1          1          1          1          1          1          1          1          1          1          1          1          1          1          1          1          1 </DataArray>
</CellData>
<PointData>
<DataArray type="Float64"                                    Name="u"                                                      NumberOfComponents=" 3" format="ascii">
             -0.000801247              -0.000000000               0.999999984              -0.000852942               0.000000000               0.999999984              -0.000875259               0.000000000               0.999999984              -0.000887701              -0.000000000               0.999999984              -0.000897468              -0.000000000               0.999999984              -0.000907157              -0.000000000               0.999999984              -0.000917806               0.000000000               0.999999984              -0.000929612              -0.000000000               0.999999984              -0.000942658              -0.000000000               0.999999984              -0.000956693              -0.000000000               0.999999984              -0.000971474               0.000000000               0.999999984              -0.000986737               0.000000000               0.999999984              -0.001002015              -0.000000000               0.999999984              -0.001016848              -0.000000000               0.999999984              -0.001030585               0.000000000               0.999999984              -0.001042375               0.000000000               0.999999984              -0.001051215               0.000000000               0.999999984              -0.000796874               0.000133849               0.999999984              -0.000844476               0.000107983               0.999999984              -0.000864189               0.000096227               0.999999984              -0.000875000               0.000091705               0.999999984              -0.000883748               0.000090552               0.999999984              -0.000892708               0.000091298               0.999999984              -0.000902617               0.000092827               0.999999984              -0.000913823               0.000094869               0.999999984              -0.000926218               0.000096852               0.999999984              -0.000939527               0.000098313               0.999999984              -0.000953381               0.000098971               0.999999984              -0.000967300               0.000098425               0.999999984              -0.000980859               0.000096224               0.999999984              -0.000993562               0.000091808               0.999999984              -0.001004843               0.000084215               0.999999984              -0.001014034               0.000072722               0.999999984              -0.001020454               0.000056410               0.999999984              -0.000783623               0.000266469               0.999999984              -0.000819431               0.000215418               0.999999984              -0.000832031               0.000193251               0.999999984              -0.000838503               0.000185169               0.999999984              -0.000844356               0.000183819               0.999999984              -0.000851259               0.000185698               0.999999984              -0.000859507               0.000189320               0.999999984              -0.000869071               0.000193757               0.999999984              -0.000879595               0.000197832               0.999999984              -0.000890581               0.000200644               0.999999984              -0.000901456               0.000201641               0.999999984              -0.000911707               0.000200142               0.999999984              -0.000920679               0.000195424               0.999999984              -0.000927889               0.000186554               0.999999984              -0.000933074               0.000172378               0.999999984              -0.000935875               0.000151760               0.999999984              -0.000936089               0.000123539               0.999999984              -0.000761877               0.000396546               0.999999984              -0.000779254               0.000321966               0.999999984              -0.000781501               0.000291671               0.999999984              -0.000782089               0.000281819               0.999999984              -0.000784278               0.000281388               0.999999984              -0.000788478               0.000285472               0.999999984              -0.000794501               0.000291822               0.999999984              -0.000801735               0.000298910               0.999999984              -0.000809471               0.000304986               0.999999984              -0.000816801               0.000308732               0.999999984              -0.000822881               0.000309571               0.999999984              -0.000827084               0.000306659               0.999999984              -0.000828989               0.000299269               0.999999984              -0.000828289               0.000286569               0.999999984              -0.000824933               0.000267496               0.999999984              -0.000819110               0.000241416               0.999999984              -0.000811100               0.000207598               0.999999984              -0.000732231               0.000522857               0.999999984              -0.000726033               0.000427436               0.999999984              -0.000716646               0.000391816               0.999999984              -0.000711389               0.000382159               0.999999984              -0.000710222               0.000383842               0.999999984              -0.000712032               0.000390896               0.999999984              -0.000715872               0.000400156               0.999999984              -0.000720356               0.000409732               0.999999984              -0.000724196               0.000417378               0.999999984              -0.000726455               0.000421583               0.999999984              -0.000726348               0.000421661               0.999999984              -0.000723385               0.000416952               0.999999984              -0.000717250               0.000406925               0.999999984              -0.000707924               0.000391112               0.999999984              -0.000695690               0.000369042               0.999999984              -0.000680932               0.000340787               0.999999984              -0.000664384               0.000306724               0.999999984              -0.000695070               0.000644377               0.999999984              -0.000662401               0.000531836               0.999999984              -0.000642325               0.000493632               0.999999984              -0.000632507               0.000485660               0.999999984              -0.000629145               0.000490353               0.999999984              -0.000629431               0.000500490               0.999999984              -0.000631076               0.000512478               0.999999984              -0.000632336               0.000523925               0.999999984              -0.000631793               0.000532388               0.999999984              -0.000628298               0.000536336               0.999999984              -0.000621320               0.000535250               0.999999984              -0.000610543               0.000528670               0.999999984              -0.000595959               0.000516387               0.999999984              -0.000577898               0.000498383               0.999999984              -0.000556781               0.000474789               0.999999984              -0.000533279               0.000446460               0.999999984              -0.000508218               0.000414600               0.999999984              -0.000651251               0.000759895               0.999999984              -0.000591521               0.000635111               0.999999984              -0.000563136               0.000596776               0.999999984              -0.000551184               0.000591219               0.999999984              -0.000547242               0.000598973               0.999999984              -0.000546601               0.000611965               0.999999984              -0.000546348               0.000625941               0.999999984              -0.000544269               0.000638394               0.999999984              -0.000538717               0.000646840               0.999999984              -0.000528745               0.000650012               0.999999984              -0.000514063               0.000647619               0.999999984              -0.000494688               0.000639410               0.999999984              -0.000470942               0.000625691               0.999999984              -0.000443416               0.000606698               0.999999984              -0.000412887               0.000583193               0.999999984              -0.000380218               0.000556555               0.999999984              -0.000346285               0.000528017               0.999999984              -0.000601542               0.000868212               0.999999984              -0.000516709               0.000737086               0.999999984              -0.000483751               0.000700159               0.999999984              -0.000472290               0.000697072               0.999999984              -0.000469049               0.000707380               0.999999984              -0.000468137               0.000722376               0.999999984              -0.000465858               0.000737526               0.999999984              -0.000459758               0.000750357               0.999999984              -0.000448353               0.000758268               0.999999984              -0.000431044               0.000760400               0.999999984              -0.000407628               0.000756884               0.999999984              -0.000378620               0.000747599               0.999999984              -0.000344746               0.000733124               0.999999984              -0.000307006               0.000714380               0.999999984              -0.000266450               0.000692410               0.999999984              -0.000224222               0.000668571               0.999999984              -0.000181191               0.000643942               0.999999984              -0.000547519               0.000967343               0.999999984              -0.000440710               0.000837640               0.999999984              -0.000408324               0.000802262               0.999999984              -0.000399195               0.000800915               0.999999984              -0.000397440               0.000813101               0.999999984              -0.000396059               0.000829526               0.999999984              -0.000391111               0.000845492               0.999999984              -0.000380419               0.000858053               0.999999984              -0.000362294               0.000865137               0.999999984              -0.000336291               0.000866312               0.999999984              -0.000302882               0.000861775               0.999999984              -0.000263041               0.000851851               0.999999984              -0.000218021               0.000837522               0.999999984              -0.000169337               0.000820156               0.999999984              -0.000118473               0.000800879               0.999999984              -0.000066676               0.000780815               0.999999984              -0.000014748               0.000760646               0.999999984              -0.000491624               0.001061021               0.999999984              -0.000377239               0.000949786               0.999999984              -0.000341904               0.000910233               0.999999984              -0.000331825               0.000903296               0.999999984              -0.000329878               0.000911221               0.999999984              -0.000329054               0.000925474               0.999999984              -0.000325862               0.000941327               0.999999984              -0.000318186               0.000955980               0.999999984              -0.000304167               0.000967468               0.999999984              -0.000282864               0.000974691               0.999999984              -0.000254322               0.000977486               0.999999984              -0.000218884               0.000975888               0.999999984              -0.000177321               0.000970436               0.999999984              -0.000130882               0.000961800               0.999999984              -0.000080951               0.000951134               0.999999984              -0.000028947               0.000939263               0.999999984               0.000023705               0.000927031               0.999999984              -0.000430417               0.001146310               0.999999984              -0.000316551               0.001058210               0.999999984              -0.000278487               0.001020871               0.999999984              -0.000266573               0.001010971               0.999999984              -0.000263819               0.001015789               0.999999984              -0.000263057               0.001028199               0.999999984              -0.000260845               0.001044025               0.999999984              -0.000255398               0.001060466               0.999999984              -0.000244883               0.001075503               0.999999984              -0.000228073               0.001087821               0.999999984              -0.000204332               0.001096939               0.999999984              -0.000173738               0.001102602               0.999999984              -0.000136306               0.001104962               0.999999984              -0.000092893               0.001104364               0.999999984              -0.000044667               0.001101592               0.999999984               0.000007044               0.001097602               0.999999984               0.000060592               0.001092997               0.999999984              -0.000365197               0.001221052               0.999999984              -0.000258671               0.001159600               0.999999984              -0.000219645               0.001129174               0.999999984              -0.000205925               0.001119762               0.999999984              -0.000201923               0.001123403               0.999999984              -0.000200622               0.001134937               0.999999984              -0.000198869               0.001150978               0.999999984              -0.000194848               0.001169164               0.999999984              -0.000187035               0.001187441               0.999999984              -0.000174005               0.001204480               0.999999984              -0.000154913               0.001219338               0.999999984              -0.000129236               0.001231624               0.999999984              -0.000096849               0.001241133               0.999999984              -0.000057563               0.001247976               0.999999984              -0.000012067               0.001252681               0.999999984               0.000038666               0.001255870               0.999999984               0.000093264               0.001258357               0.999999984              -0.000296531               0.001283902               0.999999984              -0.000203568               0.001249798               0.999999984              -0.000166346               0.001229637               0.999999984              -0.000151785               0.001223734               0.999999984              -0.000146524               0.001228590               0.999999984              -0.000144433               0.001240866               0.999999984              -0.000142634               0.001257903               0.999999984              -0.000139516               0.001277772               0.999999984              -0.000133628               0.001299072               0.999999984              -0.000123739               0.001320442               0.999999984              -0.000108972               0.001340875               0.999999984              -0.000088411               0.001359553               0.999999984              -0.000061551               0.001376163               0.999999984              -0.000027755               0.001390520               0.999999984               0.000013534               0.001402758               0.999999984               0.000062006               0.001413162               0.999999984               0.000116985               0.001422560               0.999999984              -0.000225008               0.001333838               0.999999984              -0.000150836               0.001324712               0.999999984              -0.000118738               0.001316262               0.999999984              -0.000104906               0.001316032               0.999999984              -0.000099136               0.001323904               0.999999984              -0.000096643               0.001338151               0.999999984              -0.000094738               0.001357113               0.999999984              -0.000092062               0.001379293               0.999999984              -0.000087577               0.001403629               0.999999984              -0.000080418               0.001429121               0.999999984              -0.000069557               0.001454796               0.999999984              -0.000054128               0.001479735               0.999999984              -0.000033340               0.001503408               0.999999984              -0.000006094               0.001525386               0.999999984               0.000028645               0.001545506               0.999999984               0.000071789               0.001563701               0.999999984               0.000124138               0.001580361               0.999999984              -0.000151297               0.001370079               0.999999984              -0.000099765               0.001380928               0.999999984              -0.000076049               0.001383361               0.999999984              -0.000065114               0.001389180               0.999999984              -0.000060183               0.001400740               0.999999984              -0.000057813               0.001417692               0.999999984              -0.000056041               0.001439061               0.999999984              -0.000053910               0.001463864               0.999999984              -0.000050792               0.001491214               0.999999984              -0.000046001               0.001520356               0.999999984              -0.000038813               0.001550506               0.999999984              -0.000028491               0.001581012               0.999999984              -0.000014057               0.001611286               0.999999984               0.000005414               0.001640654               0.999999984               0.000031028               0.001668771               0.999999984               0.000064170               0.001695153               0.999999984               0.000106983               0.001719271               0.999999984              -0.000076054               0.001392083               0.999999984              -0.000049663               0.001415785               0.999999984              -0.000037040               0.001425901               0.999999984              -0.000030986               0.001436397               0.999999984              -0.000028142               0.001451008               0.999999984              -0.000026654               0.001470348               0.999999984              -0.000025533               0.001493878               0.999999984              -0.000024356               0.001520850               0.999999984              -0.000022686               0.001550511               0.999999984              -0.000020201               0.001582312               0.999999984              -0.000016569               0.001615729               0.999999984              -0.000011366               0.001650195               0.999999984              -0.000003881               0.001685101               0.999999984               0.000006426               0.001719840               0.999999984               0.000020080               0.001753889               0.999999984               0.000038184               0.001786448               0.999999984               0.000062460               0.001816457               0.999999984               0.000000000               0.001399470               0.999999984              -0.000000000               0.001427583               0.999999984               0.000000000               0.001440440               0.999999984              -0.000000000               0.001452689               0.999999984               0.000000000               0.001468476               0.999999984              -0.000000000               0.001488775               0.999999984               0.000000000               0.001513121               0.999999984               0.000000000               0.001540868               0.999999984               0.000000000               0.001571468               0.999999984              -0.000000000               0.001604371               0.999999984              -0.000000000               0.001639007               0.999999984               0.000000000               0.001674949               0.999999984              -0.000000000               0.001711601               0.999999984              -0.000000000               0.001748177               0.999999984               0.000000000               0.001784214               0.999999984              -0.000000000               0.001818993               0.999999984              -0.000000000               0.001851270               0.999999984              -0.000801247              -0.000000000               0.999999984              -0.000852942               0.000000000               0.999999984              -0.000875259               0.000000000               0.999999984              -0.000887701              -0.000000000               0.999999984              -0.000897468              -0.000000000               0.999999984              -0.000907157              -0.000000000               0.999999984              -0.000917806               0.000000000               0.999999984              -0.000929612              -0.000000000               0.999999984              -0.000942658              -0.000000000               0.999999984              -0.000956693              -0.000000000               0.999999984              -0.000971474               0.000000000               0.999999984              -0.000986737               0.000000000               0.999999984              -0.001002015              -0.000000000               0.999999984              -0.001016848              -0.000000000               0.999999984              -0.001030585               0.000000000               0.999999984              -0.001042375               0.000000000               0.999999984              -0.001051215               0.000000000               0.999999984              -0.000796874              -0.000133849               0.999999984              -0.000844476              -0.000107983               0.999999984              -0.000864189              -0.000096227               0.999999984              -0.000875000              -0.000091705               0.999999984              -0.000883748              -0.000090552               0.999999984              -0.000892708              -0.000091298               0.999999984              -0.000902617              -0.000092827               0.999999984              -0.000913823              -0.000094869               0.999999984              -0.000926218              -0.000096852               0.999999984              -0.000939527              -0.000098313               0.999999984              -0.000953381              -0.000098971               0.999999984              -0.000967300              -0.000098425               0.999999984              -0.000980859              -0.000096224               0.999999984              -0.000993562              -0.000091808               0.999999984              -0.001004843              -0.000084215               0.999999984              -0.001014034              -0.000072722               0.999999984              -0.001020454              -0.000056410               0.999999984              -0.000783623              -0.000266469               0.999999984              -0.000819431              -0.000215418               0.999999984              -0.000832031              -0.000193251               0.999999984              -0.000838503              -0.000185169               0.999999984              -0.000844356              -0.000183819               0.999999984              -0.000851259              -0.000185698               0.999999984              -0.000859507              -0.000189320               0.999999984              -0.000869071              -0.000193757               0.999999984              -0.000879595              -0.000197832               0.999999984              -0.000890581              -0.000200644               0.999999984              -0.000901456              -0.000201641               0.999999984              -0.000911707              -0.000200142               0.999999984              -0.000920679              -0.000195424               0.999999984              -0.000927889              -0.000186554               0.999999984              -0.000933074              -0.000172378               0.999999984              -0.000935875              -0.000151760               0.999999984              -0.000936089              -0.000123539               0.999999984              -0.000761877              -0.000396546               0.999999984              -0.000779254              -0.000321966               0.999999984              -0.000781501              -0.000291671               0.999999984              -0.000782089              -0.000281819               0.999999984              -0.000784278              -0.000281388               0.999999984              -0.000788478              -0.000285472               0.999999984              -0.000794501              -0.000291822               0.999999984              -0.000801735              -0.000298910               0.999999984              -0.000809471              -0.000304986               0.999999984              -0.000816801              -0.000308732               0.999999984              -0.000822881              -0.000309571               0.999999984              -0.000827084              -0.000306659               0.999999984              -0.000828989              -0.000299269               0.999999984              -0.000828289              -0.000286569               0.999999984              -0.000824933              -0.000267496               0.999999984              -0.000819110              -0.000241416               0.999999984              -0.000811100              -0.000207598               0.999999984              -0.000732231              -0.000522857               0.999999984              -0.000726033              -0.000427436               0.999999984              -0.000716646              -0.000391816               0.999999984              -0.000711389              -0.000382159               0.999999984              -0.000710222              -0.000383842               0.999999984              -0.000712032              -0.000390896               0.999999984              -0.000715872              -0.000400156               0.999999984              -0.000720356              -0.000409732               0.999999984              -0.000724196              -0.000417378               0.999999984              -0.000726455              -0.000421583               0.999999984              -0.000726348              -0.000421661               0.999999984              -0.000723385              -0.000416952               0.999999984              -0.000717250              -0.000406925               0.999999984              -0.000707924              -0.000391112               0.999999984              -0.000695690              -0.000369042               0.999999984              -0.000680932              -0.000340787               0.999999984              -0.000664384              -0.000306724               0.999999984              -0.000695070              -0.000644377               0.999999984              -0.000662401              -0.000531836               0.999999984              -0.000642325              -0.000493632               0.999999984              -0.000632507              -0.000485660               0.999999984              -0.000629145              -0.000490353               0.999999984              -0.000629431              -0.000500490               0.999999984              -0.000631076              -0.000512478               0.999999984              -0.000632336              -0.000523925               0.999999984              -0.000631793              -0.000532388               0.999999984              -0.000628298              -0.000536336               0.999999984              -0.000621320              -0.000535250               0.999999984              -0.000610543              -0.000528670               0.999999984              -0.000595959              -0.000516387               0.999999984              -0.000577898              -0.000498383               0.999999984              -0.000556781              -0.000474789               0.999999984              -0.000533279              -0.000446460               0.999999984              -0.000508218              -0.000414600               0.999999984              -0.000651251              -0.000759895               0.999999984              -0.000591521              -0.000635111               0.999999984              -0.000563136              -0.000596776               0.999999984              -0.000551184              -0.000591219               0.999999984              -0.000547242              -0.000598973               0.999999984              -0.000546601              -0.000611965               0.999999984              -0.000546348              -0.000625941               0.999999984              -0.000544269              -0.000638394               0.999999984              -0.000538717              -0.000646840               0.999999984              -0.000528745              -0.000650012               0.999999984              -0.000514063              -0.000647619               0.999999984              -0.000494688              -0.000639410               0.999999984              -0.000470942              -0.000625691               0.999999984              -0.000443416              -0.000606698               0.999999984              -0.000412887              -0.000583193               0.999999984              -0.000380218              -0.000556555               0.999999984              -0.000346285              -0.000528017               0.999999984              -0.000601542              -0.000868212               0.999999984              -0.000516709              -0.000737086               0.999999984              -0.000483751              -0.000700159               0.999999984              -0.000472290              -0.000697072               0.999999984              -0.000469049              -0.000707380               0.999999984              -0.000468137              -0.000722376               0.999999984              -0.000465858              -0.000737526               0.999999984              -0.000459758              -0.000750357               0.999999984              -0.000448353              -0.000758268               0.999999984              -0.000431044              -0.000760400               0.999999984              -0.000407628              -0.000756884               0.999999984              -0.000378620              -0.000747599               0.999999984              -0.000344746              -0.000733124               0.999999984              -0.000307006              -0.000714380               0.999999984              -0.000266450              -0.000692410               0.999999984              -0.000224222              -0.000668571               0.999999984              -0.000181191              -0.000643942               0.999999984              -0.000547519              -0.000967343               0.999999984              -0.000440710              -0.000837640               0.999999984              -0.000408324              -0.000802262               0.999999984              -0.000399195              -0.000800915               0.999999984              -0.000397440              -0.000813101               0.999999984              -0.000396059              -0.000829526               0.999999984              -0.000391111              -0.000845492               0.999999984              -0.000380419              -0.000858053               0.999999984              -0.000362294              -0.000865137               0.999999984              -0.000336291              -0.000866312               0.999999984              -0.000302882              -0.000861775               0.999999984              -0.000263041              -0.000851851               0.999999984              -0.000218021              -0.000837522               0.999999984              -0.000169337              -0.000820156               0.999999984              -0.000118473              -0.000800879               0.999999984              -0.000066676              -0.000780815               0.999999984              -0.000014748              -0.000760646               0.999999984              -0.000491624              -0.001061021               0.999999984              -0.000377239              -0.000949786               0.999999984              -0.000341904              -0.000910233               0.999999984              -0.000331825              -0.000903296               0.999999984              -0.000329878              -0.000911221               0.999999984              -0.000329054              -0.000925474               0.999999984              -0.000325862              -0.000941327               0.999999984              -0.000318186              -0.000955980               0.999999984              -0.000304167              -0.000967468               0.999999984              -0.000282864              -0.000974691               0.999999984              -0.000254322              -0.000977486               0.999999984              -0.000218884              -0.000975888               0.999999984              -0.000177321              -0.000970436               0.999999984              -0.000130882              -0.000961800               0.999999984              -0.000080951              -0.000951134               0.999999984              -0.000028947              -0.000939263               0.999999984               0.000023705              -0.000927031               0.999999984              -0.000430417              -0.001146310               0.999999984              -0.000316551              -0.001058210               0.999999984              -0.000278487              -0.001020871               0.999999984              -0.000266573              -0.001010971               0.999999984              -0.000263819              -0.001015789               0.999999984              -0.000263057              -0.001028199               0.999999984              -0.000260845              -0.001044025               0.999999984              -0.000255398              -0.001060466               0.999999984              -0.000244883              -0.001075503               0.999999984              -0.000228073              -0.001087821               0.999999984              -0.000204332              -0.001096939               0.999999984              -0.000173738              -0.001102602               0.999999984              -0.000136306              -0.001104962               0.999999984              -0.000092893              -0.001104364               0.999999984              -0.000044667              -0.001101592               0.999999984               0.000007044              -0.001097602               0.999999984               0.000060592              -0.001092997               0.999999984              -0.000365197              -0.001221052               0.999999984              -0.000258671              -0.001159600               0.999999984              -0.000219645              -0.001129174               0.999999984              -0.000205925              -0.001119762               0.999999984              -0.000201923              -0.001123403               0.999999984              -0.000200622              -0.001134937               0.999999984              -0.000198869              -0.001150978               0.999999984              -0.000194848              -0.001169164               0.999999984              -0.000187035              -0.001187441               0.999999984              -0.000174005              -0.001204480               0.999999984              -0.000154913              -0.001219338               0.999999984              -0.000129236              -0.001231624               0.999999984              -0.000096849              -0.001241133               0.999999984              -0.000057563              -0.001247976               0.999999984              -0.000012067              -0.001252681               0.999999984               0.000038666              -0.001255870               0.999999984               0.000093264              -0.001258357               0.999999984              -0.000296531              -0.001283902               0.999999984              -0.000203568              -0.001249798               0.999999984              -0.000166346              -0.001229637               0.999999984              -0.000151785              -0.001223734               0.999999984              -0.000146524              -0.001228590               0.999999984              -0.000144433              -0.001240866               0.999999984              -0.000142634              -0.001257903               0.999999984              -0.000139516              -0.001277772               0.999999984              -0.000133628              -0.001299072               0.999999984              -0.000123739              -0.001320442               0.999999984              -0.000108972              -0.001340875               0.999999984              -0.000088411              -0.001359553               0.999999984              -0.000061551              -0.001376163               0.999999984              -0.000027755              -0.001390520               0.999999984               0.000013534              -0.001402758               0.999999984               0.000062006              -0.001413162               0.999999984               0.000116985              -0.001422560               0.999999984              -0.000225008              -0.001333838               0.999999984              -0.000150836              -0.001324712               0.999999984              -0.000118738              -0.001316262               0.999999984              -0.000104906              -0.001316032               0.999999984              -0.000099136              -0.001323904               0.999999984              -0.000096643              -0.001338151               0.999999984              -0.000094738              -0.001357113               0.999999984              -0.000092062              -0.001379293               0.999999984              -0.000087577              -0.001403629               0.999999984              -0.000080418              -0.001429121               0.999999984              -0.000069557              -0.001454796               0.999999984              -0.000054128              -0.001479735               0.999999984              -0.000033340              -0.001503408               0.999999984              -0.000006094              -0.001525386               0.999999984               0.000028645              -0.001545506               0.999999984               0.000071789              -0.001563701               0.999999984               0.000124138              -0.001580361               0.999999984              -0.000151297              -0.001370079               0.999999984              -0.000099765              -0.001380928               0.999999984              -0.000076049              -0.001383361               0.999999984              -0.000065114              -0.001389180               0.999999984              -0.000060183              -0.001400740               0.999999984              -0.000057813              -0.001417692               0.999999984              -0.000056041              -0.001439061               0.999999984              -0.000053910              -0.001463864               0.999999984              -0.000050792              -0.001491214               0.999999984              -0.000046001              -0.001520356               0.999999984              -0.000038813              -0.001550506               0.999999984              -0.000028491              -0.001581012               0.999999984              -0.000014057              -0.001611286               0.999999984               0.000005414              -0.001640654               0.999999984               0.000031028              -0.001668771               0.999999984               0.000064170              -0.001695153               0.999999984               0.000106983              -0.001719271               0.999999984              -0.000076054              -0.001392083               0.999999984              -0.000049663              -0.001415785               0.999999984              -0.000037040              -0.001425901               0.999999984              -0.000030986              -0.001436397               0.999999984              -0.000028142              -0.001451008               0.999999984              -0.000026654              -0.001470348               0.999999984              -0.000025533              -0.001493878               0.999999984              -0.000024356              -0.001520850               0.999999984              -0.000022686              -0.001550511               0.999999984              -0.000020201              -0.001582312               0.999999984              -0.000016569              -0.001615729               0.999999984              -0.000011366              -0.001650195               0.999999984              -0.000003881              -0.001685101               0.999999984               0.000006426              -0.001719840               0.999999984               0.000020080              -0.001753889               0.999999984               0.000038184              -0.001786448               0.999999984               0.000062460              -0.001816457               0.999999984               0.000000000              -0.001399470               0.999999984              -0.000000000              -0.001427583               0.999999984               0.000000000              -0.001440440               0.999999984               0.000000000              -0.001452689               0.999999984              -0.000000000              -0.001468476               0.999999984               0.000000000              -0.001488775               0.999999984              -0.000000000              -0.001513121               0.999999984               0.000000000              -0.001540868               0.999999984              -0.000000000              -0.001571468               0.999999984              -0.000000000              -0.001604371               0.999999984               0.000000000              -0.001639007               0.999999984               0.000000000              -0.001674949               0.999999984               0.000000000              -0.001711601               0.999999984              -0.000000000              -0.001748177               0.999999984               0.000000000              -0.001784214               0.999999984              -0.000000000              -0.001818993               0.999999984              -0.000000000              -0.001851270               0.999999984               0.000801247              -0.000000000               0.999999984               0.000852942              -0.000000000               0.999999984               0.000875259               0.000000000               0.999999984               0.000887701               0.000000000               0.999999984               0.000897468              -0.000000000               0.999999984               0.000907157              -0.000000000               0.999999984               0.000917806              -0.000000000               0.999999984               0.000929612               0.000000000               0.999999984               0.000942658               0.000000000               0.999999984               0.000956693               0.000000000               0.999999984               0.000971474               0.000000000               0.999999984               0.000986737              -0.000000000               0.999999984               0.001002015               0.000000000               0.999999984               0.001016848              -0.000000000               0.999999984               0.001030585               0.000000000               0.999999984               0.001042375               0.000000000               0.999999984               0.001051215               0.000000000               0.999999984               0.000796874              -0.000133849               0.999999984               0.000844476              -0.000107983               0.999999984               0.000864189              -0.000096227               0.999999984               0.000875000              -0.000091705               0.999999984               0.000883748              -0.000090552               0.999999984               0.000892708              -0.000091298               0.999999984               0.000902617              -0.000092827               0.999999984               0.000913823              -0.000094869               0.999999984               0.000926218              -0.000096852               0.999999984               0.000939527              -0.000098313               0.999999984               0.000953381              -0.000098971               0.999999984               0.000967300              -0.000098425               0.999999984               0.000980859              -0.000096224               0.999999984               0.000993562              -0.000091808               0.999999984               0.001004843              -0.000084215               0.999999984               0.001014034              -0.000072722               0.999999984               0.001020454              -0.000056410               0.999999984               0.000783623              -0.000266469               0.999999984               0.000819431              -0.000215418               0.999999984               0.000832031              -0.000193251               0.999999984               0.000838503              -0.000185169               0.999999984               0.000844356              -0.000183819               0.999999984               0.000851259              -0.000185698               0.999999984               0.000859507              -0.000189320               0.999999984               0.000869071              -0.000193757               0.999999984               0.000879595              -0.000197832               0.999999984               0.000890581              -0.000200644               0.999999984               0.000901456              -0.000201641               0.999999984               0.000911707              -0.000200142               0.999999984               0.000920679              -0.000195424               0.999999984               0.000927889              -0.000186554               0.999999984               0.000933074              -0.000172378               0.999999984               0.000935875              -0.000151760               0.999999984               0.000936089              -0.000123539               0.999999984               0.000761877              -0.000396546               0.999999984               0.000779254              -0.000321966               0.999999984               0.000781501              -0.000291671               0.999999984               0.000782089              -0.000281819               0.999999984               0.000784278              -0.000281388               0.999999984               0.000788478              -0.000285472               0.999999984               0.000794501              -0.000291822               0.999999984               0.000801735              -0.000298910               0.999999984               0.000809471              -0.000304986               0.999999984               0.000816801              -0.000308732               0.999999984               0.000822881              -0.000309571               0.999999984               0.000827084              -0.000306659               0.999999984               0.000828989              -0.000299269               0.999999984               0.000828289              -0.000286569               0.999999984               0.000824933              -0.000267496               0.999999984               0.000819110              -0.000241416               0.999999984               0.000811100              -0.000207598               0.999999984               0.000732231              -0.000522857               0.999999984               0.000726033              -0.000427436               0.999999984               0.000716646              -0.000391816               0.999999984               0.000711389              -0.000382159               0.999999984               0.000710222              -0.000383842               0.999999984               0.000712032              -0.000390896               0.999999984               0.000715872              -0.000400156               0.999999984               0.000720356              -0.000409732               0.999999984               0.000724196              -0.000417378               0.999999984               0.000726455              -0.000421583               0.999999984               0.000726348              -0.000421661               0.999999984               0.000723385              -0.000416952               0.999999984               0.000717250              -0.000406925               0.999999984               0.000707924              -0.000391112               0.999999984               0.000695690              -0.000369042               0.999999984               0.000680932              -0.000340787               0.999999984               0.000664384              -0.000306724               0.999999984               0.000695070              -0.000644377               0.999999984               0.000662401              -0.000531836               0.999999984               0.000642325              -0.000493632               0.999999984               0.000632507              -0.000485660               0.999999984               0.000629145              -0.000490353               0.999999984               0.000629431              -0.000500490               0.999999984               0.000631076              -0.000512478               0.999999984               0.000632336              -0.000523925               0.999999984               0.000631793              -0.000532388               0.999999984               0.000628298              -0.000536336               0.999999984               0.000621320              -0.000535250               0.999999984               0.000610543              -0.000528670               0.999999984               0.000595959              -0.000516387               0.999999984               0.000577898              -0.000498383               0.999999984               0.000556781              -0.000474789               0.999999984               0.000533279              -0.000446460               0.999999984               0.000508218              -0.000414600               0.999999984               0.000651251              -0.000759895               0.999999984               0.000591521              -0.000635111               0.999999984               0.000563136              -0.000596776               0.999999984               0.000551184              -0.000591219               0.999999984               0.000547242              -0.000598973               0.999999984               0.000546601              -0.000611965               0.999999984               0.000546348              -0.000625941               0.999999984               0.000544269              -0.000638394               0.999999984               0.000538717              -0.000646840               0.999999984               0.000528745              -0.000650012               0.999999984               0.000514063              -0.000647619               0.999999984               0.000494688              -0.000639410               0.999999984               0.000470942              -0.000625691               0.999999984               0.000443416              -0.000606698               0.999999984               0.000412887              -0.000583193               0.999999984               0.000380218              -0.000556555               0.999999984               0.000346285              -0.000528017               0.999999984               0.000601542              -0.000868212               0.999999984               0.000516709              -0.000737086               0.999999984               0.000483751              -0.000700159               0.999999984               0.000472290              -0.000697072               0.999999984               0.000469049              -0.000707380               0.999999984               0.000468137              -0.000722376               0.999999984               0.000465858              -0.000737526               0.999999984               0.000459758              -0.000750357               0.999999984               0.000448353              -0.000758268               0.999999984               0.000431044              -0.000760400               0.999999984               0.000407628              -0.000756884               0.999999984               0.000378620              -0.000747599               0.999999984               0.000344746              -0.000733124               0.999999984               0.000307006              -0.000714380               0.999999984               0.000266450              -0.000692410               0.999999984               0.000224222              -0.000668571               0.999999984               0.000181191              -0.000643942               0.999999984               0.000547519              -0.000967343               0.999999984               0.000440710              -0.000837640               0.999999984               0.000408324              -0.000802262               0.999999984               0.000399195              -0.000800915               0.999999984               0.000397440              -0.000813101               0.999999984               0.000396059              -0.000829526               0.999999984               0.000391111              -0.000845492               0.999999984               0.000380419              -0.000858053               0.999999984               0.000362294              -0.000865137               0.999999984               0.000336291              -0.000866312               0.999999984               0.000302882              -0.000861775               0.999999984               0.000263041              -0.000851851               0.999999984               0.000218021              -0.000837522               0.999999984               0.000169337              -0.000820156               0.999999984               0.000118473              -0.000800879               0.999999984               0.000066676              -0.000780815               0.999999984               0.000014748              -0.000760646               0.999999984               0.000491624              -0.001061021               0.999999984               0.000377239              -0.000949786               0.999999984               0.000341904              -0.000910233               0.999999984               0.000331825              -0.000903296               0.999999984               0.000329878              -0.000911221               0.999999984               0.000329054              -0.000925474               0.999999984               0.000325862              -0.000941327               0.999999984               0.000318186              -0.000955980               0.999999984               0.000304167              -0.000967468               0.999999984               0.000282864              -0.000974691               0.999999984               0.000254322              -0.000977486               0.999999984               0.000218884              -0.000975888               0.999999984               0.000177321              -0.000970436               0.999999984               0.000130882              -0.000961800               0.999999984               0.000080951              -0.000951134               0.999999984               0.000028947              -0.000939263               0.999999984              -0.000023705              -0.000927031               0.999999984               0.000430417              -0.001146310               0.999999984               0.000316551              -0.001058210               0.999999984               0.000278487              -0.001020871               0.999999984               0.000266573              -0.001010971               0.999999984               0.000263819              -0.001015789               0.999999984               0.000263057              -0.001028199               0.999999984               0.000260845              -0.001044025               0.999999984               0.000255398              -0.001060466               0.999999984               0.000244883              -0.001075503               0.999999984               0.000228073              -0.001087821               0.999999984               0.000204332              -0.001096939               0.999999984               0.000173738              -0.001102602               0.999999984               0.000136306              -0.001104962               0.999999984               0.000092893              -0.001104364               0.999999984               0.000044667              -0.001101592               0.999999984              -0.000007044              -0.001097602               0.999999984              -0.000060592              -0.001092997               0.999999984               0.000365197              -0.001221052               0.999999984               0.000258671              -0.001159600               0.999999984               0.000219645              -0.001129174               0.999999984               0.000205925              -0.001119762               0.999999984               0.000201923              -0.001123403               0.999999984               0.000200622              -0.001134937               0.999999984               0.000198869              -0.001150978               0.999999984               0.000194848              -0.001169164               0.999999984               0.000187035              -0.001187441               0.999999984               0.000174005              -0.001204480               0.999999984               0.000154913              -0.001219338               0.999999984               0.000129236              -0.001231624               0.999999984               0.000096849              -0.001241133               0.999999984               0.000057563              -0.001247976               0.999999984               0.000012067              -0.001252681               0.999999984              -0.000038666              -0.001255870               0.999999984              -0.000093264              -0.001258357               0.999999984               0.000296531              -0.001283902               0.999999984               0.000203568              -0.001249798               0.999999984               0.000166346              -0.001229637               0.999999984               0.000151785              -0.001223734               0.999999984               0.000146524              -0.001228590               0.999999984               0.000144433              -0.001240866               0.999999984               0.000142634              -0.001257903               0.999999984               0.000139516              -0.001277772               0.999999984               0.000133628              -0.001299072               0.999999984               0.000123739              -0.001320442               0.999999984               0.000108972              -0.001340875               0.999999984               0.000088411              -0.001359553               0.999999984               0.000061551              -0.001376163               0.999999984               0.000027755              -0.001390520               0.999999984              -0.000013534              -0.001402758               0.999999984              -0.000062006              -0.001413162               0.999999984              -0.000116985              -0.001422560               0.999999984               0.000225008              -0.001333838               0.999999984               0.000150836              -0.001324712               0.999999984               0.000118738              -0.001316262               0.999999984               0.000104906              -0.001316032               0.999999984               0.000099136              -0.001323904               0.999999984               0.000096643              -0.001338151               0.999999984               0.000094738              -0.001357113               0.999999984               0.000092062              -0.001379293               0.999999984               0.000087577              -0.001403629               0.999999984               0.000080418              -0.001429121               0.999999984               0.000069557              -0.001454796               0.999999984               0.000054128              -0.001479735               0.999999984               0.000033340              -0.001503408               0.999999984               0.000006094              -0.001525386               0.999999984              -0.000028645              -0.001545506               0.999999984              -0.000071789              -0.001563701               0.999999984              -0.000124138              -0.001580361               0.999999984               0.000151297              -0.001370079               0.999999984               0.000099765              -0.001380928               0.999999984               0.000076049              -0.001383361               0.999999984               0.000065114              -0.001389180               0.999999984               0.000060183              -0.001400740               0.999999984               0.000057813              -0.001417692               0.999999984               0.000056041              -0.001439061               0.999999984               0.000053910              -0.001463864               0.999999984               0.000050792              -0.001491214               0.999999984               0.000046001              -0.001520356               0.999999984               0.000038813              -0.001550506               0.999999984               0.000028491              -0.001581012               0.999999984               0.000014057              -0.001611286               0.999999984              -0.000005414              -0.001640654               0.999999984              -0.000031028              -0.001668771               0.999999984              -0.000064170              -0.001695153               0.999999984              -0.000106983              -0.001719271               0.999999984               0.000076054              -0.001392083               0.999999984               0.000049663              -0.001415785               0.999999984               0.000037040              -0.001425901               0.999999984               0.000030986              -0.001436397               0.999999984               0.000028142              -0.001451008               0.999999984               0.000026654              -0.001470348               0.999999984               0.000025533              -0.001493878               0.999999984               0.000024356              -0.001520850               0.999999984               0.000022686              -0.001550511               0.999999984               0.000020201              -0.001582312               0.999999984               0.000016569              -0.001615729               0.999999984               0.000011366              -0.001650195               0.999999984               0.000003881              -0.001685101               0.999999984              -0.000006426              -0.001719840               0.999999984              -0.000020080              -0.001753889               0.999999984              -0.000038184              -0.001786448               0.999999984              -0.000062460              -0.001816457               0.999999984               0.000000000              -0.001399470               0.999999984              -0.000000000              -0.001427583               0.999999984               0.000000000              -0.001440440               0.999999984               0.000000000              -0.001452689               0.999999984              -0.000000000              -0.001468476               0.999999984               0.000000000              -0.001488775               0.999999984              -0.000000000              -0.001513121               0.999999984               0.000000000              -0.001540868               0.999999984              -0.000000000              -0.001571468               0.999999984              -0.000000000              -0.001604371               0.999999984               0.000000000              -0.001639007               0.999999984               0.000000000              -0.001674949               0.999999984               0.000000000              -0.001711601               0.999999984              -0.000000000              -0.001748177               0.999999984               0.000000000              -0.001784214               0.999999984              -0.000000000              -0.001818993               0.999999984              -0.000000000              -0.001851270               0.999999984               0.000801247              -0.000000000               0.999999984               0.000852942              -0.000000000               0.999999984               0.000875259               0.000000000               0.999999984               0.000887701               0.000000000               0.999999984               0.000897468              -0.000000000               0.999999984               0.000907157              -0.000000000               0.999999984               0.000917806              -0.000000000               0.999999984               0.000929612               0.000000000               0.999999984               0.000942658               0.000000000               0.999999984               0.000956693               0.000000000               0.999999984               0.000971474               0.000000000               0.999999984               0.000986737              -0.000000000               0.999999984               0.001002015               0.000000000               0.999999984               0.001016848              -0.000000000               0.999999984               0.001030585               0.000000000               0.999999984               0.001042375               0.000000000               0.999999984               0.001051215               0.000000000               0.999999984               0.000796874               0.000133849               0.999999984               0.000844476               0.000107983               0.999999984               0.000864189               0.000096227               0.999999984               0.000875000               0.000091705               0.999999984               0.000883748               0.000090552               0.999999984               0.000892708               0.000091298               0.999999984               0.000902617               0.000092827               0.999999984               0.000913823               0.000094869               0.999999984               0.000926218               0.000096852               0.999999984               0.000939527               0.000098313               0.999999984               0.000953381               0.000098971               0.999999984               0.000967300               0.000098425               0.999999984               0.000980859               0.000096224               0.999999984               0.000993562               0.000091808               0.999999984               0.001004843               0.000084215               0.999999984               0.001014034               0.000072722               0.999999984               0.001020454               0.000056410               0.999999984               0.000783623               0.000266469               0.999999984               0.000819431               0.000215418               0.999999984               0.000832031               0.000193251               0.999999984               0.000838503               0.000185169               0.999999984               0.000844356               0.000183819               0.999999984               0.000851259               0.000185698               0.999999984               0.000859507               0.000189320               0.999999984               0.000869071               0.000193757               0.999999984               0.000879595               0.000197832               0.999999984               0.000890581               0.000200644               0.999999984               0.000901456               0.000201641               0.999999984               0.000911707               0.000200142               0.999999984               0.000920679               0.000195424               0.999999984               0.000927889               0.000186554               0.999999984               0.000933074               0.000172378               0.999999984               0.000935875               0.000151760               0.999999984               0.000936089               0.000123539               0.999999984               0.000761877               0.000396546               0.999999984               0.000779254               0.000321966               0.999999984               0.000781501               0.000291671               0.999999984               0.000782089               0.000281819               0.999999984               0.000784278               0.000281388               0.999999984               0.000788478               0.000285472               0.999999984               0.000794501               0.000291822               0.999999984               0.000801735               0.000298910               0.999999984               0.000809471               0.000304986               0.999999984               0.000816801               0.000308732               0.999999984               0.000822881               0.000309571               0.999999984               0.000827084               0.000306659               0.999999984               0.000828989               0.000299269               0.999999984               0.000828289               0.000286569               0.999999984               0.000824933               0.000267496               0.999999984               0.000819110               0.000241416               0.999999984               0.000811100               0.000207598               0.999999984               0.000732231               0.000522857               0.999999984               0.000726033               0.000427436               0.999999984               0.000716646               0.000391816               0.999999984               0.000711389               0.000382159               0.999999984               0.000710222               0.000383842               0.999999984               0.000712032               0.000390896               0.999999984               0.000715872               0.000400156               0.999999984               0.000720356               0.000409732               0.999999984               0.000724196               0.000417378               0.999999984               0.000726455               0.000421583               0.999999984               0.000726348               0.000421661               0.999999984               0.000723385               0.000416952               0.999999984               0.000717250               0.000406925               0.999999984               0.000707924               0.000391112               0.999999984               0.000695690               0.000369042               0.999999984               0.000680932               0.000340787               0.999999984               0.000664384               0.000306724               0.999999984               0.000695070               0.000644377               0.999999984               0.000662401               0.000531836               0.999999984               0.000642325               0.000493632               0.999999984               0.000632507               0.000485660               0.999999984               0.000629145               0.000490353               0.999999984               0.000629431               0.000500490               0.999999984               0.000631076               0.000512478               0.999999984               0.000632336               0.000523925               0.999999984               0.000631793               0.000532388               0.999999984               0.000628298               0.000536336               0.999999984               0.000621320               0.000535250               0.999999984               0.000610543               0.000528670               0.999999984               0.000595959               0.000516387               0.999999984               0.000577898               0.000498383               0.999999984               0.000556781               0.000474789               0.999999984               0.000533279               0.000446460               0.999999984               0.000508218               0.000414600               0.999999984               0.000651251               0.000759895               0.999999984               0.000591521               0.000635111               0.999999984               0.000563136               0.000596776               0.999999984               0.000551184               0.000591219               0.999999984               0.000547242               0.000598973               0.999999984               0.000546601               0.000611965               0.999999984               0.000546348               0.000625941               0.999999984               0.000544269               0.000638394               0.999999984               0.000538717               0.000646840               0.999999984               0.000528745               0.000650012               0.999999984               0.000514063               0.000647619               0.999999984               0.000494688               0.000639410               0.999999984               0.000470942               0.000625691               0.999999984               0.000443416               0.000606698               0.999999984               0.000412887               0.000583193               0.999999984               0.000380218               0.000556555               0.999999984               0.000346285               0.000528017               0.999999984               0.000601542               0.000868212               0.999999984               0.000516709               0.000737086               0.999999984               0.000483751               0.000700159               0.999999984               0.000472290               0.000697072               0.999999984               0.000469049               0.000707380               0.999999984               0.000468137               0.000722376               0.999999984               0.000465858               0.000737526               0.999999984               0.000459758               0.000750357               0.999999984               0.000448353               0.000758268               0.999999984               0.000431044               0.000760400               0.999999984               0.000407628               0.000756884               0.999999984               0.000378620               0.000747599               0.999999984               0.000344746               0.000733124               0.999999984               0.000307006               0.000714380               0.999999984               0.000266450               0.000692410               0.999999984               0.000224222               0.000668571               0.999999984               0.000181191               0.000643942               0.999999984               0.000547519               0.000967343               0.999999984               0.000440710               0.000837640               0.999999984               0.000408324               0.000802262               0.999999984               0.000399195               0.000800915               0.999999984               0.000397440               0.000813101               0.999999984               0.000396059               0.000829526               0.999999984               0.000391111               0.000845492               0.999999984               0.000380419               0.000858053               0.999999984               0.000362294               0.000865137               0.999999984               0.000336291               0.000866312               0.999999984               0.000302882               0.000861775               0.999999984               0.000263041               0.000851851               0.999999984               0.000218021               0.000837522               0.999999984               0.000169337               0.000820156               0.999999984               0.000118473               0.000800879               0.999999984               0.000066676               0.000780815               0.999999984               0.000014748               0.000760646               0.999999984               0.000491624               0.001061021               0.999999984               0.000377239               0.000949786               0.999999984               0.000341904               0.000910233               0.999999984               0.000331825               0.000903296               0.999999984               0.000329878               0.000911221               0.999999984               0.000329054               0.000925474               0.999999984               0.000325862               0.000941327               0.999999984               0.000318186               0.000955980               0.999999984               0.000304167               0.000967468               0.999999984               0.000282864               0.000974691               0.999999984               0.000254322               0.000977486               0.999999984               0.000218884               0.000975888               0.999999984               0.000177321               0.000970436               0.999999984               0.000130882               0.000961800               0.999999984               0.000080951               0.000951134               0.999999984               0.000028947               0.000939263               0.999999984              -0.000023705               0.000927031               0.999999984               0.000430417               0.001146310               0.999999984               0.000316551               0.001058210               0.999999984               0.000278487               0.001020871               0.999999984               0.000266573               0.001010971               0.999999984               0.000263819               0.001015789               0.999999984               0.000263057               0.001028199               0.999999984               0.000260845               0.001044025               0.999999984               0.000255398               0.001060466               0.999999984               0.000244883               0.001075503               0.999999984               0.000228073               0.001087821               0.999999984               0.000204332               0.001096939               0.999999984               0.000173738               0.001102602               0.999999984               0.000136306               0.001104962               0.999999984               0.000092893               0.001104364               0.999999984               0.000044667               0.001101592               0.999999984              -0.000007044               0.001097602               0.999999984              -0.000060592               0.001092997               0.999999984               0.000365197               0.001221052               0.999999984               0.000258671               0.001159600               0.999999984               0.000219645               0.001129174               0.999999984               0.000205925               0.001119762               0.999999984               0.000201923               0.001123403               0.999999984               0.000200622               0.001134937               0.999999984               0.000198869               0.001150978               0.999999984               0.000194848               0.001169164               0.999999984               0.000187035               0.001187441               0.999999984               0.000174005               0.001204480               0.999999984               0.000154913               0.001219338               0.999999984               0.000129236               0.001231624               0.999999984               0.000096849               0.001241133               0.999999984               0.000057563               0.001247976               0.999999984               0.000012067               0.001252681               0.999999984              -0.000038666               0.001255870               0.999999984              -0.000093264               0.001258357               0.999999984               0.000296531               0.001283902               0.999999984               0.000203568               0.001249798               0.999999984               0.000166346               0.001229637               0.999999984               0.000151785               0.001223734               0.999999984               0.000146524               0.001228590               0.999999984               0.000144433               0.001240866               0.999999984               0.000142634               0.001257903               0.999999984               0.000139516               0.001277772               0.999999984               0.000133628               0.001299072               0.999999984               0.000123739               0.001320442               0.999999984               0.000108972               0.001340875               0.999999984               0.000088411               0.001359553               0.999999984               0.000061551               0.001376163               0.999999984               0.000027755               0.001390520               0.999999984              -0.000013534               0.001402758               0.999999984              -0.000062006               0.001413162               0.999999984              -0.000116985               0.001422560               0.999999984               0.000225008               0.001333838               0.999999984               0.000150836               0.001324712               0.999999984               0.000118738               0.001316262               0.999999984               0.000104906               0.001316032               0.999999984               0.000099136               0.001323904               0.999999984               0.000096643               0.001338151               0.999999984               0.000094738               0.001357113               0.999999984               0.000092062               0.001379293               0.999999984               0.000087577               0.001403629               0.999999984               0.000080418               0.001429121               0.999999984               0.000069557               0.001454796               0.999999984               0.000054128               0.001479735               0.999999984               0.000033340               0.001503408               0.999999984               0.000006094               0.001525386               0.999999984              -0.000028645               0.001545506               0.999999984              -0.000071789               0.001563701               0.999999984              -0.000124138               0.001580361               0.999999984               0.000151297               0.001370079               0.999999984               0.000099765               0.001380928               0.999999984               0.000076049               0.001383361               0.999999984               0.000065114               0.001389180               0.999999984               0.000060183               0.001400740               0.999999984               0.000057813               0.001417692               0.999999984               0.000056041               0.001439061               0.999999984               0.000053910               0.001463864               0.999999984               0.000050792               0.001491214               0.999999984               0.000046001               0.001520356               0.999999984               0.000038813               0.001550506               0.999999984               0.000028491               0.001581012               0.999999984               0.000014057               0.001611286               0.999999984              -0.000005414               0.001640654               0.999999984              -0.000031028               0.001668771               0.999999984              -0.000064170               0.001695153               0.999999984              -0.000106983               0.001719271               0.999999984               0.000076054               0.001392083               0.999999984               0.000049663               0.001415785               0.999999984               0.000037040               0.001425901               0.999999984               0.000030986               0.001436397               0.999999984               0.000028142               0.001451008               0.999999984               0.000026654               0.001470348               0.999999984               0.000025533               0.001493878               0.999999984               0.000024356               0.001520850               0.999999984               0.000022686               0.001550511               0.999999984               0.000020201               0.001582312               0.999999984               0.000016569               0.001615729               0.999999984               0.000011366               0.001650195               0.999999984               0.000003881               0.001685101               0.999999984              -0.000006426               0.001719840               0.999999984              -0.000020080               0.001753889               0.999999984              -0.000038184               0.001786448               0.999999984              -0.000062460               0.001816457               0.999999984               0.000000000               0.001399470               0.999999984              -0.000000000               0.001427583               0.999999984               0.000000000               0.001440440               0.999999984              -0.000000000               0.001452689               0.999999984               0.000000000               0.001468476               0.999999984              -0.000000000               0.001488775               0.999999984               0.000000000               0.001513121               0.999999984               0.000000000               0.001540868               0.999999984               0.000000000               0.001571468               0.999999984              -0.000000000               0.001604371               0.999999984              -0.000000000               0.001639007               0.999999984               0.000000000               0.001674949               0.999999984              -0.000000000               0.001711601               0.999999984              -0.000000000               0.001748177               0.999999984               0.000000000               0.001784214               0.999999984              -0.000000000               0.001818993               0.999999984              -0.000000000               0.001851270               0.999999984 </DataArray>
<DataArray type="Float64"                                    Name="defo"                                                      NumberOfComponents=" 3" format="ascii">
             -0.000801247              -0.000000000               0.999999984              -0.000852942               0.000000000               0.999999984              -0.000875259               0.000000000               0.999999984              -0.000887701              -0.000000000               0.999999984              -0.000897468              -0.000000000               0.999999984              -0.000907157              -0.000000000               0.999999984              -0.000917806               0.000000000               0.999999984              -0.000929612              -0.000000000               0.999999984              -0.000942658              -0.000000000               0.999999984              -0.000956693              -0.000000000               0.999999984              -0.000971474               0.000000000               0.999999984              -0.000986737               0.000000000               0.999999984              -0.001002015              -0.000000000               0.999999984              -0.001016848              -0.000000000               0.999999984              -0.001030585               0.000000000               0.999999984              -0.001042375               0.000000000               0.999999984              -0.001051215               0.000000000               0.999999984              -0.000796874               0.000133849               0.999999984              -0.000844476               0.000107983               0.999999984              -0.000864189               0.000096227               0.999999984              -0.000875000               0.000091705               0.999999984              -0.000883748               0.000090552               0.999999984              -0.000892708               0.000091298               0.999999984              -0.000902617               0.000092827               0.999999984              -0.000913823               0.000094869               0.999999984              -0.000926218               0.000096852               0.999999984              -0.000939527               0.000098313               0.999999984              -0.000953381               0.000098971               0.999999984              -0.000967300               0.000098425               0.999999984              -0.000980859               0.000096224               0.999999984              -0.000993562               0.000091808               0.999999984              -0.001004843               0.000084215               0.999999984              -0.001014034               0.000072722               0.999999984              -0.001020454               0.000056410               0.999999984              -0.000783623               0.000266469               0.999999984              -0.000819431               0.000215418               0.999999984              -0.000832031               0.000193251               0.999999984              -0.000838503               0.000185169               0.999999984              -0.000844356               0.000183819               0.999999984              -0.000851259               0.000185698               0.999999984              -0.000859507               0.000189320               0.999999984              -0.000869071               0.000193757               0.999999984              -0.000879595               0.000197832               0.999999984              -0.000890581               0.000200644               0.999999984              -0.000901456               0.000201641               0.999999984              -0.000911707               0.000200142               0.999999984              -0.000920679               0.000195424               0.999999984              -0.000927889               0.000186554               0.999999984              -0.000933074               0.000172378               0.999999984              -0.000935875               0.000151760               0.999999984              -0.000936089               0.000123539               0.999999984              -0.000761877               0.000396546               0.999999984              -0.000779254               0.000321966               0.999999984              -0.000781501               0.000291671               0.999999984              -0.000782089               0.000281819               0.999999984              -0.000784278               0.000281388               0.999999984              -0.000788478               0.000285472               0.999999984              -0.000794501               0.000291822               0.999999984              -0.000801735               0.000298910               0.999999984              -0.000809471               0.000304986               0.999999984              -0.000816801               0.000308732               0.999999984              -0.000822881               0.000309571               0.999999984              -0.000827084               0.000306659               0.999999984              -0.000828989               0.000299269               0.999999984              -0.000828289               0.000286569               0.999999984              -0.000824933               0.000267496               0.999999984              -0.000819110               0.000241416               0.999999984              -0.000811100               0.000207598               0.999999984              -0.000732231               0.000522857               0.999999984              -0.000726033               0.000427436               0.999999984              -0.000716646               0.000391816               0.999999984              -0.000711389               0.000382159               0.999999984              -0.000710222               0.000383842               0.999999984              -0.000712032               0.000390896               0.999999984              -0.000715872               0.000400156               0.999999984              -0.000720356               0.000409732               0.999999984              -0.000724196               0.000417378               0.999999984              -0.000726455               0.000421583               0.999999984              -0.000726348               0.000421661               0.999999984              -0.000723385               0.000416952               0.999999984              -0.000717250               0.000406925               0.999999984              -0.000707924               0.000391112               0.999999984              -0.000695690               0.000369042               0.999999984              -0.000680932               0.000340787               0.999999984              -0.000664384               0.000306724               0.999999984              -0.000695070               0.000644377               0.999999984              -0.000662401               0.000531836               0.999999984              -0.000642325               0.000493632               0.999999984              -0.000632507               0.000485660               0.999999984              -0.000629145               0.000490353               0.999999984              -0.000629431               0.000500490               0.999999984              -0.000631076               0.000512478               0.999999984              -0.000632336               0.000523925               0.999999984              -0.000631793               0.000532388               0.999999984              -0.000628298               0.000536336               0.999999984              -0.000621320               0.000535250               0.999999984              -0.000610543               0.000528670               0.999999984              -0.000595959               0.000516387               0.999999984              -0.000577898               0.000498383               0.999999984              -0.000556781               0.000474789               0.999999984              -0.000533279               0.000446460               0.999999984              -0.000508218               0.000414600               0.999999984              -0.000651251               0.000759895               0.999999984              -0.000591521               0.000635111               0.999999984              -0.000563136               0.000596776               0.999999984              -0.000551184               0.000591219               0.999999984              -0.000547242               0.000598973               0.999999984              -0.000546601               0.000611965               0.999999984              -0.000546348               0.000625941               0.999999984              -0.000544269               0.000638394               0.999999984              -0.000538717               0.000646840               0.999999984              -0.000528745               0.000650012               0.999999984              -0.000514063               0.000647619               0.999999984              -0.000494688               0.000639410               0.999999984              -0.000470942               0.000625691               0.999999984              -0.000443416               0.000606698               0.999999984              -0.000412887               0.000583193               0.999999984              -0.000380218               0.000556555               0.999999984              -0.000346285               0.000528017               0.999999984              -0.000601542               0.000868212               0.999999984              -0.000516709               0.000737086               0.999999984              -0.000483751               0.000700159               0.999999984              -0.000472290               0.000697072               0.999999984              -0.000469049               0.000707380               0.999999984              -0.000468137               0.000722376               0.999999984              -0.000465858               0.000737526               0.999999984              -0.000459758               0.000750357               0.999999984              -0.000448353               0.000758268               0.999999984              -0.000431044               0.000760400               0.999999984              -0.000407628               0.000756884               0.999999984              -0.000378620               0.000747599               0.999999984              -0.000344746               0.000733124               0.999999984              -0.000307006               0.000714380               0.999999984              -0.000266450               0.000692410               0.999999984              -0.000224222               0.000668571               0.999999984              -0.000181191               0.000643942               0.999999984              -0.000547519               0.000967343               0.999999984              -0.000440710               0.000837640               0.999999984              -0.000408324               0.000802262               0.999999984              -0.000399195               0.000800915               0.999999984              -0.000397440               0.000813101               0.999999984              -0.000396059               0.000829526               0.999999984              -0.000391111               0.000845492               0.999999984              -0.000380419               0.000858053               0.999999984              -0.000362294               0.000865137               0.999999984              -0.000336291               0.000866312               0.999999984              -0.000302882               0.000861775               0.999999984              -0.000263041               0.000851851               0.999999984              -0.000218021               0.000837522               0.999999984              -0.000169337               0.000820156               0.999999984              -0.000118473               0.000800879               0.999999984              -0.000066676               0.000780815               0.999999984              -0.000014748               0.000760646               0.999999984              -0.000491624               0.001061021               0.999999984              -0.000377239               0.000949786               0.999999984              -0.000341904               0.000910233               0.999999984              -0.000331825               0.000903296               0.999999984              -0.000329878               0.000911221               0.999999984              -0.000329054               0.000925474               0.999999984              -0.000325862               0.000941327               0.999999984              -0.000318186               0.000955980               0.999999984              -0.000304167               0.000967468               0.999999984              -0.000282864               0.000974691               0.999999984              -0.000254322               0.000977486               0.999999984              -0.000218884               0.000975888               0.999999984              -0.000177321               0.000970436               0.999999984              -0.000130882               0.000961800               0.999999984              -0.000080951               0.000951134               0.999999984              -0.000028947               0.000939263               0.999999984               0.000023705               0.000927031               0.999999984              -0.000430417               0.001146310               0.999999984              -0.000316551               0.001058210               0.999999984              -0.000278487               0.001020871               0.999999984              -0.000266573               0.001010971               0.999999984              -0.000263819               0.001015789               0.999999984              -0.000263057               0.001028199               0.999999984              -0.000260845               0.001044025               0.999999984              -0.000255398               0.001060466               0.999999984              -0.000244883               0.001075503               0.999999984              -0.000228073               0.001087821               0.999999984              -0.000204332               0.001096939               0.999999984              -0.000173738               0.001102602               0.999999984              -0.000136306               0.001104962               0.999999984              -0.000092893               0.001104364               0.999999984              -0.000044667               0.001101592               0.999999984               0.000007044               0.001097602               0.999999984               0.000060592               0.001092997               0.999999984              -0.000365197               0.001221052               0.999999984              -0.000258671               0.001159600               0.999999984              -0.000219645               0.001129174               0.999999984              -0.000205925               0.001119762               0.999999984              -0.000201923               0.001123403               0.999999984              -0.000200622               0.001134937               0.999999984              -0.000198869               0.001150978               0.999999984              -0.000194848               0.001169164               0.999999984              -0.000187035               0.001187441               0.999999984              -0.000174005               0.001204480               0.999999984              -0.000154913               0.001219338               0.999999984              -0.000129236               0.001231624               0.999999984              -0.000096849               0.001241133               0.999999984              -0.000057563               0.001247976               0.999999984              -0.000012067               0.001252681               0.999999984               0.000038666               0.001255870               0.999999984               0.000093264               0.001258357               0.999999984              -0.000296531               0.001283902               0.999999984              -0.000203568               0.001249798               0.999999984              -0.000166346               0.001229637               0.999999984              -0.000151785               0.001223734               0.999999984              -0.000146524               0.001228590               0.999999984              -0.000144433               0.001240866               0.999999984              -0.000142634               0.001257903               0.999999984              -0.000139516               0.001277772               0.999999984              -0.000133628               0.001299072               0.999999984              -0.000123739               0.001320442               0.999999984              -0.000108972               0.001340875               0.999999984              -0.000088411               0.001359553               0.999999984              -0.000061551               0.001376163               0.999999984              -0.000027755               0.001390520               0.999999984               0.000013534               0.001402758               0.999999984               0.000062006               0.001413162               0.999999984               0.000116985               0.001422560               0.999999984              -0.000225008               0.001333838               0.999999984              -0.000150836               0.001324712               0.999999984              -0.000118738               0.001316262               0.999999984              -0.000104906               0.001316032               0.999999984              -0.000099136               0.001323904               0.999999984              -0.000096643               0.001338151               0.999999984              -0.000094738               0.001357113               0.999999984              -0.000092062               0.001379293               0.999999984              -0.000087577               0.001403629               0.999999984              -0.000080418               0.001429121               0.999999984              -0.000069557               0.001454796               0.999999984              -0.000054128               0.001479735               0.999999984              -0.000033340               0.001503408               0.999999984              -0.000006094               0.001525386               0.999999984               0.000028645               0.001545506               0.999999984               0.000071789               0.001563701               0.999999984               0.000124138               0.001580361               0.999999984              -0.000151297               0.001370079               0.999999984              -0.000099765               0.001380928               0.999999984              -0.000076049               0.001383361               0.999999984              -0.000065114               0.001389180               0.999999984              -0.000060183               0.001400740               0.999999984              -0.000057813               0.001417692               0.999999984              -0.000056041               0.001439061               0.999999984              -0.000053910               0.001463864               0.999999984              -0.000050792               0.001491214               0.999999984              -0.000046001               0.001520356               0.999999984              -0.000038813               0.001550506               0.999999984              -0.000028491               0.001581012               0.999999984              -0.000014057               0.001611286               0.999999984               0.000005414               0.001640654               0.999999984               0.000031028               0.001668771               0.999999984               0.000064170               0.001695153               0.999999984               0.000106983               0.001719271               0.999999984              -0.000076054               0.001392083               0.999999984              -0.000049663               0.001415785               0.999999984              -0.000037040               0.001425901               0.999999984              -0.000030986               0.001436397               0.999999984              -0.000028142               0.001451008               0.999999984              -0.000026654               0.001470348               0.999999984              -0.000025533               0.001493878               0.999999984              -0.000024356               0.001520850               0.999999984              -0.000022686               0.001550511               0.999999984              -0.000020201               0.001582312               0.999999984              -0.000016569               0.001615729               0.999999984              -0.000011366               0.001650195               0.999999984              -0.000003881               0.001685101               0.999999984               0.000006426               0.001719840               0.999999984               0.000020080               0.001753889               0.999999984               0.000038184               0.001786448               0.999999984               0.000062460               0.001816457               0.999999984               0.000000000               0.001399470               0.999999984              -0.000000000               0.001427583               0.999999984               0.000000000               0.001440440               0.999999984              -0.000000000               0.001452689               0.999999984               0.000000000               0.001468476               0.999999984              -0.000000000               0.001488775               0.999999984               0.000000000               0.001513121               0.999999984               0.000000000               0.001540868               0.999999984               0.000000000               0.001571468               0.999999984              -0.000000000               0.001604371               0.999999984              -0.000000000               0.001639007               0.999999984               0.000000000               0.001674949               0.999999984              -0.000000000               0.001711601               0.999999984              -0.000000000               0.001748177               0.999999984               0.000000000               0.001784214               0.999999984              -0.000000000               0.001818993               0.999999984              -0.000000000               0.001851270               0.999999984              -0.000801247              -0.000000000               0.999999984              -0.000852942               0.000000000               0.999999984              -0.000875259               0.000000000               0.999999984              -0.000887701              -0.000000000               0.999999984              -0.000897468              -0.000000000               0.999999984              -0.000907157              -0.000000000               0.999999984              -0.000917806               0.000000000               0.999999984              -0.000929612              -0.000000000               0.999999984              -0.000942658              -0.000000000               0.999999984              -0.000956693              -0.000000000               0.999999984              -0.000971474               0.000000000               0.999999984              -0.000986737               0.000000000               0.999999984              -0.001002015              -0.000000000               0.999999984              -0.001016848              -0.000000000               0.999999984              -0.001030585               0.000000000               0.999999984              -0.001042375               0.000000000               0.999999984              -0.001051215               0.000000000               0.999999984              -0.000796874              -0.000133849               0.999999984              -0.000844476              -0.000107983               0.999999984              -0.000864189              -0.000096227               0.999999984              -0.000875000              -0.000091705               0.999999984              -0.000883748              -0.000090552               0.999999984              -0.000892708              -0.000091298               0.999999984              -0.000902617              -0.000092827               0.999999984              -0.000913823              -0.000094869               0.999999984              -0.000926218              -0.000096852               0.999999984              -0.000939527              -0.000098313               0.999999984              -0.000953381              -0.000098971               0.999999984              -0.000967300              -0.000098425               0.999999984              -0.000980859              -0.000096224               0.999999984              -0.000993562              -0.000091808               0.999999984              -0.001004843              -0.000084215               0.999999984              -0.001014034              -0.000072722               0.999999984              -0.001020454              -0.000056410               0.999999984              -0.000783623              -0.000266469               0.999999984              -0.000819431              -0.000215418               0.999999984              -0.000832031              -0.000193251               0.999999984              -0.000838503              -0.000185169               0.999999984              -0.000844356              -0.000183819               0.999999984              -0.000851259              -0.000185698               0.999999984              -0.000859507              -0.000189320               0.999999984              -0.000869071              -0.000193757               0.999999984              -0.000879595              -0.000197832               0.999999984              -0.000890581              -0.000200644               0.999999984              -0.000901456              -0.000201641               0.999999984              -0.000911707              -0.000200142               0.999999984              -0.000920679              -0.000195424               0.999999984              -0.000927889              -0.000186554               0.999999984              -0.000933074              -0.000172378               0.999999984              -0.000935875              -0.000151760               0.999999984              -0.000936089              -0.000123539               0.999999984              -0.000761877              -0.000396546               0.999999984              -0.000779254              -0.000321966               0.999999984              -0.000781501              -0.000291671               0.999999984              -0.000782089              -0.000281819               0.999999984              -0.000784278              -0.000281388               0.999999984              -0.000788478              -0.000285472               0.999999984              -0.000794501              -0.000291822               0.999999984              -0.000801735              -0.000298910               0.999999984              -0.000809471              -0.000304986               0.999999984              -0.000816801              -0.000308732               0.999999984              -0.000822881              -0.000309571               0.999999984              -0.000827084              -0.000306659               0.999999984              -0.000828989              -0.000299269               0.999999984              -0.000828289              -0.000286569               0.999999984              -0.000824933              -0.000267496               0.999999984              -0.000819110              -0.000241416               0.999999984              -0.000811100              -0.000207598               0.999999984              -0.000732231              -0.000522857               0.999999984              -0.000726033              -0.000427436               0.999999984              -0.000716646              -0.000391816               0.999999984              -0.000711389              -0.000382159               0.999999984              -0.000710222              -0.000383842               0.999999984              -0.000712032              -0.000390896               0.999999984              -0.000715872              -0.000400156               0.999999984              -0.000720356              -0.000409732               0.999999984              -0.000724196              -0.000417378               0.999999984              -0.000726455              -0.000421583               0.999999984              -0.000726348              -0.000421661               0.999999984              -0.000723385              -0.000416952               0.999999984              -0.000717250              -0.000406925               0.999999984              -0.000707924              -0.000391112               0.999999984              -0.000695690              -0.000369042               0.999999984              -0.000680932              -0.000340787               0.999999984              -0.000664384              -0.000306724               0.999999984              -0.000695070              -0.000644377               0.999999984              -0.000662401              -0.000531836               0.999999984              -0.000642325              -0.000493632               0.999999984              -0.000632507              -0.000485660               0.999999984              -0.000629145              -0.000490353               0.999999984              -0.000629431              -0.000500490               0.999999984              -0.000631076              -0.000512478               0.999999984              -0.000632336              -0.000523925               0.999999984              -0.000631793              -0.000532388               0.999999984              -0.000628298              -0.000536336               0.999999984              -0.000621320              -0.000535250               0.999999984              -0.000610543              -0.000528670               0.999999984              -0.000595959              -0.000516387               0.999999984              -0.000577898              -0.000498383               0.999999984              -0.000556781              -0.000474789               0.999999984              -0.000533279              -0.000446460               0.999999984              -0.000508218              -0.000414600               0.999999984              -0.000651251              -0.000759895               0.999999984              -0.000591521              -0.000635111               0.999999984              -0.000563136              -0.000596776               0.999999984              -0.000551184              -0.000591219               0.999999984              -0.000547242              -0.000598973               0.999999984              -0.000546601              -0.000611965               0.999999984              -0.000546348              -0.000625941               0.999999984              -0.000544269              -0.000638394               0.999999984              -0.000538717              -0.000646840               0.999999984              -0.000528745              -0.000650012               0.999999984              -0.000514063              -0.000647619               0.999999984              -0.000494688              -0.000639410               0.999999984              -0.000470942              -0.000625691               0.999999984              -0.000443416              -0.000606698               0.999999984              -0.000412887              -0.000583193               0.999999984              -0.000380218              -0.000556555               0.999999984              -0.000346285              -0.000528017               0.999999984              -0.000601542              -0.000868212               0.999999984              -0.000516709              -0.000737086               0.999999984              -0.000483751              -0.000700159               0.999999984              -0.000472290              -0.000697072               0.999999984              -0.000469049              -0.000707380               0.999999984              -0.000468137              -0.000722376               0.999999984              -0.000465858              -0.000737526               0.999999984              -0.000459758              -0.000750357               0.999999984              -0.000448353              -0.000758268               0.999999984              -0.000431044              -0.000760400               0.999999984              -0.000407628              -0.000756884               0.999999984              -0.000378620              -0.000747599               0.999999984              -0.000344746              -0.000733124               0.999999984              -0.000307006              -0.000714380               0.999999984              -0.000266450              -0.000692410               0.999999984              -0.000224222              -0.000668571               0.999999984              -0.000181191              -0.000643942               0.999999984              -0.000547519              -0.000967343               0.999999984              -0.000440710              -0.000837640               0.999999984              -0.000408324              -0.000802262               0.999999984              -0.000399195              -0.000800915               0.999999984              -0.000397440              -0.000813101               0.999999984              -0.000396059              -0.000829526               0.999999984              -0.000391111              -0.000845492               0.999999984              -0.000380419              -0.000858053               0.999999984              -0.000362294              -0.000865137               0.999999984              -0.000336291              -0.000866312               0.999999984              -0.000302882              -0.000861775               0.999999984              -0.000263041              -0.000851851               0.999999984              -0.000218021              -0.000837522               0.999999984              -0.000169337              -0.000820156               0.999999984              -0.000118473              -0.000800879               0.999999984              -0.000066676              -0.000780815               0.999999984              -0.000014748              -0.000760646               0.999999984              -0.000491624              -0.001061021               0.999999984              -0.000377239              -0.000949786               0.999999984              -0.000341904              -0.000910233               0.999999984              -0.000331825              -0.000903296               0.999999984              -0.000329878              -0.000911221               0.999999984              -0.000329054              -0.000925474               0.999999984              -0.000325862              -0.000941327               0.999999984              -0.000318186              -0.000955980               0.999999984              -0.000304167              -0.000967468               0.999999984              -0.000282864              -0.000974691               0.999999984              -0.000254322              -0.000977486               0.999999984              -0.000218884              -0.000975888               0.999999984              -0.000177321              -0.000970436               0.999999984              -0.000130882              -0.000961800               0.999999984              -0.000080951              -0.000951134               0.999999984              -0.000028947              -0.000939263               0.999999984               0.000023705              -0.000927031               0.999999984              -0.000430417              -0.001146310               0.999999984              -0.000316551              -0.001058210               0.999999984              -0.000278487              -0.001020871               0.999999984              -0.000266573              -0.001010971               0.999999984              -0.000263819              -0.001015789               0.999999984              -0.000263057              -0.001028199               0.999999984              -0.000260845              -0.001044025               0.999999984              -0.000255398              -0.001060466               0.999999984              -0.000244883              -0.001075503               0.999999984              -0.000228073              -0.001087821               0.999999984              -0.000204332              -0.001096939               0.999999984              -0.000173738              -0.001102602               0.999999984              -0.000136306              -0.001104962               0.999999984              -0.000092893              -0.001104364               0.999999984              -0.000044667              -0.001101592               0.999999984               0.000007044              -0.001097602               0.999999984               0.000060592              -0.001092997               0.999999984              -0.000365197              -0.001221052               0.999999984              -0.000258671              -0.001159600               0.999999984              -0.000219645              -0.001129174               0.999999984              -0.000205925              -0.001119762               0.999999984              -0.000201923              -0.001123403               0.999999984              -0.000200622              -0.001134937               0.999999984              -0.000198869              -0.001150978               0.999999984              -0.000194848              -0.001169164               0.999999984              -0.000187035              -0.001187441               0.999999984              -0.000174005              -0.001204480               0.999999984              -0.000154913              -0.001219338               0.999999984              -0.000129236              -0.001231624               0.999999984              -0.000096849              -0.001241133               0.999999984              -0.000057563              -0.001247976               0.999999984              -0.000012067              -0.001252681               0.999999984               0.000038666              -0.001255870               0.999999984               0.000093264              -0.001258357               0.999999984              -0.000296531              -0.001283902               0.999999984              -0.000203568              -0.001249798               0.999999984              -0.000166346              -0.001229637               0.999999984              -0.000151785              -0.001223734               0.999999984              -0.000146524              -0.001228590               0.999999984              -0.000144433              -0.001240866               0.999999984              -0.000142634              -0.001257903               0.999999984              -0.000139516              -0.001277772               0.999999984              -0.000133628              -0.001299072               0.999999984              -0.000123739              -0.001320442               0.999999984              -0.000108972              -0.001340875               0.999999984              -0.000088411              -0.001359553               0.999999984              -0.000061551              -0.001376163               0.999999984              -0.000027755              -0.001390520               0.999999984               0.000013534              -0.001402758               0.999999984               0.000062006              -0.001413162               0.999999984               0.000116985              -0.001422560               0.999999984              -0.000225008              -0.001333838               0.999999984              -0.000150836              -0.001324712               0.999999984              -0.000118738              -0.001316262               0.999999984              -0.000104906              -0.001316032               0.999999984              -0.000099136              -0.001323904               0.999999984              -0.000096643              -0.001338151               0.999999984              -0.000094738              -0.001357113               0.999999984              -0.000092062              -0.001379293               0.999999984              -0.000087577              -0.001403629               0.999999984              -0.000080418              -0.001429121               0.999999984              -0.000069557              -0.001454796               0.999999984              -0.000054128              -0.001479735               0.999999984              -0.000033340              -0.001503408               0.999999984              -0.000006094              -0.001525386               0.999999984               0.000028645              -0.001545506               0.999999984               0.000071789              -0.001563701               0.999999984               0.000124138              -0.001580361               0.999999984              -0.000151297              -0.001370079               0.999999984              -0.000099765              -0.001380928               0.999999984              -0.000076049              -0.001383361               0.999999984              -0.000065114              -0.001389180               0.999999984              -0.000060183              -0.001400740               0.999999984              -0.000057813              -0.001417692               0.999999984              -0.000056041              -0.001439061               0.999999984              -0.000053910              -0.001463864               0.999999984              -0.000050792              -0.001491214               0.999999984              -0.000046001              -0.001520356               0.999999984              -0.000038813              -0.001550506               0.999999984              -0.000028491              -0.001581012               0.999999984              -0.000014057              -0.001611286               0.999999984               0.000005414              -0.001640654               0.999999984               0.000031028              -0.001668771               0.999999984               0.000064170              -0.001695153               0.999999984               0.000106983              -0.001719271               0.999999984              -0.000076054              -0.001392083               0.999999984              -0.000049663              -0.001415785               0.999999984              -0.000037040              -0.001425901               0.999999984              -0.000030986              -0.001436397               0.999999984              -0.000028142              -0.001451008               0.999999984              -0.000026654              -0.001470348               0.999999984              -0.000025533              -0.001493878               0.999999984              -0.000024356              -0.001520850               0.999999984              -0.000022686              -0.001550511               0.999999984              -0.000020201              -0.001582312               0.999999984              -0.000016569              -0.001615729               0.999999984              -0.000011366              -0.001650195               0.999999984              -0.000003881              -0.001685101               0.999999984               0.000006426              -0.001719840               0.999999984               0.000020080              -0.001753889               0.999999984               0.000038184              -0.001786448               0.999999984               0.000062460              -0.001816457               0.999999984               0.000000000              -0.001399470               0.999999984              -0.000000000              -0.001427583               0.999999984               0.000000000              -0.001440440               0.999999984               0.000000000              -0.001452689               0.999999984              -0.000000000              -0.001468476               0.999999984               0.000000000              -0.001488775               0.999999984              -0.000000000              -0.001513121               0.999999984               0.000000000              -0.001540868               0.999999984              -0.000000000              -0.001571468               0.999999984              -0.000000000              -0.001604371               0.999999984               0.000000000              -0.001639007               0.999999984               0.000000000              -0.001674949               0.999999984               0.000000000              -0.001711601               0.999999984              -0.000000000              -0.001748177               0.999999984               0.000000000              -0.001784214               0.999999984              -0.000000000              -0.001818993               0.999999984              -0.000000000              -0.001851270               0.999999984               0.000801247              -0.000000000               0.999999984               0.000852942              -0.000000000               0.999999984               0.000875259               0.000000000               0.999999984               0.000887701               0.000000000               0.999999984               0.000897468              -0.000000000               0.999999984               0.000907157              -0.000000000               0.999999984               0.000917806              -0.000000000               0.999999984               0.000929612               0.000000000               0.999999984               0.000942658               0.000000000               0.999999984               0.000956693               0.000000000               0.999999984               0.000971474               0.000000000               0.999999984               0.000986737              -0.000000000               0.999999984               0.001002015               0.000000000               0.999999984               0.001016848              -0.000000000               0.999999984               0.001030585               0.000000000               0.999999984               0.001042375               0.000000000               0.999999984               0.001051215               0.000000000               0.999999984               0.000796874              -0.000133849               0.999999984               0.000844476              -0.000107983               0.999999984               0.000864189              -0.000096227               0.999999984               0.000875000              -0.000091705               0.999999984               0.000883748              -0.000090552               0.999999984               0.000892708              -0.000091298               0.999999984               0.000902617              -0.000092827               0.999999984               0.000913823              -0.000094869               0.999999984               0.000926218              -0.000096852               0.999999984               0.000939527              -0.000098313               0.999999984               0.000953381              -0.000098971               0.999999984               0.000967300              -0.000098425               0.999999984               0.000980859              -0.000096224               0.999999984               0.000993562              -0.000091808               0.999999984               0.001004843              -0.000084215               0.999999984               0.001014034              -0.000072722               0.999999984               0.001020454              -0.000056410               0.999999984               0.000783623              -0.000266469               0.999999984               0.000819431              -0.000215418               0.999999984               0.000832031              -0.000193251               0.999999984               0.000838503              -0.000185169               0.999999984               0.000844356              -0.000183819               0.999999984               0.000851259              -0.000185698               0.999999984               0.000859507              -0.000189320               0.999999984               0.000869071              -0.000193757               0.999999984               0.000879595              -0.000197832               0.999999984               0.000890581              -0.000200644               0.999999984               0.000901456              -0.000201641               0.999999984               0.000911707              -0.000200142               0.999999984               0.000920679              -0.000195424               0.999999984               0.000927889              -0.000186554               0.999999984               0.000933074              -0.000172378               0.999999984               0.000935875              -0.000151760               0.999999984               0.000936089              -0.000123539               0.999999984               0.000761877              -0.000396546               0.999999984               0.000779254              -0.000321966               0.999999984               0.000781501              -0.000291671               0.999999984               0.000782089              -0.000281819               0.999999984               0.000784278              -0.000281388               0.999999984               0.000788478              -0.000285472               0.999999984               0.000794501              -0.000291822               0.999999984               0.000801735              -0.000298910               0.999999984               0.000809471              -0.000304986               0.999999984               0.000816801              -0.000308732               0.999999984               0.000822881              -0.000309571               0.999999984               0.000827084              -0.000306659               0.999999984               0.000828989              -0.000299269               0.999999984               0.000828289              -0.000286569               0.999999984               0.000824933              -0.000267496               0.999999984               0.000819110              -0.000241416               0.999999984               0.000811100              -0.000207598               0.999999984               0.000732231              -0.000522857               0.999999984               0.000726033              -0.000427436               0.999999984               0.000716646              -0.000391816               0.999999984               0.000711389              -0.000382159               0.999999984               0.000710222              -0.000383842               0.999999984               0.000712032              -0.000390896               0.999999984               0.000715872              -0.000400156               0.999999984               0.000720356              -0.000409732               0.999999984               0.000724196              -0.000417378               0.999999984               0.000726455              -0.000421583               0.999999984               0.000726348              -0.000421661               0.999999984               0.000723385              -0.000416952               0.999999984               0.000717250              -0.000406925               0.999999984               0.000707924              -0.000391112               0.999999984               0.000695690              -0.000369042               0.999999984               0.000680932              -0.000340787               0.999999984               0.000664384              -0.000306724               0.999999984               0.000695070              -0.000644377               0.999999984               0.000662401              -0.000531836               0.999999984               0.000642325              -0.000493632               0.999999984               0.000632507              -0.000485660               0.999999984               0.000629145              -0.000490353               0.999999984               0.000629431              -0.000500490               0.999999984               0.000631076              -0.000512478               0.999999984               0.000632336              -0.000523925               0.999999984               0.000631793              -0.000532388               0.999999984               0.000628298              -0.000536336               0.999999984               0.000621320              -0.000535250               0.999999984               0.000610543              -0.000528670               0.999999984               0.000595959              -0.000516387               0.999999984               0.000577898              -0.000498383               0.999999984               0.000556781              -0.000474789               0.999999984               0.000533279              -0.000446460               0.999999984               0.000508218              -0.000414600               0.999999984               0.000651251              -0.000759895               0.999999984               0.000591521              -0.000635111               0.999999984               0.000563136              -0.000596776               0.999999984               0.000551184              -0.000591219               0.999999984               0.000547242              -0.000598973               0.999999984               0.000546601              -0.000611965               0.999999984               0.000546348              -0.000625941               0.999999984               0.000544269              -0.000638394               0.999999984               0.000538717              -0.000646840               0.999999984               0.000528745              -0.000650012               0.999999984               0.000514063              -0.000647619               0.999999984               0.000494688              -0.000639410               0.999999984               0.000470942              -0.000625691               0.999999984               0.000443416              -0.000606698               0.999999984               0.000412887              -0.000583193               0.999999984               0.000380218              -0.000556555               0.999999984               0.000346285              -0.000528017               0.999999984               0.000601542              -0.000868212               0.999999984               0.000516709              -0.000737086               0.999999984               0.000483751              -0.000700159               0.999999984               0.000472290              -0.000697072               0.999999984               0.000469049              -0.000707380               0.999999984               0.000468137              -0.000722376               0.999999984               0.000465858              -0.000737526               0.999999984               0.000459758              -0.000750357               0.999999984               0.000448353              -0.000758268               0.999999984               0.000431044              -0.000760400               0.999999984               0.000407628              -0.000756884               0.999999984               0.000378620              -0.000747599               0.999999984               0.000344746              -0.000733124               0.999999984               0.000307006              -0.000714380               0.999999984               0.000266450              -0.000692410               0.999999984               0.000224222              -0.000668571               0.999999984               0.000181191              -0.000643942               0.999999984               0.000547519              -0.000967343               0.999999984               0.000440710              -0.000837640               0.999999984               0.000408324              -0.000802262               0.999999984               0.000399195              -0.000800915               0.999999984               0.000397440              -0.000813101               0.999999984               0.000396059              -0.000829526               0.999999984               0.000391111              -0.000845492               0.999999984               0.000380419              -0.000858053               0.999999984               0.000362294              -0.000865137               0.999999984               0.000336291              -0.000866312               0.999999984               0.000302882              -0.000861775               0.999999984               0.000263041              -0.000851851               0.999999984               0.000218021              -0.000837522               0.999999984               0.000169337              -0.000820156               0.999999984               0.000118473              -0.000800879               0.999999984               0.000066676              -0.000780815               0.999999984               0.000014748              -0.000760646               0.999999984               0.000491624              -0.001061021               0.999999984               0.000377239              -0.000949786               0.999999984               0.000341904              -0.000910233               0.999999984               0.000331825              -0.000903296               0.999999984               0.000329878              -0.000911221               0.999999984               0.000329054              -0.000925474               0.999999984               0.000325862              -0.000941327               0.999999984               0.000318186              -0.000955980               0.999999984               0.000304167              -0.000967468               0.999999984               0.000282864              -0.000974691               0.999999984               0.000254322              -0.000977486               0.999999984               0.000218884              -0.000975888               0.999999984               0.000177321              -0.000970436               0.999999984               0.000130882              -0.000961800               0.999999984               0.000080951              -0.000951134               0.999999984               0.000028947              -0.000939263               0.999999984              -0.000023705              -0.000927031               0.999999984               0.000430417              -0.001146310               0.999999984               0.000316551              -0.001058210               0.999999984               0.000278487              -0.001020871               0.999999984               0.000266573              -0.001010971               0.999999984               0.000263819              -0.001015789               0.999999984               0.000263057              -0.001028199               0.999999984               0.000260845              -0.001044025               0.999999984               0.000255398              -0.001060466               0.999999984               0.000244883              -0.001075503               0.999999984               0.000228073              -0.001087821               0.999999984               0.000204332              -0.001096939               0.999999984               0.000173738              -0.001102602               0.999999984               0.000136306              -0.001104962               0.999999984               0.000092893              -0.001104364               0.999999984               0.000044667              -0.001101592               0.999999984              -0.000007044              -0.001097602               0.999999984              -0.000060592              -0.001092997               0.999999984               0.000365197              -0.001221052               0.999999984               0.000258671              -0.001159600               0.999999984               0.000219645              -0.001129174               0.999999984               0.000205925              -0.001119762               0.999999984               0.000201923              -0.001123403               0.999999984               0.000200622              -0.001134937               0.999999984               0.000198869              -0.001150978               0.999999984               0.000194848              -0.001169164               0.999999984               0.000187035              -0.001187441               0.999999984               0.000174005              -0.001204480               0.999999984               0.000154913              -0.001219338               0.999999984               0.000129236              -0.001231624               0.999999984               0.000096849              -0.001241133               0.999999984               0.000057563              -0.001247976               0.999999984               0.000012067              -0.001252681               0.999999984              -0.000038666              -0.001255870               0.999999984              -0.000093264              -0.001258357               0.999999984               0.000296531              -0.001283902               0.999999984               0.000203568              -0.001249798               0.999999984               0.000166346              -0.001229637               0.999999984               0.000151785              -0.001223734               0.999999984               0.000146524              -0.001228590               0.999999984               0.000144433              -0.001240866               0.999999984               0.000142634              -0.001257903               0.999999984               0.000139516              -0.001277772               0.999999984               0.000133628              -0.001299072               0.999999984               0.000123739              -0.001320442               0.999999984               0.000108972              -0.001340875               0.999999984               0.000088411              -0.001359553               0.999999984               0.000061551              -0.001376163               0.999999984               0.000027755              -0.001390520               0.999999984              -0.000013534              -0.001402758               0.999999984              -0.000062006              -0.001413162               0.999999984              -0.000116985              -0.001422560               0.999999984               0.000225008              -0.001333838               0.999999984               0.000150836              -0.001324712               0.999999984               0.000118738              -0.001316262               0.999999984               0.000104906              -0.001316032               0.999999984               0.000099136              -0.001323904               0.999999984               0.000096643              -0.001338151               0.999999984               0.000094738              -0.001357113               0.999999984               0.000092062              -0.001379293               0.999999984               0.000087577              -0.001403629               0.999999984               0.000080418              -0.001429121               0.999999984               0.000069557              -0.001454796               0.999999984               0.000054128              -0.001479735               0.999999984               0.000033340              -0.001503408               0.999999984               0.000006094              -0.001525386               0.999999984              -0.000028645              -0.001545506               0.999999984              -0.000071789              -0.001563701               0.999999984              -0.000124138              -0.001580361               0.999999984               0.000151297              -0.001370079               0.999999984               0.000099765              -0.001380928               0.999999984               0.000076049              -0.001383361               0.999999984               0.000065114              -0.001389180               0.999999984               0.000060183              -0.001400740               0.999999984               0.000057813              -0.001417692               0.999999984               0.000056041              -0.001439061               0.999999984               0.000053910              -0.001463864               0.999999984               0.000050792              -0.001491214               0.999999984               0.000046001              -0.001520356               0.999999984               0.000038813              -0.001550506               0.999999984               0.000028491              -0.001581012               0.999999984               0.000014057              -0.001611286               0.999999984              -0.000005414              -0.001640654               0.999999984              -0.000031028              -0.001668771               0.999999984              -0.000064170              -0.001695153               0.999999984              -0.000106983              -0.001719271               0.999999984               0.000076054              -0.001392083               0.999999984               0.000049663              -0.001415785               0.999999984               0.000037040              -0.001425901               0.999999984               0.000030986              -0.001436397               0.999999984               0.000028142              -0.001451008               0.999999984               0.000026654              -0.001470348               0.999999984               0.000025533              -0.001493878               0.999999984               0.000024356              -0.001520850               0.999999984               0.000022686              -0.001550511               0.999999984               0.000020201              -0.001582312               0.999999984               0.000016569              -0.001615729               0.999999984               0.000011366              -0.001650195               0.999999984               0.000003881              -0.001685101               0.999999984              -0.000006426              -0.001719840               0.999999984              -0.000020080              -0.001753889               0.999999984              -0.000038184              -0.001786448               0.999999984              -0.000062460              -0.001816457               0.999999984               0.000000000              -0.001399470               0.999999984              -0.000000000              -0.001427583               0.999999984               0.000000000              -0.001440440               0.999999984               0.000000000              -0.001452689               0.999999984              -0.000000000              -0.001468476               0.999999984               0.000000000              -0.001488775               0.999999984              -0.000000000              -0.001513121               0.999999984               0.000000000              -0.001540868               0.999999984              -0.000000000              -0.001571468               0.999999984              -0.000000000              -0.001604371               0.999999984               0.000000000              -0.001639007               0.999999984               0.000000000              -0.001674949               0.999999984               0.000000000              -0.001711601               0.999999984              -0.000000000              -0.001748177               0.999999984               0.000000000              -0.001784214               0.999999984              -0.000000000              -0.001818993               0.999999984              -0.000000000              -0.001851270               0.999999984               0.000801247              -0.000000000               0.999999984               0.000852942              -0.000000000               0.999999984               0.000875259               0.000000000               0.999999984               0.000887701               0.000000000               0.999999984               0.000897468              -0.000000000               0.999999984               0.000907157              -0.000000000               0.999999984               0.000917806              -0.000000000               0.999999984               0.000929612               0.000000000               0.999999984               0.000942658               0.000000000               0.999999984               0.000956693               0.000000000               0.999999984               0.000971474               0.000000000               0.999999984               0.000986737              -0.000000000               0.999999984               0.001002015               0.000000000               0.999999984               0.001016848              -0.000000000               0.999999984               0.001030585               0.000000000               0.999999984               0.001042375               0.000000000               0.999999984               0.001051215               0.000000000               0.999999984               0.000796874               0.000133849               0.999999984               0.000844476               0.000107983               0.999999984               0.000864189               0.000096227               0.999999984               0.000875000               0.000091705               0.999999984               0.000883748               0.000090552               0.999999984               0.000892708               0.000091298               0.999999984               0.000902617               0.000092827               0.999999984               0.000913823               0.000094869               0.999999984               0.000926218               0.000096852               0.999999984               0.000939527               0.000098313               0.999999984               0.000953381               0.000098971               0.999999984               0.000967300               0.000098425               0.999999984               0.000980859               0.000096224               0.999999984               0.000993562               0.000091808               0.999999984               0.001004843               0.000084215               0.999999984               0.001014034               0.000072722               0.999999984               0.001020454               0.000056410               0.999999984               0.000783623               0.000266469               0.999999984               0.000819431               0.000215418               0.999999984               0.000832031               0.000193251               0.999999984               0.000838503               0.000185169               0.999999984               0.000844356               0.000183819               0.999999984               0.000851259               0.000185698               0.999999984               0.000859507               0.000189320               0.999999984               0.000869071               0.000193757               0.999999984               0.000879595               0.000197832               0.999999984               0.000890581               0.000200644               0.999999984               0.000901456               0.000201641               0.999999984               0.000911707               0.000200142               0.999999984               0.000920679               0.000195424               0.999999984               0.000927889               0.000186554               0.999999984               0.000933074               0.000172378               0.999999984               0.000935875               0.000151760               0.999999984               0.000936089               0.000123539               0.999999984               0.000761877               0.000396546               0.999999984               0.000779254               0.000321966               0.999999984               0.000781501               0.000291671               0.999999984               0.000782089               0.000281819               0.999999984               0.000784278               0.000281388               0.999999984               0.000788478               0.000285472               0.999999984               0.000794501               0.000291822               0.999999984               0.000801735               0.000298910               0.999999984               0.000809471               0.000304986               0.999999984               0.000816801               0.000308732               0.999999984               0.000822881               0.000309571               0.999999984               0.000827084               0.000306659               0.999999984               0.000828989               0.000299269               0.999999984               0.000828289               0.000286569               0.999999984               0.000824933               0.000267496               0.999999984               0.000819110               0.000241416               0.999999984               0.000811100               0.000207598               0.999999984               0.000732231               0.000522857               0.999999984               0.000726033               0.000427436               0.999999984               0.000716646               0.000391816               0.999999984               0.000711389               0.000382159               0.999999984               0.000710222               0.000383842               0.999999984               0.000712032               0.000390896               0.999999984               0.000715872               0.000400156               0.999999984               0.000720356               0.000409732               0.999999984               0.000724196               0.000417378               0.999999984               0.000726455               0.000421583               0.999999984               0.000726348               0.000421661               0.999999984               0.000723385               0.000416952               0.999999984               0.000717250               0.000406925               0.999999984               0.000707924               0.000391112               0.999999984               0.000695690               0.000369042               0.999999984               0.000680932               0.000340787               0.999999984               0.000664384               0.000306724               0.999999984               0.000695070               0.000644377               0.999999984               0.000662401               0.000531836               0.999999984               0.000642325               0.000493632               0.999999984               0.000632507               0.000485660               0.999999984               0.000629145               0.000490353               0.999999984               0.000629431               0.000500490               0.999999984               0.000631076               0.000512478               0.999999984               0.000632336               0.000523925               0.999999984               0.000631793               0.000532388               0.999999984               0.000628298               0.000536336               0.999999984               0.000621320               0.000535250               0.999999984               0.000610543               0.000528670               0.999999984               0.000595959               0.000516387               0.999999984               0.000577898               0.000498383               0.999999984               0.000556781               0.000474789               0.999999984               0.000533279               0.000446460               0.999999984               0.000508218               0.000414600               0.999999984               0.000651251               0.000759895               0.999999984               0.000591521               0.000635111               0.999999984               0.000563136               0.000596776               0.999999984               0.000551184               0.000591219               0.999999984               0.000547242               0.000598973               0.999999984               0.000546601               0.000611965               0.999999984               0.000546348               0.000625941               0.999999984               0.000544269               0.000638394               0.999999984               0.000538717               0.000646840               0.999999984               0.000528745               0.000650012               0.999999984               0.000514063               0.000647619               0.999999984               0.000494688               0.000639410               0.999999984               0.000470942               0.000625691               0.999999984               0.000443416               0.000606698               0.999999984               0.000412887               0.000583193               0.999999984               0.000380218               0.000556555               0.999999984               0.000346285               0.000528017               0.999999984               0.000601542               0.000868212               0.999999984               0.000516709               0.000737086               0.999999984               0.000483751               0.000700159               0.999999984               0.000472290               0.000697072               0.999999984               0.000469049               0.000707380               0.999999984               0.000468137               0.000722376               0.999999984               0.000465858               0.000737526               0.999999984               0.000459758               0.000750357               0.999999984               0.000448353               0.000758268               0.999999984               0.000431044               0.000760400               0.999999984               0.000407628               0.000756884               0.999999984               0.000378620               0.000747599               0.999999984               0.000344746               0.000733124               0.999999984               0.000307006               0.000714380               0.999999984               0.000266450               0.000692410               0.999999984               0.000224222               0.000668571               0.999999984               0.000181191               0.000643942               0.999999984               0.000547519               0.000967343               0.999999984               0.000440710               0.000837640               0.999999984               0.000408324               0.000802262               0.999999984               0.000399195               0.000800915               0.999999984               0.000397440               0.000813101               0.999999984               0.000396059               0.000829526               0.999999984               0.000391111               0.000845492               0.999999984               0.000380419               0.000858053               0.999999984               0.000362294               0.000865137               0.999999984               0.000336291               0.000866312               0.999999984               0.000302882               0.000861775               0.999999984               0.000263041               0.000851851               0.999999984               0.000218021               0.000837522               0.999999984               0.000169337               0.000820156               0.999999984               0.000118473               0.000800879               0.999999984               0.000066676               0.000780815               0.999999984               0.000014748               0.000760646               0.999999984               0.000491624               0.001061021               0.999999984               0.000377239               0.000949786               0.999999984               0.000341904               0.000910233               0.999999984               0.000331825               0.000903296               0.999999984               0.000329878               0.000911221               0.999999984               0.000329054               0.000925474               0.999999984               0.000325862               0.000941327               0.999999984               0.000318186               0.000955980               0.999999984               0.000304167               0.000967468               0.999999984               0.000282864               0.000974691               0.999999984               0.000254322               0.000977486               0.999999984               0.000218884               0.000975888               0.999999984               0.000177321               0.000970436               0.999999984               0.000130882               0.000961800               0.999999984               0.000080951               0.000951134               0.999999984               0.000028947               0.000939263               0.999999984              -0.000023705               0.000927031               0.999999984               0.000430417               0.001146310               0.999999984               0.000316551               0.001058210               0.999999984               0.000278487               0.001020871               0.999999984               0.000266573               0.001010971               0.999999984               0.000263819               0.001015789               0.999999984               0.000263057               0.001028199               0.999999984               0.000260845               0.001044025               0.999999984               0.000255398               0.001060466               0.999999984               0.000244883               0.001075503               0.999999984               0.000228073               0.001087821               0.999999984               0.000204332               0.001096939               0.999999984               0.000173738               0.001102602               0.999999984               0.000136306               0.001104962               0.999999984               0.000092893               0.001104364               0.999999984               0.000044667               0.001101592               0.999999984              -0.000007044               0.001097602               0.999999984              -0.000060592               0.001092997               0.999999984               0.000365197               0.001221052               0.999999984               0.000258671               0.001159600               0.999999984               0.000219645               0.001129174               0.999999984               0.000205925               0.001119762               0.999999984               0.000201923               0.001123403               0.999999984               0.000200622               0.001134937               0.999999984               0.000198869               0.001150978               0.999999984               0.000194848               0.001169164               0.999999984               0.000187035               0.001187441               0.999999984               0.000174005               0.001204480               0.999999984               0.000154913               0.001219338               0.999999984               0.000129236               0.001231624               0.999999984               0.000096849               0.001241133               0.999999984               0.000057563               0.001247976               0.999999984               0.000012067               0.001252681               0.999999984              -0.000038666               0.001255870               0.999999984              -0.000093264               0.001258357               0.999999984               0.000296531               0.001283902               0.999999984               0.000203568               0.001249798               0.999999984               0.000166346               0.001229637               0.999999984               0.000151785               0.001223734               0.999999984               0.000146524               0.001228590               0.999999984               0.000144433               0.001240866               0.999999984               0.000142634               0.001257903               0.999999984               0.000139516               0.001277772               0.999999984               0.000133628               0.001299072               0.999999984               0.000123739               0.001320442               0.999999984               0.000108972               0.001340875               0.999999984               0.000088411               0.001359553               0.999999984               0.000061551               0.001376163               0.999999984               0.000027755               0.001390520               0.999999984              -0.000013534               0.001402758               0.999999984              -0.000062006               0.001413162               0.999999984              -0.000116985               0.001422560               0.999999984               0.000225008               0.001333838               0.999999984               0.000150836               0.001324712               0.999999984               0.000118738               0.001316262               0.999999984               0.000104906               0.001316032               0.999999984               0.000099136               0.001323904               0.999999984               0.000096643               0.001338151               0.999999984               0.000094738               0.001357113               0.999999984               0.000092062               0.001379293               0.999999984               0.000087577               0.001403629               0.999999984               0.000080418               0.001429121               0.999999984               0.000069557               0.001454796               0.999999984               0.000054128               0.001479735               0.999999984               0.000033340               0.001503408               0.999999984               0.000006094               0.001525386               0.999999984              -0.000028645               0.001545506               0.999999984              -0.000071789               0.001563701               0.999999984              -0.000124138               0.001580361               0.999999984               0.000151297               0.001370079               0.999999984               0.000099765               0.001380928               0.999999984               0.000076049               0.001383361               0.999999984               0.000065114               0.001389180               0.999999984               0.000060183               0.001400740               0.999999984               0.000057813               0.001417692               0.999999984               0.000056041               0.001439061               0.999999984               0.000053910               0.001463864               0.999999984               0.000050792               0.001491214               0.999999984               0.000046001               0.001520356               0.999999984               0.000038813               0.001550506               0.999999984               0.000028491               0.001581012               0.999999984               0.000014057               0.001611286               0.999999984              -0.000005414               0.001640654               0.999999984              -0.000031028               0.001668771               0.999999984              -0.000064170               0.001695153               0.999999984              -0.000106983               0.001719271               0.999999984               0.000076054               0.001392083               0.999999984               0.000049663               0.001415785               0.999999984               0.000037040               0.001425901               0.999999984               0.000030986               0.001436397               0.999999984               0.000028142               0.001451008               0.999999984               0.000026654               0.001470348               0.999999984               0.000025533               0.001493878               0.999999984               0.000024356               0.001520850               0.999999984               0.000022686               0.001550511               0.999999984               0.000020201               0.001582312               0.999999984               0.000016569               0.001615729               0.999999984               0.000011366               0.001650195               0.999999984               0.000003881               0.001685101               0.999999984              -0.000006426               0.001719840               0.999999984              -0.000020080               0.001753889               0.999999984              -0.000038184               0.001786448               0.999999984              -0.000062460               0.001816457               0.999999984               0.000000000               0.001399470               0.999999984              -0.000000000               0.001427583               0.999999984               0.000000000               0.001440440               0.999999984              -0.000000000               0.001452689               0.999999984               0.000000000               0.001468476               0.999999984              -0.000000000               0.001488775               0.999999984               0.000000000               0.001513121               0.999999984               0.000000000               0.001540868               0.999999984               0.000000000               0.001571468               0.999999984              -0.000000000               0.001604371               0.999999984              -0.000000000               0.001639007               0.999999984               0.000000000               0.001674949               0.999999984              -0.000000000               0.001711601               0.999999984              -0.000000000               0.001748177               0.999999984               0.000000000               0.001784214               0.999999984              -0.000000000               0.001818993               0.999999984              -0.000000000               0.001851270               0.999999984 </DataArray>
<DataArray type="Float64"                                    Name="stress"                                                      NumberOfComponents="10" format="ascii">
              0.002247296               0.024396903               0.000000000              -0.002206871               0.008867843               0.006660972               0.000000000               0.000000000               0.000000000               0.000000000               0.002188114               0.018915270               0.000000000              -0.001543862               0.006819648               0.005275786               0.000000000               0.000000000               0.000000000               0.000000000               0.002839953               0.014438609              -0.000000000              -0.000739842               0.005059436               0.004319593               0.000000000               0.000000000               0.000000000               0.000000000               0.002669373               0.011903815              -0.000000000              -0.000486961               0.004130219               0.003643258               0.000000000               0.000000000               0.000000000               0.000000000               0.002269141               0.010287370              -0.000000000              -0.000434992               0.003574087               0.003139094               0.000000000               0.000000000               0.000000000               0.000000000               0.001839928               0.009164717               0.000000000              -0.000455616               0.003206747               0.002751131               0.000000000               0.000000000               0.000000000               0.000000000               0.001435569               0.008319396               0.000000000              -0.000501585               0.002940299               0.002438714               0.000000000               0.000000000               0.000000000               0.000000000               0.001074614               0.007650449               0.000000000              -0.000553324               0.002734566               0.002181241               0.000000000               0.000000000               0.000000000               0.000000000               0.000761680               0.007084155               0.000000000              -0.000599888               0.002561324               0.001961436               0.000000000               0.000000000               0.000000000               0.000000000               0.000497712               0.006571874               0.000000000              -0.000634841               0.002402216               0.001767376               0.000000000               0.000000000               0.000000000               0.000000000               0.000276946               0.006083669               0.000000000              -0.000656602               0.002246737               0.001590135               0.000000000               0.000000000               0.000000000               0.000000000               0.000101265               0.005596237              -0.000000000              -0.000661554               0.002085912               0.001424358               0.000000000               0.000000000               0.000000000               0.000000000              -0.000028520               0.005087988               0.000000000              -0.000646692               0.001911543               0.001264851               0.000000000               0.000000000               0.000000000               0.000000000              -0.000110100               0.004535535               0.000000000              -0.000608228               0.001714573               0.001106345               0.000000000               0.000000000               0.000000000               0.000000000              -0.000133839               0.003911553               0.000000000              -0.000539133               0.001483549               0.000944416               0.000000000               0.000000000               0.000000000               0.000000000              -0.000089468               0.003197974               0.000000000              -0.000433296               0.001210413               0.000777116               0.000000000               0.000000000               0.000000000               0.000000000              -0.000109679               0.002646343               0.000000000              -0.000371922               0.001006079               0.000634158               0.000000000               0.000000000               0.000000000               0.000000000               0.002325867               0.023889047              -0.001647950              -0.002113926               0.008667578               0.006553652               0.000000000               0.000000000               0.000000000               0.000000000               0.002136251               0.018588026              -0.000794009              -0.001522405               0.006703415               0.005181010               0.000000000               0.000000000               0.000000000               0.000000000               0.002650520               0.014306438               0.000051605              -0.000794358               0.005033551               0.004239193               0.000000000               0.000000000               0.000000000               0.000000000               0.002425385               0.011869536               0.000399142              -0.000574171               0.004147863               0.003573691               0.000000000               0.000000000               0.000000000               0.000000000               0.002012929               0.010308352               0.000533667              -0.000533695               0.003613981               0.003080287               0.000000000               0.000000000               0.000000000               0.000000000               0.001594108               0.009211073               0.000578253              -0.000553593               0.003254858               0.002701265               0.000000000               0.000000000               0.000000000               0.000000000               0.001209158               0.008385652               0.000585359              -0.000594771               0.002993446               0.002398675               0.000000000               0.000000000               0.000000000               0.000000000               0.000868359               0.007726600               0.000573287              -0.000640189               0.002788904               0.002148715               0.000000000               0.000000000               0.000000000               0.000000000               0.000578848               0.007161110               0.000546509              -0.000678069               0.002613036               0.001934967               0.000000000               0.000000000               0.000000000               0.000000000               0.000340023               0.006643387               0.000514774              -0.000702913               0.002448745               0.001745832               0.000000000               0.000000000               0.000000000               0.000000000               0.000151344               0.006147990               0.000481632              -0.000711743               0.002286557               0.001574814               0.000000000               0.000000000               0.000000000               0.000000000               0.000011360               0.005654608               0.000444967              -0.000702564               0.002119038               0.001416474               0.000000000               0.000000000               0.000000000               0.000000000              -0.000083530               0.005144900               0.000401492              -0.000674435               0.001939761               0.001265326               0.000000000               0.000000000               0.000000000               0.000000000              -0.000135013               0.004600521               0.000340541              -0.000625693               0.001742056               0.001116363               0.000000000               0.000000000               0.000000000               0.000000000              -0.000137202               0.004005490               0.000255170              -0.000552136               0.001519195               0.000967059               0.000000000               0.000000000               0.000000000               0.000000000              -0.000085112               0.003346662               0.000141180              -0.000450249               0.001265626               0.000815377               0.000000000               0.000000000               0.000000000               0.000000000              -0.000100024               0.002849611               0.000087041              -0.000393710               0.001081098               0.000687388               0.000000000               0.000000000               0.000000000               0.000000000               0.002504867               0.022427620              -0.003056009              -0.001864124               0.008097173               0.006233049               0.000000000               0.000000000               0.000000000               0.000000000               0.001960817               0.017658142              -0.001472010              -0.001471958               0.006376641               0.004904683               0.000000000               0.000000000               0.000000000               0.000000000               0.002099333               0.013928906               0.000080750              -0.000953861               0.004960876               0.004007015               0.000000000               0.000000000               0.000000000               0.000000000               0.001745659               0.011767575               0.000699247              -0.000816323               0.004194593               0.003378270               0.000000000               0.000000000               0.000000000               0.000000000               0.001314872               0.010348465               0.000930046              -0.000800479               0.003716280               0.002915801               0.000000000               0.000000000               0.000000000               0.000000000               0.000923077               0.009327697               0.001004040              -0.000819806               0.003382470               0.002562664               0.000000000               0.000000000               0.000000000               0.000000000               0.000592209               0.008549080               0.001013090              -0.000846555               0.003131850               0.002285295               0.000000000               0.000000000               0.000000000               0.000000000               0.000317792               0.007909082               0.000985727              -0.000869461               0.002926155               0.002056693               0.000000000               0.000000000               0.000000000               0.000000000               0.000101165               0.007340871               0.000933342              -0.000879670               0.002740156               0.001860486               0.000000000               0.000000000               0.000000000               0.000000000              -0.000059019               0.006808271               0.000875437              -0.000873164               0.002560456               0.001687292               0.000000000               0.000000000               0.000000000               0.000000000              -0.000167995               0.006294829               0.000817511              -0.000849850               0.002381538               0.001531689               0.000000000               0.000000000               0.000000000               0.000000000              -0.000227183               0.005789164               0.000753626              -0.000808837               0.002199314               0.001390477               0.000000000               0.000000000               0.000000000               0.000000000              -0.000239441               0.005284541               0.000675614              -0.000750356               0.002011615               0.001261258               0.000000000               0.000000000               0.000000000               0.000000000              -0.000220819               0.004772618               0.000569018              -0.000679383               0.001817318               0.001137935               0.000000000               0.000000000               0.000000000               0.000000000              -0.000173964               0.004254005               0.000424143              -0.000596986               0.001616983               0.001019997               0.000000000               0.000000000               0.000000000               0.000000000              -0.000095471               0.003735019               0.000233574              -0.000502678               0.001412553               0.000909875               0.000000000               0.000000000               0.000000000               0.000000000              -0.000088924               0.003373826               0.000141328              -0.000455074               0.001276289               0.000821215               0.000000000               0.000000000               0.000000000               0.000000000               0.002668567               0.020205177              -0.004050465              -0.001524933               0.007243302               0.005718369               0.000000000               0.000000000               0.000000000               0.000000000               0.001637638               0.016266763              -0.001957689              -0.001419229               0.005895276               0.004476047               0.000000000               0.000000000               0.000000000               0.000000000               0.001257132               0.013360055               0.000065006              -0.001198579               0.004852834               0.003654254               0.000000000               0.000000000               0.000000000               0.000000000               0.000755682               0.011589269               0.000826593              -0.001165275               0.004251476               0.003086201               0.000000000               0.000000000               0.000000000               0.000000000               0.000334721               0.010360659               0.001096667              -0.001169559               0.003843371               0.002673812               0.000000000               0.000000000               0.000000000               0.000000000               0.000008733               0.009443480               0.001177217              -0.001177158               0.003540181               0.002363024               0.000000000               0.000000000               0.000000000               0.000000000              -0.000235065               0.008708110               0.001181561              -0.001176661               0.003294894               0.002118234               0.000000000               0.000000000               0.000000000               0.000000000              -0.000406267               0.008076387               0.001142821              -0.001161896               0.003079401               0.001917505               0.000000000               0.000000000               0.000000000               0.000000000              -0.000513404               0.007496615               0.001075674              -0.001129601               0.002875380               0.001745779               0.000000000               0.000000000               0.000000000               0.000000000              -0.000556593               0.006948135               0.001004100              -0.001077237               0.002675101               0.001597864               0.000000000               0.000000000               0.000000000               0.000000000              -0.000546875               0.006422323               0.000932998              -0.001007866               0.002476708               0.001468842               0.000000000               0.000000000               0.000000000               0.000000000              -0.000497489               0.005915494               0.000853115              -0.000925993               0.002280476               0.001354483               0.000000000               0.000000000               0.000000000               0.000000000              -0.000416054               0.005430853               0.000755582              -0.000834875               0.002088558               0.001253683               0.000000000               0.000000000               0.000000000               0.000000000              -0.000316442               0.004974141               0.000625263              -0.000740432               0.001904841               0.001164409               0.000000000               0.000000000               0.000000000               0.000000000              -0.000211812               0.004556121               0.000457461              -0.000648943               0.001735006               0.001086063               0.000000000               0.000000000               0.000000000               0.000000000              -0.000106045               0.004197399               0.000249843              -0.000564441               0.001587266               0.001022825               0.000000000               0.000000000               0.000000000               0.000000000              -0.000075362               0.003985401               0.000146975              -0.000526434               0.001503932               0.000977497               0.000000000               0.000000000               0.000000000               0.000000000               0.002674545               0.017502693              -0.004536756              -0.001184883               0.006229133               0.005044250               0.000000000               0.000000000               0.000000000               0.000000000               0.001140548               0.014599392              -0.002224184              -0.001397216               0.005332154               0.003934937               0.000000000               0.000000000               0.000000000               0.000000000               0.000224913               0.012662885              -0.000025494              -0.001498514               0.004720424               0.003221910               0.000000000               0.000000000               0.000000000               0.000000000              -0.000375864               0.011316132               0.000749444              -0.001555462               0.004290494               0.002735032               0.000000000               0.000000000               0.000000000               0.000000000              -0.000734206               0.010289233               0.001008192              -0.001561478               0.003950203               0.002388725               0.000000000               0.000000000               0.000000000               0.000000000              -0.000948975               0.009461830               0.001079583              -0.001538591               0.003666775               0.002128184               0.000000000               0.000000000               0.000000000               0.000000000              -0.001067946               0.008755563               0.001083035              -0.001494922               0.003416799               0.001921877               0.000000000               0.000000000               0.000000000               0.000000000              -0.001100822               0.008122216               0.001047415              -0.001428082               0.003183405               0.001755323               0.000000000               0.000000000               0.000000000               0.000000000              -0.001069178               0.007529322               0.000981341              -0.001342104               0.002957117               0.001615013               0.000000000               0.000000000               0.000000000               0.000000000              -0.000987525               0.006969421               0.000908386              -0.001241496               0.002736949               0.001495453               0.000000000               0.000000000               0.000000000               0.000000000              -0.000866322               0.006442385               0.000832838              -0.001130166               0.002524162               0.001393996               0.000000000               0.000000000               0.000000000               0.000000000              -0.000716835               0.005952291               0.000746225              -0.001012847               0.002321693               0.001308846               0.000000000               0.000000000               0.000000000               0.000000000              -0.000551798               0.005505917               0.000642385              -0.000895162               0.002133674               0.001238513               0.000000000               0.000000000               0.000000000               0.000000000              -0.000387487               0.005113006               0.000511653              -0.000784431               0.001965795               0.001181364               0.000000000               0.000000000               0.000000000               0.000000000              -0.000234346               0.004790516               0.000356630              -0.000686693               0.001825720               0.001139028               0.000000000               0.000000000               0.000000000               0.000000000              -0.000104792               0.004557613               0.000185798              -0.000608997               0.001722188               0.001113191               0.000000000               0.000000000               0.000000000               0.000000000              -0.000058447               0.004448282               0.000103362              -0.000577952               0.001675396               0.001097445               0.000000000               0.000000000               0.000000000               0.000000000               0.002390162               0.014591820              -0.004528562              -0.000927668               0.005173113               0.004245445               0.000000000               0.000000000               0.000000000               0.000000000               0.000459201               0.012831430              -0.002302011              -0.001431726               0.004754342               0.003322616               0.000000000               0.000000000               0.000000000               0.000000000              -0.000884121               0.011896533              -0.000213895              -0.001818608               0.004571674               0.002753066               0.000000000               0.000000000               0.000000000               0.000000000              -0.001477421               0.010941467               0.000477838              -0.001921711               0.004287690               0.002365978               0.000000000               0.000000000               0.000000000               0.000000000              -0.001712793               0.010085507               0.000700611              -0.001902981               0.003996129               0.002093148               0.000000000               0.000000000               0.000000000               0.000000000              -0.001772209               0.009330093               0.000767542              -0.001830836               0.003720278               0.001889443               0.000000000               0.000000000               0.000000000               0.000000000              -0.001731222               0.008644236               0.000782710              -0.001729734               0.003457961               0.001728227               0.000000000               0.000000000               0.000000000               0.000000000              -0.001619545               0.008003332               0.000763068              -0.001607742               0.003203665               0.001595923               0.000000000               0.000000000               0.000000000               0.000000000              -0.001452614               0.007401333               0.000712907              -0.001469893               0.002957051               0.001487158               0.000000000               0.000000000               0.000000000               0.000000000              -0.001252627               0.006845379               0.000653815              -0.001325404               0.002723571               0.001398167               0.000000000               0.000000000               0.000000000               0.000000000              -0.001036494               0.006339948               0.000589802              -0.001181176               0.002507020               0.001325844               0.000000000               0.000000000               0.000000000               0.000000000              -0.000812541               0.005889314               0.000514973              -0.001040865               0.002310040               0.001269175               0.000000000               0.000000000               0.000000000               0.000000000              -0.000596079               0.005500350               0.000425634              -0.000911071               0.002137122               0.001226051               0.000000000               0.000000000               0.000000000               0.000000000              -0.000399087               0.005179367               0.000319273              -0.000797077               0.001992130               0.001195054               0.000000000               0.000000000               0.000000000               0.000000000              -0.000228541               0.004940162               0.000205937              -0.000703221               0.001881111               0.001177890               0.000000000               0.000000000               0.000000000               0.000000000              -0.000097368               0.004791604               0.000099432              -0.000635462               0.001809006               0.001173544               0.000000000               0.000000000               0.000000000               0.000000000              -0.000050086               0.004732722               0.000052950              -0.000610371               0.001781015               0.001170644               0.000000000               0.000000000               0.000000000               0.000000000               0.001752701               0.011710694              -0.004110308              -0.000806576               0.004172383               0.003365807               0.000000000               0.000000000               0.000000000               0.000000000              -0.000361650               0.011105568              -0.002248653              -0.001523812               0.004209756               0.002685944               0.000000000               0.000000000               0.000000000               0.000000000              -0.001946445               0.011090390              -0.000509568              -0.002116210               0.004402163               0.002285953               0.000000000               0.000000000               0.000000000               0.000000000              -0.002414144               0.010460006               0.000048487              -0.002212799               0.004224234               0.002011434               0.000000000               0.000000000               0.000000000               0.000000000              -0.002464625               0.009736057               0.000246731              -0.002141236               0.003959065               0.001817829               0.000000000               0.000000000               0.000000000               0.000000000              -0.002349182               0.009031597               0.000327668              -0.002009888               0.003680465               0.001670577               0.000000000               0.000000000               0.000000000               0.000000000              -0.002149663               0.008361912               0.000370119              -0.001851358               0.003404395               0.001553037               0.000000000               0.000000000               0.000000000               0.000000000              -0.001895022               0.007731515               0.000382794              -0.001677068               0.003136169               0.001459100               0.000000000               0.000000000               0.000000000               0.000000000              -0.001608127               0.007143383               0.000367319              -0.001495967               0.002879759               0.001383793               0.000000000               0.000000000               0.000000000               0.000000000              -0.001309984               0.006616610               0.000341647              -0.001318317               0.002644954               0.001326637               0.000000000               0.000000000               0.000000000               0.000000000              -0.001022538               0.006156484               0.000307678              -0.001153009               0.002436477               0.001283468               0.000000000               0.000000000               0.000000000               0.000000000              -0.000755643               0.005762060               0.000263273              -0.001003621               0.002255208               0.001251587               0.000000000               0.000000000               0.000000000               0.000000000              -0.000519860               0.005438011               0.000208410              -0.000874697               0.002104218               0.001229521               0.000000000               0.000000000               0.000000000               0.000000000              -0.000323529               0.005190896               0.000143254              -0.000770183               0.001987009               0.001216826               0.000000000               0.000000000               0.000000000               0.000000000              -0.000171381               0.005024769               0.000082404              -0.000692362               0.001905694               0.001213331               0.000000000               0.000000000               0.000000000               0.000000000              -0.000068220               0.004932336               0.000036158              -0.000642123               0.001858137               0.001216014               0.000000000               0.000000000               0.000000000               0.000000000              -0.000035163               0.004897679               0.000019766              -0.000625394               0.001841008               0.001215614               0.000000000               0.000000000               0.000000000               0.000000000               0.000785225               0.009040633              -0.003390998              -0.000835621               0.003292053               0.002456433               0.000000000               0.000000000               0.000000000               0.000000000              -0.001272536               0.009519076              -0.002125927              -0.001667083               0.003728687               0.002061605               0.000000000               0.000000000               0.000000000               0.000000000              -0.002849039               0.010245328              -0.000905510              -0.002349050               0.004198092               0.001849042               0.000000000               0.000000000               0.000000000               0.000000000              -0.003091189               0.009861577              -0.000468101              -0.002391887               0.004084455               0.001692568               0.000000000               0.000000000               0.000000000               0.000000000              -0.002938066               0.009246540              -0.000264955              -0.002257587               0.003834678               0.001577092               0.000000000               0.000000000               0.000000000               0.000000000              -0.002655682               0.008595601              -0.000145755              -0.002070326               0.003555280               0.001484955               0.000000000               0.000000000               0.000000000               0.000000000              -0.002311005               0.007966012              -0.000057011              -0.001862374               0.003276102               0.001413728               0.000000000               0.000000000               0.000000000               0.000000000              -0.001930132               0.007368203               0.000000960              -0.001644821               0.003004317               0.001359496               0.000000000               0.000000000               0.000000000               0.000000000              -0.001544573               0.006818590               0.000030203              -0.001431535               0.002750019               0.001318484               0.000000000               0.000000000               0.000000000               0.000000000              -0.001175668               0.006341217               0.000051531              -0.001233524               0.002524893               0.001291368               0.000000000               0.000000000               0.000000000               0.000000000              -0.000845306               0.005935203               0.000061688              -0.001058888               0.002331344               0.001272456               0.000000000               0.000000000               0.000000000               0.000000000              -0.000568218               0.005598228               0.000057597              -0.000912858               0.002170343               0.001257485               0.000000000               0.000000000               0.000000000               0.000000000              -0.000347784               0.005335276               0.000046765              -0.000797326               0.002044183               0.001246857               0.000000000               0.000000000               0.000000000               0.000000000              -0.000183749               0.005153109               0.000028668              -0.000713043               0.001955367               0.001242324               0.000000000               0.000000000               0.000000000               0.000000000              -0.000076558               0.005043451               0.000011863              -0.000659139               0.001900846               0.001241708               0.000000000               0.000000000               0.000000000               0.000000000              -0.000021534               0.004987270               0.000003990              -0.000631483               0.001872901               0.001241418               0.000000000               0.000000000               0.000000000               0.000000000              -0.000008354               0.004967986               0.000003580              -0.000624129               0.001864022               0.001239892               0.000000000               0.000000000               0.000000000               0.000000000              -0.000383432               0.006777676              -0.002501960              -0.000990996               0.002589534               0.001598538               0.000000000               0.000000000               0.000000000               0.000000000              -0.002164944               0.008097826              -0.001984733              -0.001824078               0.003307274               0.001483196               0.000000000               0.000000000               0.000000000               0.000000000              -0.003551011               0.009402172              -0.001376794              -0.002506895               0.003969657               0.001462763               0.000000000               0.000000000               0.000000000               0.000000000              -0.003548183               0.009270962              -0.001014479              -0.002489433               0.003920101               0.001430668               0.000000000               0.000000000               0.000000000               0.000000000              -0.003220691               0.008795678              -0.000779025              -0.002307213               0.003700934               0.001393721               0.000000000               0.000000000               0.000000000               0.000000000              -0.002804125               0.008238318              -0.000606885              -0.002081332               0.003439856               0.001358524               0.000000000               0.000000000               0.000000000               0.000000000              -0.002351028               0.007678009              -0.000472698              -0.001841382               0.003173105               0.001331723               0.000000000               0.000000000               0.000000000               0.000000000              -0.001879571               0.007131765              -0.000368520              -0.001596306               0.002909333               0.001313027               0.000000000               0.000000000               0.000000000               0.000000000              -0.001415100               0.006633559              -0.000284858              -0.001359854               0.002664449               0.001304595               0.000000000               0.000000000               0.000000000               0.000000000              -0.000994279               0.006201717              -0.000211308              -0.001148067               0.002449907               0.001301841               0.000000000               0.000000000               0.000000000               0.000000000              -0.000640021               0.005828181              -0.000150979              -0.000968528               0.002265550               0.001297022               0.000000000               0.000000000               0.000000000               0.000000000              -0.000364667               0.005518250              -0.000103498              -0.000826529               0.002114908               0.001288379               0.000000000               0.000000000               0.000000000               0.000000000              -0.000169113               0.005285020              -0.000064387              -0.000724043               0.002003003               0.001278960               0.000000000               0.000000000               0.000000000               0.000000000              -0.000049346               0.005126243              -0.000034766              -0.000659283               0.001928492               0.001269208               0.000000000               0.000000000               0.000000000               0.000000000               0.000007725               0.005036266              -0.000015220              -0.000626635               0.001887617               0.001260982               0.000000000               0.000000000               0.000000000               0.000000000               0.000020009               0.004997547              -0.000003104              -0.000617188               0.001871562               0.001254373               0.000000000               0.000000000               0.000000000               0.000000000               0.000017018               0.004988660               0.000001173              -0.000617199               0.001868603               0.001251404               0.000000000               0.000000000               0.000000000               0.000000000              -0.001759305               0.004678414              -0.001560571              -0.001244539               0.001974302               0.000729763               0.000000000               0.000000000               0.000000000               0.000000000              -0.002921914               0.006459258              -0.001822027              -0.001903121               0.002787438               0.000884317               0.000000000               0.000000000               0.000000000               0.000000000              -0.003971801               0.008181706              -0.001868951              -0.002512133               0.003564585               0.001052452               0.000000000               0.000000000               0.000000000               0.000000000              -0.003828986               0.008434768              -0.001595160              -0.002490210               0.003641631               0.001151421               0.000000000               0.000000000               0.000000000               0.000000000              -0.003417645               0.008222920              -0.001328509              -0.002309476               0.003510771               0.001201295               0.000000000               0.000000000               0.000000000               0.000000000              -0.002949481               0.007860698              -0.001106798              -0.002088638               0.003316419               0.001227781               0.000000000               0.000000000               0.000000000               0.000000000              -0.002466469               0.007456456              -0.000929679              -0.001856978               0.003104453               0.001247475               0.000000000               0.000000000               0.000000000               0.000000000              -0.001977594               0.007042526              -0.000780534              -0.001621910               0.002888122               0.001266212               0.000000000               0.000000000               0.000000000               0.000000000              -0.001498337               0.006637981              -0.000645311              -0.001391620               0.002676512               0.001284891               0.000000000               0.000000000               0.000000000               0.000000000              -0.001054950               0.006265715              -0.000521518              -0.001178818               0.002481490               0.001302672               0.000000000               0.000000000               0.000000000               0.000000000              -0.000673825               0.005929487              -0.000407836              -0.000993868               0.002307765               0.001313897               0.000000000               0.000000000               0.000000000               0.000000000              -0.000368968               0.005634220              -0.000301493              -0.000842639               0.002158934               0.001316296               0.000000000               0.000000000               0.000000000               0.000000000              -0.000150894               0.005388098              -0.000204100              -0.000730096               0.002039380               0.001309284               0.000000000               0.000000000               0.000000000               0.000000000              -0.000015049               0.005201885              -0.000120491              -0.000655878               0.001952570               0.001296693               0.000000000               0.000000000               0.000000000               0.000000000               0.000052893               0.005083648              -0.000055317              -0.000615620               0.001899739               0.001284119               0.000000000               0.000000000               0.000000000               0.000000000               0.000069488               0.005023437              -0.000015646              -0.000601870               0.001875086               0.001273216               0.000000000               0.000000000               0.000000000               0.000000000               0.000064069               0.005005663              -0.000001973              -0.000601680               0.001869098               0.001267417               0.000000000               0.000000000               0.000000000               0.000000000              -0.003520816               0.002773367              -0.000633603              -0.001666974               0.001480103              -0.000186871               0.000000000               0.000000000               0.000000000               0.000000000              -0.003779608               0.004807367              -0.001585471              -0.002018270               0.002275195               0.000256926               0.000000000               0.000000000               0.000000000               0.000000000              -0.004301190               0.006760418              -0.002257016              -0.002457993               0.003072780               0.000614787               0.000000000               0.000000000               0.000000000               0.000000000              -0.004024917               0.007383126              -0.002149372              -0.002432229               0.003271760               0.000839531               0.000000000               0.000000000               0.000000000               0.000000000              -0.003556348               0.007477323              -0.001896131              -0.002268291               0.003248513               0.000980222               0.000000000               0.000000000               0.000000000               0.000000000              -0.003058131               0.007357775              -0.001642656              -0.002066516               0.003141406               0.001074889               0.000000000               0.000000000               0.000000000               0.000000000              -0.002566416               0.007148562              -0.001426819              -0.001855972               0.003001487               0.001145515               0.000000000               0.000000000               0.000000000               0.000000000              -0.002083190               0.006888592              -0.001240657              -0.001642266               0.002843596               0.001201330               0.000000000               0.000000000               0.000000000               0.000000000              -0.001607126               0.006597798              -0.001067148              -0.001427394               0.002675042               0.001247648               0.000000000               0.000000000               0.000000000               0.000000000              -0.001152214               0.006306578              -0.000901494              -0.001220400               0.002508972               0.001288572               0.000000000               0.000000000               0.000000000               0.000000000              -0.000742252               0.006024770              -0.000742039              -0.001031438               0.002352049               0.001320611               0.000000000               0.000000000               0.000000000               0.000000000              -0.000393662               0.005757938              -0.000584962              -0.000867363               0.002208415               0.001341051               0.000000000               0.000000000               0.000000000               0.000000000              -0.000119810               0.005512623              -0.000430639              -0.000734005               0.002082191               0.001348186               0.000000000               0.000000000               0.000000000               0.000000000               0.000067708               0.005305940              -0.000287727              -0.000637850               0.001981246               0.001343395               0.000000000               0.000000000               0.000000000               0.000000000               0.000174499               0.005158140              -0.000162256              -0.000579329               0.001912473               0.001333144               0.000000000               0.000000000               0.000000000               0.000000000               0.000206419               0.005062721              -0.000064964              -0.000555432               0.001872701               0.001317269               0.000000000               0.000000000               0.000000000               0.000000000               0.000194229               0.005020252              -0.000022156              -0.000554694               0.001858299               0.001303604               0.000000000               0.000000000               0.000000000               0.000000000              -0.005548036               0.001212247               0.000196953              -0.002232041               0.001148089              -0.001083953               0.000000000               0.000000000               0.000000000               0.000000000              -0.004780577               0.003250597              -0.001258948              -0.002199037               0.001816532              -0.000382505               0.000000000               0.000000000               0.000000000               0.000000000              -0.004568368               0.005154643              -0.002426954              -0.002357463               0.002504017               0.000146554               0.000000000               0.000000000               0.000000000               0.000000000              -0.004074848               0.006034938              -0.002526953              -0.002282430               0.002772435               0.000490005               0.000000000               0.000000000               0.000000000               0.000000000              -0.003536740               0.006417425              -0.002342151              -0.002128451               0.002848603               0.000720152               0.000000000               0.000000000               0.000000000               0.000000000              -0.003015191               0.006553811              -0.002098822              -0.001949919               0.002834554               0.000884635               0.000000000               0.000000000               0.000000000               0.000000000              -0.002519741               0.006557584              -0.001868373              -0.001764597               0.002774038               0.001009441               0.000000000               0.000000000               0.000000000               0.000000000              -0.002047725               0.006472264              -0.001659365              -0.001576927               0.002683042               0.001106115               0.000000000               0.000000000               0.000000000               0.000000000              -0.001588391               0.006327360              -0.001463109              -0.001386564               0.002571286               0.001184723               0.000000000               0.000000000               0.000000000               0.000000000              -0.001141068               0.006148970              -0.001274637              -0.001196519               0.002448476               0.001251957               0.000000000               0.000000000               0.000000000               0.000000000              -0.000715923               0.005952313              -0.001090548              -0.001012508               0.002321587               0.001309079               0.000000000               0.000000000               0.000000000               0.000000000              -0.000331965               0.005747173              -0.000905470              -0.000842882               0.002196666               0.001353784               0.000000000               0.000000000               0.000000000               0.000000000              -0.000000785               0.005543337              -0.000714724              -0.000693210               0.002078830               0.001385620               0.000000000               0.000000000               0.000000000               0.000000000               0.000257067               0.005358399              -0.000519688              -0.000573399               0.001977248               0.001403849               0.000000000               0.000000000               0.000000000               0.000000000               0.000420493               0.005203164              -0.000329211              -0.000492709               0.001898607               0.001405898               0.000000000               0.000000000               0.000000000               0.000000000               0.000483388               0.005084475              -0.000153104              -0.000454288               0.001846237               0.001391950               0.000000000               0.000000000               0.000000000               0.000000000               0.000476075               0.005028899              -0.000066905              -0.000450083               0.001826310               0.001376227               0.000000000               0.000000000               0.000000000               0.000000000              -0.007699119               0.000085354               0.000809552              -0.002897836               0.000994390              -0.001903447               0.000000000               0.000000000               0.000000000               0.000000000              -0.005867409               0.001876567              -0.000892401              -0.002434846               0.001437128              -0.000997718               0.000000000               0.000000000               0.000000000               0.000000000              -0.004800290               0.003502020              -0.002348616              -0.002237857               0.001913278              -0.000324579               0.000000000               0.000000000               0.000000000               0.000000000              -0.004014712               0.004512477              -0.002631548              -0.002069572               0.002194000               0.000124428               0.000000000               0.000000000               0.000000000               0.000000000              -0.003373560               0.005125445              -0.002544467              -0.001905762               0.002343717               0.000437956               0.000000000               0.000000000               0.000000000               0.000000000              -0.002816716               0.005489126              -0.002350327              -0.001742406               0.002410492               0.000668086               0.000000000               0.000000000               0.000000000               0.000000000              -0.002323091               0.005690284              -0.002139760              -0.001582442               0.002424222               0.000841781               0.000000000               0.000000000               0.000000000               0.000000000              -0.001867055               0.005787643              -0.001934654              -0.001423598               0.002403727               0.000980129               0.000000000               0.000000000               0.000000000               0.000000000              -0.001425939               0.005813061              -0.001738034              -0.001261357               0.002358120               0.001096762               0.000000000               0.000000000               0.000000000               0.000000000              -0.000987994               0.005781213              -0.001551188              -0.001093147               0.002291434               0.001198286               0.000000000               0.000000000               0.000000000               0.000000000              -0.000559105               0.005702219              -0.001367376              -0.000922440               0.002208201               0.001285760               0.000000000               0.000000000               0.000000000               0.000000000              -0.000148169               0.005592256              -0.001179634              -0.000754594               0.002115598               0.001361004               0.000000000               0.000000000               0.000000000               0.000000000               0.000232373               0.005466914              -0.000979299              -0.000596223               0.002021027               0.001424804               0.000000000               0.000000000               0.000000000               0.000000000               0.000563880               0.005336006              -0.000755326              -0.000455545               0.001930499               0.001474954               0.000000000               0.000000000               0.000000000               0.000000000               0.000815939               0.005204684              -0.000512202              -0.000344608               0.001849746               0.001505139               0.000000000               0.000000000               0.000000000               0.000000000               0.000963495               0.005091275              -0.000258980              -0.000275098               0.001788774               0.001513676               0.000000000               0.000000000               0.000000000               0.000000000               0.001003428               0.005040174              -0.000129595              -0.000253735               0.001764620               0.001510884               0.000000000               0.000000000               0.000000000               0.000000000              -0.009764870              -0.000622828               0.001093742              -0.003583970               0.000987040              -0.002596930               0.000000000               0.000000000               0.000000000               0.000000000              -0.006948900               0.000767784              -0.000551219              -0.002701808               0.001156523              -0.001545285               0.000000000               0.000000000               0.000000000               0.000000000              -0.005016046               0.001975979              -0.002019977              -0.002128012               0.001367987              -0.000760025               0.000000000               0.000000000               0.000000000               0.000000000              -0.003890314               0.002991890              -0.002404692              -0.001832851               0.001608235              -0.000224616               0.000000000               0.000000000               0.000000000               0.000000000              -0.003114038               0.003742585              -0.002409311              -0.001635584               0.001792709               0.000157125               0.000000000               0.000000000               0.000000000               0.000000000              -0.002510778               0.004279174              -0.002280809              -0.001476436               0.001918521               0.000442085               0.000000000               0.000000000               0.000000000               0.000000000              -0.002009322               0.004657313              -0.002114191              -0.001335658               0.001997640               0.000661983               0.000000000               0.000000000               0.000000000               0.000000000              -0.001563374               0.004925993              -0.001944725              -0.001202012               0.002042651               0.000840639               0.000000000               0.000000000               0.000000000               0.000000000              -0.001135426               0.005117331              -0.001779957              -0.001065449               0.002060909               0.000995460               0.000000000               0.000000000               0.000000000               0.000000000              -0.000709576               0.005239798              -0.001619157              -0.000921064               0.002053603               0.001132539               0.000000000               0.000000000               0.000000000               0.000000000              -0.000284253               0.005296344              -0.001457280              -0.000768637               0.002021642               0.001253006               0.000000000               0.000000000               0.000000000               0.000000000               0.000142839               0.005306183              -0.001291097              -0.000609707               0.001971945               0.001362238               0.000000000               0.000000000               0.000000000               0.000000000               0.000562623               0.005281574              -0.001107418              -0.000449213               0.001910244               0.001461032               0.000000000               0.000000000               0.000000000               0.000000000               0.000967369               0.005232210              -0.000892377              -0.000291263               0.001841140               0.001549877               0.000000000               0.000000000               0.000000000               0.000000000               0.001342729               0.005165705              -0.000640930              -0.000142190               0.001769281               0.001627091               0.000000000               0.000000000               0.000000000               0.000000000               0.001655486               0.005089170              -0.000343862              -0.000015340               0.001701486               0.001686146               0.000000000               0.000000000               0.000000000               0.000000000               0.001822194               0.005061917              -0.000188313               0.000050582               0.001670428               0.001721010               0.000000000               0.000000000               0.000000000               0.000000000              -0.011499427              -0.000994761               0.001007176              -0.004187937               0.001064385              -0.003123553               0.000000000               0.000000000               0.000000000               0.000000000              -0.007889122              -0.000025120              -0.000286397              -0.002955279               0.000976713              -0.001978566               0.000000000               0.000000000               0.000000000               0.000000000              -0.005206273               0.000742612              -0.001477011              -0.002045177               0.000929256              -0.001115921               0.000000000               0.000000000               0.000000000               0.000000000              -0.003750219               0.001678051              -0.001843806              -0.001616086               0.001098037              -0.000518049               0.000000000               0.000000000               0.000000000               0.000000000              -0.002832296               0.002492752              -0.001897325              -0.001373703               0.001288808              -0.000084894               0.000000000               0.000000000               0.000000000               0.000000000              -0.002179119               0.003145598              -0.001829653              -0.001210367               0.001451977               0.000241610               0.000000000               0.000000000               0.000000000               0.000000000              -0.001660588               0.003657939              -0.001721532              -0.001079961               0.001579287               0.000499326               0.000000000               0.000000000               0.000000000               0.000000000              -0.001210373               0.004060681              -0.001607121              -0.000961474               0.001674037               0.000712564               0.000000000               0.000000000               0.000000000               0.000000000              -0.000791388               0.004379240              -0.001492260              -0.000844174               0.001741123               0.000896949               0.000000000               0.000000000               0.000000000               0.000000000              -0.000380678               0.004626587              -0.001376064              -0.000721077               0.001782539               0.001061462               0.000000000               0.000000000               0.000000000               0.000000000               0.000039979               0.004812484              -0.001257870              -0.000586568               0.001799668               0.001213100               0.000000000               0.000000000               0.000000000               0.000000000               0.000480083               0.004949527              -0.001131602              -0.000438659               0.001796045               0.001357386               0.000000000               0.000000000               0.000000000               0.000000000               0.000937859               0.005036743              -0.000988342              -0.000277896               0.001771529               0.001493633               0.000000000               0.000000000               0.000000000               0.000000000               0.001422620               0.005087178              -0.000821081              -0.000102415               0.001729847               0.001627432               0.000000000               0.000000000               0.000000000               0.000000000               0.001938468               0.005106386              -0.000615978               0.000088626               0.001672570               0.001761196               0.000000000               0.000000000               0.000000000               0.000000000               0.002467350               0.005075709              -0.000345139               0.000290790               0.001594956               0.001885746               0.000000000               0.000000000               0.000000000               0.000000000               0.002831894               0.005082523              -0.000201813               0.000426641               0.001551944               0.001978585               0.000000000               0.000000000               0.000000000               0.000000000              -0.012664820              -0.001152544               0.000597914              -0.004605237               0.001150890              -0.003454347               0.000000000               0.000000000               0.000000000               0.000000000              -0.008535124              -0.000496269              -0.000112025              -0.003138636               0.000880783              -0.002257853               0.000000000               0.000000000               0.000000000               0.000000000              -0.005338273              -0.000058765              -0.000777846              -0.001994505               0.000645242              -0.001349263               0.000000000               0.000000000               0.000000000               0.000000000              -0.003643602               0.000783736              -0.001002052              -0.001464316               0.000749345              -0.000714971               0.000000000               0.000000000               0.000000000               0.000000000              -0.002619718               0.001615889              -0.001048312              -0.001184378               0.000933416              -0.000250963               0.000000000               0.000000000               0.000000000               0.000000000              -0.001918191               0.002334272              -0.001022861              -0.001011103               0.001115117               0.000104013               0.000000000               0.000000000               0.000000000               0.000000000              -0.001378490               0.002924584              -0.000972946              -0.000882505               0.001269020               0.000386515               0.000000000               0.000000000               0.000000000               0.000000000              -0.000923202               0.003405406              -0.000916416              -0.000771875               0.001392415               0.000620540               0.000000000               0.000000000               0.000000000               0.000000000              -0.000508207               0.003802302              -0.000857942              -0.000665864               0.001489376               0.000823512               0.000000000               0.000000000               0.000000000               0.000000000              -0.000102254               0.004134891              -0.000799204              -0.000555206               0.001563352               0.001008146               0.000000000               0.000000000               0.000000000               0.000000000               0.000316566               0.004411834              -0.000738871              -0.000432766               0.001614852               0.001182086               0.000000000               0.000000000               0.000000000               0.000000000               0.000765061               0.004636543              -0.000670445              -0.000292670               0.001643055               0.001350386               0.000000000               0.000000000               0.000000000               0.000000000               0.001258596               0.004807979              -0.000590131              -0.000129024               0.001645652               0.001516628               0.000000000               0.000000000               0.000000000               0.000000000               0.001813960               0.004937935              -0.000497934               0.000062992               0.001624965               0.001687957               0.000000000               0.000000000               0.000000000               0.000000000               0.002444291               0.005024095              -0.000381995               0.000288594               0.001578483               0.001867078               0.000000000               0.000000000               0.000000000               0.000000000               0.003158627               0.005037795              -0.000218554               0.000554755               0.001494330               0.002049085               0.000000000               0.000000000               0.000000000               0.000000000               0.003706086               0.005082600              -0.000132919               0.000754450               0.001442700               0.002197149               0.000000000               0.000000000               0.000000000               0.000000000              -0.013077234              -0.001194386               0.000000000              -0.004754662               0.001186751              -0.003567911               0.000000000               0.000000000               0.000000000               0.000000000              -0.008766077              -0.000653172               0.000000000              -0.003205630               0.000850814              -0.002354817               0.000000000               0.000000000               0.000000000               0.000000000              -0.005385990              -0.000337026               0.000000000              -0.001977617               0.000546860              -0.001430757               0.000000000               0.000000000               0.000000000               0.000000000              -0.003604245               0.000465819              -0.000000000              -0.001409818               0.000625208              -0.000784610               0.000000000               0.000000000               0.000000000               0.000000000              -0.002540795               0.001299282               0.000000000              -0.001115206               0.000804824              -0.000310382               0.000000000               0.000000000               0.000000000               0.000000000              -0.001818621               0.002037182               0.000000000              -0.000936629               0.000991263               0.000054635               0.000000000               0.000000000               0.000000000               0.000000000              -0.001269793               0.002649949              -0.000000000              -0.000807414               0.001152446               0.000345031               0.000000000               0.000000000               0.000000000               0.000000000              -0.000812543               0.003158121              -0.000000000              -0.000699467               0.001285852               0.000586385               0.000000000               0.000000000               0.000000000               0.000000000              -0.000395343               0.003586621              -0.000000000              -0.000596580               0.001394388               0.000797808               0.000000000               0.000000000               0.000000000               0.000000000               0.000011485               0.003948566              -0.000000000              -0.000489263               0.001479263               0.000990000               0.000000000               0.000000000               0.000000000               0.000000000               0.000430334               0.004255744               0.000000000              -0.000370592               0.001542098               0.001171506               0.000000000               0.000000000               0.000000000               0.000000000               0.000882505               0.004512286              -0.000000000              -0.000233096               0.001581779               0.001348683               0.000000000               0.000000000               0.000000000               0.000000000               0.001389957               0.004710755              -0.000000000              -0.000067611               0.001592773               0.001525162               0.000000000               0.000000000               0.000000000               0.000000000               0.001972454               0.004864652               0.000000000               0.000131587               0.001577672               0.001709259               0.000000000               0.000000000               0.000000000               0.000000000               0.002645863               0.004977439               0.000000000               0.000370015               0.001535791               0.001905806               0.000000000               0.000000000               0.000000000               0.000000000               0.003432586               0.005015902              -0.000000000               0.000660225               0.001451875               0.002112101               0.000000000               0.000000000               0.000000000               0.000000000               0.004051951               0.005079454              -0.000000000               0.000884541               0.001398287               0.002282828               0.000000000               0.000000000               0.000000000               0.000000000               0.000000000               0.000000000               0.000000000               0.000000000               0.000000000               0.000000000               0.000000000               0.000000000               0.000000000               0.000000000               0.000000000               0.000000000               0.000000000               0.000000000               0.000000000               0.000000000               0.000000000               0.000000000               0.000000000               0.000000000               0.000000000               0.000000000               0.000000000               0.000000000               0.000000000               0.000000000               0.000000000               0.000000000               0.000000000               0.000000000               0.000000000               0.000000000               0.000000000               0.000000000               0.000000000               0.000000000               0.000000000               0.000000000               0.000000000               0.000000000               0.000000000               0.000000000               0.000000000               0.000000000               0.000000000               0.000000000               0.000000000               0.000000000               0.000000000               0.000000000               0.000000000               0.000000000               0.000000000               0.000000000               0.000000000               0.000000000               0.000000000               0.000000000               0.000000000               0.000000000               0.000000000               0.000000000               0.000000000               0.000000000               0.000000000               0.000000000               0.000000000               0.000000000               0.000000000               0.000000000               0.000000000               0.000000000               0.000000000               0.000000000               0.000000000               0.000000000               0.000000000               0.000000000               0.000000000               0.000000000               0.000000000               0.000000000               0.000000000               0.000000000               0.000000000               0.000000000               0.000000000               0.000000000               0.000000000               0.000000000               0.000000000               0.000000000               0.000000000               0.000000000               0.000000000               0.000000000               0.000000000               0.000000000               0.000000000               0.000000000               0.000000000               0.000000000               0.000000000               0.000000000               0.000000000               0.000000000               0.000000000               0.000000000               0.000000000               0.000000000               0.000000000               0.000000000               0.000000000               0.000000000               0.000000000               0.000000000               0.000000000               0.000000000               0.000000000               0.000000000               0.000000000               0.000000000               0.000000000               0.000000000               0.000000000               0.000000000               0.000000000               0.000000000               0.000000000               0.000000000               0.000000000               0.000000000               0.000000000               0.000000000               0.000000000               0.000000000               0.000000000               0.000000000               0.000000000               0.000000000               0.000000000               0.000000000               0.000000000               0.000000000               0.000000000               0.000000000               0.000000000               0.000000000               0.000000000               0.000000000               0.000000000               0.000000000               0.000000000               0.000000000               0.000000000               0.000000000               0.000000000               0.000000000               0.000000000               0.000000000               0.000000000               0.000000000               0.000000000               0.000000000               0.000000000               0.000000000               0.000000000               0.000000000               0.000000000               0.000000000               0.002325867               0.023889047               0.001647950              -0.002113926               0.008667578               0.006553652               0.000000000               0.000000000               0.000000000               0.000000000               0.002136251               0.018588026               0.000794009              -0.001522405               0.006703415               0.005181010               0.000000000               0.000000000               0.000000000               0.000000000               0.002650520               0.014306438              -0.000051605              -0.000794358               0.005033551               0.004239193               0.000000000               0.000000000               0.000000000               0.000000000               0.002425385               0.011869536              -0.000399142              -0.000574171               0.004147863               0.003573691               0.000000000               0.000000000               0.000000000               0.000000000               0.002012929               0.010308352              -0.000533667              -0.000533695               0.003613981               0.003080287               0.000000000               0.000000000               0.000000000               0.000000000               0.001594108               0.009211073              -0.000578253              -0.000553593               0.003254858               0.002701265               0.000000000               0.000000000               0.000000000               0.000000000               0.001209158               0.008385652              -0.000585359              -0.000594771               0.002993446               0.002398675               0.000000000               0.000000000               0.000000000               0.000000000               0.000868359               0.007726600              -0.000573287              -0.000640189               0.002788904               0.002148715               0.000000000               0.000000000               0.000000000               0.000000000               0.000578848               0.007161110              -0.000546509              -0.000678069               0.002613036               0.001934967               0.000000000               0.000000000               0.000000000               0.000000000               0.000340023               0.006643387              -0.000514774              -0.000702913               0.002448745               0.001745832               0.000000000               0.000000000               0.000000000               0.000000000               0.000151344               0.006147990              -0.000481632              -0.000711743               0.002286557               0.001574814               0.000000000               0.000000000               0.000000000               0.000000000               0.000011360               0.005654608              -0.000444967              -0.000702564               0.002119038               0.001416474               0.000000000               0.000000000               0.000000000               0.000000000              -0.000083530               0.005144900              -0.000401492              -0.000674435               0.001939761               0.001265326               0.000000000               0.000000000               0.000000000               0.000000000              -0.000135013               0.004600521              -0.000340541              -0.000625693               0.001742056               0.001116363               0.000000000               0.000000000               0.000000000               0.000000000              -0.000137202               0.004005490              -0.000255170              -0.000552136               0.001519195               0.000967059               0.000000000               0.000000000               0.000000000               0.000000000              -0.000085112               0.003346662              -0.000141180              -0.000450249               0.001265626               0.000815377               0.000000000               0.000000000               0.000000000               0.000000000              -0.000100024               0.002849611              -0.000087041              -0.000393710               0.001081098               0.000687388               0.000000000               0.000000000               0.000000000               0.000000000               0.002504867               0.022427620               0.003056009              -0.001864124               0.008097173               0.006233049               0.000000000               0.000000000               0.000000000               0.000000000               0.001960817               0.017658142               0.001472010              -0.001471958               0.006376641               0.004904683               0.000000000               0.000000000               0.000000000               0.000000000               0.002099333               0.013928906              -0.000080750              -0.000953861               0.004960876               0.004007015               0.000000000               0.000000000               0.000000000               0.000000000               0.001745659               0.011767575              -0.000699247              -0.000816323               0.004194593               0.003378270               0.000000000               0.000000000               0.000000000               0.000000000               0.001314872               0.010348465              -0.000930046              -0.000800479               0.003716280               0.002915801               0.000000000               0.000000000               0.000000000               0.000000000               0.000923077               0.009327697              -0.001004040              -0.000819806               0.003382470               0.002562664               0.000000000               0.000000000               0.000000000               0.000000000               0.000592209               0.008549080              -0.001013090              -0.000846555               0.003131850               0.002285295               0.000000000               0.000000000               0.000000000               0.000000000               0.000317792               0.007909082              -0.000985727              -0.000869461               0.002926155               0.002056693               0.000000000               0.000000000               0.000000000               0.000000000               0.000101165               0.007340871              -0.000933342              -0.000879670               0.002740156               0.001860486               0.000000000               0.000000000               0.000000000               0.000000000              -0.000059019               0.006808271              -0.000875437              -0.000873164               0.002560456               0.001687292               0.000000000               0.000000000               0.000000000               0.000000000              -0.000167995               0.006294829              -0.000817511              -0.000849850               0.002381538               0.001531689               0.000000000               0.000000000               0.000000000               0.000000000              -0.000227183               0.005789164              -0.000753626              -0.000808837               0.002199314               0.001390477               0.000000000               0.000000000               0.000000000               0.000000000              -0.000239441               0.005284541              -0.000675614              -0.000750356               0.002011615               0.001261258               0.000000000               0.000000000               0.000000000               0.000000000              -0.000220819               0.004772618              -0.000569018              -0.000679383               0.001817318               0.001137935               0.000000000               0.000000000               0.000000000               0.000000000              -0.000173964               0.004254005              -0.000424143              -0.000596986               0.001616983               0.001019997               0.000000000               0.000000000               0.000000000               0.000000000              -0.000095471               0.003735019              -0.000233574              -0.000502678               0.001412553               0.000909875               0.000000000               0.000000000               0.000000000               0.000000000              -0.000088924               0.003373826              -0.000141328              -0.000455074               0.001276289               0.000821215               0.000000000               0.000000000               0.000000000               0.000000000               0.002668567               0.020205177               0.004050465              -0.001524933               0.007243302               0.005718369               0.000000000               0.000000000               0.000000000               0.000000000               0.001637638               0.016266763               0.001957689              -0.001419229               0.005895276               0.004476047               0.000000000               0.000000000               0.000000000               0.000000000               0.001257132               0.013360055              -0.000065006              -0.001198579               0.004852834               0.003654254               0.000000000               0.000000000               0.000000000               0.000000000               0.000755682               0.011589269              -0.000826593              -0.001165275               0.004251476               0.003086201               0.000000000               0.000000000               0.000000000               0.000000000               0.000334721               0.010360659              -0.001096667              -0.001169559               0.003843371               0.002673812               0.000000000               0.000000000               0.000000000               0.000000000               0.000008733               0.009443480              -0.001177217              -0.001177158               0.003540181               0.002363024               0.000000000               0.000000000               0.000000000               0.000000000              -0.000235065               0.008708110              -0.001181561              -0.001176661               0.003294894               0.002118234               0.000000000               0.000000000               0.000000000               0.000000000              -0.000406267               0.008076387              -0.001142821              -0.001161896               0.003079401               0.001917505               0.000000000               0.000000000               0.000000000               0.000000000              -0.000513404               0.007496615              -0.001075674              -0.001129601               0.002875380               0.001745779               0.000000000               0.000000000               0.000000000               0.000000000              -0.000556593               0.006948135              -0.001004100              -0.001077237               0.002675101               0.001597864               0.000000000               0.000000000               0.000000000               0.000000000              -0.000546875               0.006422323              -0.000932998              -0.001007866               0.002476708               0.001468842               0.000000000               0.000000000               0.000000000               0.000000000              -0.000497489               0.005915494              -0.000853115              -0.000925993               0.002280476               0.001354483               0.000000000               0.000000000               0.000000000               0.000000000              -0.000416054               0.005430853              -0.000755582              -0.000834875               0.002088558               0.001253683               0.000000000               0.000000000               0.000000000               0.000000000              -0.000316442               0.004974141              -0.000625263              -0.000740432               0.001904841               0.001164409               0.000000000               0.000000000               0.000000000               0.000000000              -0.000211812               0.004556121              -0.000457461              -0.000648943               0.001735006               0.001086063               0.000000000               0.000000000               0.000000000               0.000000000              -0.000106045               0.004197399              -0.000249843              -0.000564441               0.001587266               0.001022825               0.000000000               0.000000000               0.000000000               0.000000000              -0.000075362               0.003985401              -0.000146975              -0.000526434               0.001503932               0.000977497               0.000000000               0.000000000               0.000000000               0.000000000               0.002674545               0.017502693               0.004536756              -0.001184883               0.006229133               0.005044250               0.000000000               0.000000000               0.000000000               0.000000000               0.001140548               0.014599392               0.002224184              -0.001397216               0.005332154               0.003934937               0.000000000               0.000000000               0.000000000               0.000000000               0.000224913               0.012662885               0.000025494              -0.001498514               0.004720424               0.003221910               0.000000000               0.000000000               0.000000000               0.000000000              -0.000375864               0.011316132              -0.000749444              -0.001555462               0.004290494               0.002735032               0.000000000               0.000000000               0.000000000               0.000000000              -0.000734206               0.010289233              -0.001008192              -0.001561478               0.003950203               0.002388725               0.000000000               0.000000000               0.000000000               0.000000000              -0.000948975               0.009461830              -0.001079583              -0.001538591               0.003666775               0.002128184               0.000000000               0.000000000               0.000000000               0.000000000              -0.001067946               0.008755563              -0.001083035              -0.001494922               0.003416799               0.001921877               0.000000000               0.000000000               0.000000000               0.000000000              -0.001100822               0.008122216              -0.001047415              -0.001428082               0.003183405               0.001755323               0.000000000               0.000000000               0.000000000               0.000000000              -0.001069178               0.007529322              -0.000981341              -0.001342104               0.002957117               0.001615013               0.000000000               0.000000000               0.000000000               0.000000000              -0.000987525               0.006969421              -0.000908386              -0.001241496               0.002736949               0.001495453               0.000000000               0.000000000               0.000000000               0.000000000              -0.000866322               0.006442385              -0.000832838              -0.001130166               0.002524162               0.001393996               0.000000000               0.000000000               0.000000000               0.000000000              -0.000716835               0.005952291              -0.000746225              -0.001012847               0.002321693               0.001308846               0.000000000               0.000000000               0.000000000               0.000000000              -0.000551798               0.005505917              -0.000642385              -0.000895162               0.002133674               0.001238513               0.000000000               0.000000000               0.000000000               0.000000000              -0.000387487               0.005113006              -0.000511653              -0.000784431               0.001965795               0.001181364               0.000000000               0.000000000               0.000000000               0.000000000              -0.000234346               0.004790516              -0.000356630              -0.000686693               0.001825720               0.001139028               0.000000000               0.000000000               0.000000000               0.000000000              -0.000104792               0.004557613              -0.000185798              -0.000608997               0.001722188               0.001113191               0.000000000               0.000000000               0.000000000               0.000000000              -0.000058447               0.004448282              -0.000103362              -0.000577952               0.001675396               0.001097445               0.000000000               0.000000000               0.000000000               0.000000000               0.002390162               0.014591820               0.004528562              -0.000927668               0.005173113               0.004245445               0.000000000               0.000000000               0.000000000               0.000000000               0.000459201               0.012831430               0.002302011              -0.001431726               0.004754342               0.003322616               0.000000000               0.000000000               0.000000000               0.000000000              -0.000884121               0.011896533               0.000213895              -0.001818608               0.004571674               0.002753066               0.000000000               0.000000000               0.000000000               0.000000000              -0.001477421               0.010941467              -0.000477838              -0.001921711               0.004287690               0.002365978               0.000000000               0.000000000               0.000000000               0.000000000              -0.001712793               0.010085507              -0.000700611              -0.001902981               0.003996129               0.002093148               0.000000000               0.000000000               0.000000000               0.000000000              -0.001772209               0.009330093              -0.000767542              -0.001830836               0.003720278               0.001889443               0.000000000               0.000000000               0.000000000               0.000000000              -0.001731222               0.008644236              -0.000782710              -0.001729734               0.003457961               0.001728227               0.000000000               0.000000000               0.000000000               0.000000000              -0.001619545               0.008003332              -0.000763068              -0.001607742               0.003203665               0.001595923               0.000000000               0.000000000               0.000000000               0.000000000              -0.001452614               0.007401333              -0.000712907              -0.001469893               0.002957051               0.001487158               0.000000000               0.000000000               0.000000000               0.000000000              -0.001252627               0.006845379              -0.000653815              -0.001325404               0.002723571               0.001398167               0.000000000               0.000000000               0.000000000               0.000000000              -0.001036494               0.006339948              -0.000589802              -0.001181176               0.002507020               0.001325844               0.000000000               0.000000000               0.000000000               0.000000000              -0.000812541               0.005889314              -0.000514973              -0.001040865               0.002310040               0.001269175               0.000000000               0.000000000               0.000000000               0.000000000              -0.000596079               0.005500350              -0.000425634              -0.000911071               0.002137122               0.001226051               0.000000000               0.000000000               0.000000000               0.000000000              -0.000399087               0.005179367              -0.000319273              -0.000797077               0.001992130               0.001195054               0.000000000               0.000000000               0.000000000               0.000000000              -0.000228541               0.004940162              -0.000205937              -0.000703221               0.001881111               0.001177890               0.000000000               0.000000000               0.000000000               0.000000000              -0.000097368               0.004791604              -0.000099432              -0.000635462               0.001809006               0.001173544               0.000000000               0.000000000               0.000000000               0.000000000              -0.000050086               0.004732722              -0.000052950              -0.000610371               0.001781015               0.001170644               0.000000000               0.000000000               0.000000000               0.000000000               0.001752701               0.011710694               0.004110308              -0.000806576               0.004172383               0.003365807               0.000000000               0.000000000               0.000000000               0.000000000              -0.000361650               0.011105568               0.002248653              -0.001523812               0.004209756               0.002685944               0.000000000               0.000000000               0.000000000               0.000000000              -0.001946445               0.011090390               0.000509568              -0.002116210               0.004402163               0.002285953               0.000000000               0.000000000               0.000000000               0.000000000              -0.002414144               0.010460006              -0.000048487              -0.002212799               0.004224234               0.002011434               0.000000000               0.000000000               0.000000000               0.000000000              -0.002464625               0.009736057              -0.000246731              -0.002141236               0.003959065               0.001817829               0.000000000               0.000000000               0.000000000               0.000000000              -0.002349182               0.009031597              -0.000327668              -0.002009888               0.003680465               0.001670577               0.000000000               0.000000000               0.000000000               0.000000000              -0.002149663               0.008361912              -0.000370119              -0.001851358               0.003404395               0.001553037               0.000000000               0.000000000               0.000000000               0.000000000              -0.001895022               0.007731515              -0.000382794              -0.001677068               0.003136169               0.001459100               0.000000000               0.000000000               0.000000000               0.000000000              -0.001608127               0.007143383              -0.000367319              -0.001495967               0.002879759               0.001383793               0.000000000               0.000000000               0.000000000               0.000000000              -0.001309984               0.006616610              -0.000341647              -0.001318317               0.002644954               0.001326637               0.000000000               0.000000000               0.000000000               0.000000000              -0.001022538               0.006156484              -0.000307678              -0.001153009               0.002436477               0.001283468               0.000000000               0.000000000               0.000000000               0.000000000              -0.000755643               0.005762060              -0.000263273              -0.001003621               0.002255208               0.001251587               0.000000000               0.000000000               0.000000000               0.000000000              -0.000519860               0.005438011              -0.000208410              -0.000874697               0.002104218               0.001229521               0.000000000               0.000000000               0.000000000               0.000000000              -0.000323529               0.005190896              -0.000143254              -0.000770183               0.001987009               0.001216826               0.000000000               0.000000000               0.000000000               0.000000000              -0.000171381               0.005024769              -0.000082404              -0.000692362               0.001905694               0.001213331               0.000000000               0.000000000               0.000000000               0.000000000              -0.000068220               0.004932336              -0.000036158              -0.000642123               0.001858137               0.001216014               0.000000000               0.000000000               0.000000000               0.000000000              -0.000035163               0.004897679              -0.000019766              -0.000625394               0.001841008               0.001215614               0.000000000               0.000000000               0.000000000               0.000000000               0.000785225               0.009040633               0.003390998              -0.000835621               0.003292053               0.002456433               0.000000000               0.000000000               0.000000000               0.000000000              -0.001272536               0.009519076               0.002125927              -0.001667083               0.003728687               0.002061605               0.000000000               0.000000000               0.000000000               0.000000000              -0.002849039               0.010245328               0.000905510              -0.002349050               0.004198092               0.001849042               0.000000000               0.000000000               0.000000000               0.000000000              -0.003091189               0.009861577               0.000468101              -0.002391887               0.004084455               0.001692568               0.000000000               0.000000000               0.000000000               0.000000000              -0.002938066               0.009246540               0.000264955              -0.002257587               0.003834678               0.001577092               0.000000000               0.000000000               0.000000000               0.000000000              -0.002655682               0.008595601               0.000145755              -0.002070326               0.003555280               0.001484955               0.000000000               0.000000000               0.000000000               0.000000000              -0.002311005               0.007966012               0.000057011              -0.001862374               0.003276102               0.001413728               0.000000000               0.000000000               0.000000000               0.000000000              -0.001930132               0.007368203              -0.000000960              -0.001644821               0.003004317               0.001359496               0.000000000               0.000000000               0.000000000               0.000000000              -0.001544573               0.006818590              -0.000030203              -0.001431535               0.002750019               0.001318484               0.000000000               0.000000000               0.000000000               0.000000000              -0.001175668               0.006341217              -0.000051531              -0.001233524               0.002524893               0.001291368               0.000000000               0.000000000               0.000000000               0.000000000              -0.000845306               0.005935203              -0.000061688              -0.001058888               0.002331344               0.001272456               0.000000000               0.000000000               0.000000000               0.000000000              -0.000568218               0.005598228              -0.000057597              -0.000912858               0.002170343               0.001257485               0.000000000               0.000000000               0.000000000               0.000000000              -0.000347784               0.005335276              -0.000046765              -0.000797326               0.002044183               0.001246857               0.000000000               0.000000000               0.000000000               0.000000000              -0.000183749               0.005153109              -0.000028668              -0.000713043               0.001955367               0.001242324               0.000000000               0.000000000               0.000000000               0.000000000              -0.000076558               0.005043451              -0.000011863              -0.000659139               0.001900846               0.001241708               0.000000000               0.000000000               0.000000000               0.000000000              -0.000021534               0.004987270              -0.000003990              -0.000631483               0.001872901               0.001241418               0.000000000               0.000000000               0.000000000               0.000000000              -0.000008354               0.004967986              -0.000003580              -0.000624129               0.001864022               0.001239892               0.000000000               0.000000000               0.000000000               0.000000000              -0.000383432               0.006777676               0.002501960              -0.000990996               0.002589534               0.001598538               0.000000000               0.000000000               0.000000000               0.000000000              -0.002164944               0.008097826               0.001984733              -0.001824078               0.003307274               0.001483196               0.000000000               0.000000000               0.000000000               0.000000000              -0.003551011               0.009402172               0.001376794              -0.002506895               0.003969657               0.001462763               0.000000000               0.000000000               0.000000000               0.000000000              -0.003548183               0.009270962               0.001014479              -0.002489433               0.003920101               0.001430668               0.000000000               0.000000000               0.000000000               0.000000000              -0.003220691               0.008795678               0.000779025              -0.002307213               0.003700934               0.001393721               0.000000000               0.000000000               0.000000000               0.000000000              -0.002804125               0.008238318               0.000606885              -0.002081332               0.003439856               0.001358524               0.000000000               0.000000000               0.000000000               0.000000000              -0.002351028               0.007678009               0.000472698              -0.001841382               0.003173105               0.001331723               0.000000000               0.000000000               0.000000000               0.000000000              -0.001879571               0.007131765               0.000368520              -0.001596306               0.002909333               0.001313027               0.000000000               0.000000000               0.000000000               0.000000000              -0.001415100               0.006633559               0.000284858              -0.001359854               0.002664449               0.001304595               0.000000000               0.000000000               0.000000000               0.000000000              -0.000994279               0.006201717               0.000211308              -0.001148067               0.002449907               0.001301841               0.000000000               0.000000000               0.000000000               0.000000000              -0.000640021               0.005828181               0.000150979              -0.000968528               0.002265550               0.001297022               0.000000000               0.000000000               0.000000000               0.000000000              -0.000364667               0.005518250               0.000103498              -0.000826529               0.002114908               0.001288379               0.000000000               0.000000000               0.000000000               0.000000000              -0.000169113               0.005285020               0.000064387              -0.000724043               0.002003003               0.001278960               0.000000000               0.000000000               0.000000000               0.000000000              -0.000049346               0.005126243               0.000034766              -0.000659283               0.001928492               0.001269208               0.000000000               0.000000000               0.000000000               0.000000000               0.000007725               0.005036266               0.000015220              -0.000626635               0.001887617               0.001260982               0.000000000               0.000000000               0.000000000               0.000000000               0.000020009               0.004997547               0.000003104              -0.000617188               0.001871562               0.001254373               0.000000000               0.000000000               0.000000000               0.000000000               0.000017018               0.004988660              -0.000001173              -0.000617199               0.001868603               0.001251404               0.000000000               0.000000000               0.000000000               0.000000000              -0.001759305               0.004678414               0.001560571              -0.001244539               0.001974302               0.000729763               0.000000000               0.000000000               0.000000000               0.000000000              -0.002921914               0.006459258               0.001822027              -0.001903121               0.002787438               0.000884317               0.000000000               0.000000000               0.000000000               0.000000000              -0.003971801               0.008181706               0.001868951              -0.002512133               0.003564585               0.001052452               0.000000000               0.000000000               0.000000000               0.000000000              -0.003828986               0.008434768               0.001595160              -0.002490210               0.003641631               0.001151421               0.000000000               0.000000000               0.000000000               0.000000000              -0.003417645               0.008222920               0.001328509              -0.002309476               0.003510771               0.001201295               0.000000000               0.000000000               0.000000000               0.000000000              -0.002949481               0.007860698               0.001106798              -0.002088638               0.003316419               0.001227781               0.000000000               0.000000000               0.000000000               0.000000000              -0.002466469               0.007456456               0.000929679              -0.001856978               0.003104453               0.001247475               0.000000000               0.000000000               0.000000000               0.000000000              -0.001977594               0.007042526               0.000780534              -0.001621910               0.002888122               0.001266212               0.000000000               0.000000000               0.000000000               0.000000000              -0.001498337               0.006637981               0.000645311              -0.001391620               0.002676512               0.001284891               0.000000000               0.000000000               0.000000000               0.000000000              -0.001054950               0.006265715               0.000521518              -0.001178818               0.002481490               0.001302672               0.000000000               0.000000000               0.000000000               0.000000000              -0.000673825               0.005929487               0.000407836              -0.000993868               0.002307765               0.001313897               0.000000000               0.000000000               0.000000000               0.000000000              -0.000368968               0.005634220               0.000301493              -0.000842639               0.002158934               0.001316296               0.000000000               0.000000000               0.000000000               0.000000000              -0.000150894               0.005388098               0.000204100              -0.000730096               0.002039380               0.001309284               0.000000000               0.000000000               0.000000000               0.000000000              -0.000015049               0.005201885               0.000120491              -0.000655878               0.001952570               0.001296693               0.000000000               0.000000000               0.000000000               0.000000000               0.000052893               0.005083648               0.000055317              -0.000615620               0.001899739               0.001284119               0.000000000               0.000000000               0.000000000               0.000000000               0.000069488               0.005023437               0.000015646              -0.000601870               0.001875086               0.001273216               0.000000000               0.000000000               0.000000000               0.000000000               0.000064069               0.005005663               0.000001973              -0.000601680               0.001869098               0.001267417               0.000000000               0.000000000               0.000000000               0.000000000              -0.003520816               0.002773367               0.000633603              -0.001666974               0.001480103              -0.000186871               0.000000000               0.000000000               0.000000000               0.000000000              -0.003779608               0.004807367               0.001585471              -0.002018270               0.002275195               0.000256926               0.000000000               0.000000000               0.000000000               0.000000000              -0.004301190               0.006760418               0.002257016              -0.002457993               0.003072780               0.000614787               0.000000000               0.000000000               0.000000000               0.000000000              -0.004024917               0.007383126               0.002149372              -0.002432229               0.003271760               0.000839531               0.000000000               0.000000000               0.000000000               0.000000000              -0.003556348               0.007477323               0.001896131              -0.002268291               0.003248513               0.000980222               0.000000000               0.000000000               0.000000000               0.000000000              -0.003058131               0.007357775               0.001642656              -0.002066516               0.003141406               0.001074889               0.000000000               0.000000000               0.000000000               0.000000000              -0.002566416               0.007148562               0.001426819              -0.001855972               0.003001487               0.001145515               0.000000000               0.000000000               0.000000000               0.000000000              -0.002083190               0.006888592               0.001240657              -0.001642266               0.002843596               0.001201330               0.000000000               0.000000000               0.000000000               0.000000000              -0.001607126               0.006597798               0.001067148              -0.001427394               0.002675042               0.001247648               0.000000000               0.000000000               0.000000000               0.000000000              -0.001152214               0.006306578               0.000901494              -0.001220400               0.002508972               0.001288572               0.000000000               0.000000000               0.000000000               0.000000000              -0.000742252               0.006024770               0.000742039              -0.001031438               0.002352049               0.001320611               0.000000000               0.000000000               0.000000000               0.000000000              -0.000393662               0.005757938               0.000584962              -0.000867363               0.002208415               0.001341051               0.000000000               0.000000000               0.000000000               0.000000000              -0.000119810               0.005512623               0.000430639              -0.000734005               0.002082191               0.001348186               0.000000000               0.000000000               0.000000000               0.000000000               0.000067708               0.005305940               0.000287727              -0.000637850               0.001981246               0.001343395               0.000000000               0.000000000               0.000000000               0.000000000               0.000174499               0.005158140               0.000162256              -0.000579329               0.001912473               0.001333144               0.000000000               0.000000000               0.000000000               0.000000000               0.000206419               0.005062721               0.000064964              -0.000555432               0.001872701               0.001317269               0.000000000               0.000000000               0.000000000               0.000000000               0.000194229               0.005020252               0.000022156              -0.000554694               0.001858299               0.001303604               0.000000000               0.000000000               0.000000000               0.000000000              -0.005548036               0.001212247              -0.000196953              -0.002232041               0.001148089              -0.001083953               0.000000000               0.000000000               0.000000000               0.000000000              -0.004780577               0.003250597               0.001258948              -0.002199037               0.001816532              -0.000382505               0.000000000               0.000000000               0.000000000               0.000000000              -0.004568368               0.005154643               0.002426954              -0.002357463               0.002504017               0.000146554               0.000000000               0.000000000               0.000000000               0.000000000              -0.004074848               0.006034938               0.002526953              -0.002282430               0.002772435               0.000490005               0.000000000               0.000000000               0.000000000               0.000000000              -0.003536740               0.006417425               0.002342151              -0.002128451               0.002848603               0.000720152               0.000000000               0.000000000               0.000000000               0.000000000              -0.003015191               0.006553811               0.002098822              -0.001949919               0.002834554               0.000884635               0.000000000               0.000000000               0.000000000               0.000000000              -0.002519741               0.006557584               0.001868373              -0.001764597               0.002774038               0.001009441               0.000000000               0.000000000               0.000000000               0.000000000              -0.002047725               0.006472264               0.001659365              -0.001576927               0.002683042               0.001106115               0.000000000               0.000000000               0.000000000               0.000000000              -0.001588391               0.006327360               0.001463109              -0.001386564               0.002571286               0.001184723               0.000000000               0.000000000               0.000000000               0.000000000              -0.001141068               0.006148970               0.001274637              -0.001196519               0.002448476               0.001251957               0.000000000               0.000000000               0.000000000               0.000000000              -0.000715923               0.005952313               0.001090548              -0.001012508               0.002321587               0.001309079               0.000000000               0.000000000               0.000000000               0.000000000              -0.000331965               0.005747173               0.000905470              -0.000842882               0.002196666               0.001353784               0.000000000               0.000000000               0.000000000               0.000000000              -0.000000785               0.005543337               0.000714724              -0.000693210               0.002078830               0.001385620               0.000000000               0.000000000               0.000000000               0.000000000               0.000257067               0.005358399               0.000519688              -0.000573399               0.001977248               0.001403849               0.000000000               0.000000000               0.000000000               0.000000000               0.000420493               0.005203164               0.000329211              -0.000492709               0.001898607               0.001405898               0.000000000               0.000000000               0.000000000               0.000000000               0.000483388               0.005084475               0.000153104              -0.000454288               0.001846237               0.001391950               0.000000000               0.000000000               0.000000000               0.000000000               0.000476075               0.005028899               0.000066905              -0.000450083               0.001826310               0.001376227               0.000000000               0.000000000               0.000000000               0.000000000              -0.007699119               0.000085354              -0.000809552              -0.002897836               0.000994390              -0.001903447               0.000000000               0.000000000               0.000000000               0.000000000              -0.005867409               0.001876567               0.000892401              -0.002434846               0.001437128              -0.000997718               0.000000000               0.000000000               0.000000000               0.000000000              -0.004800290               0.003502020               0.002348616              -0.002237857               0.001913278              -0.000324579               0.000000000               0.000000000               0.000000000               0.000000000              -0.004014712               0.004512477               0.002631548              -0.002069572               0.002194000               0.000124428               0.000000000               0.000000000               0.000000000               0.000000000              -0.003373560               0.005125445               0.002544467              -0.001905762               0.002343717               0.000437956               0.000000000               0.000000000               0.000000000               0.000000000              -0.002816716               0.005489126               0.002350327              -0.001742406               0.002410492               0.000668086               0.000000000               0.000000000               0.000000000               0.000000000              -0.002323091               0.005690284               0.002139760              -0.001582442               0.002424222               0.000841781               0.000000000               0.000000000               0.000000000               0.000000000              -0.001867055               0.005787643               0.001934654              -0.001423598               0.002403727               0.000980129               0.000000000               0.000000000               0.000000000               0.000000000              -0.001425939               0.005813061               0.001738034              -0.001261357               0.002358120               0.001096762               0.000000000               0.000000000               0.000000000               0.000000000              -0.000987994               0.005781213               0.001551188              -0.001093147               0.002291434               0.001198286               0.000000000               0.000000000               0.000000000               0.000000000              -0.000559105               0.005702219               0.001367376              -0.000922440               0.002208201               0.001285760               0.000000000               0.000000000               0.000000000               0.000000000              -0.000148169               0.005592256               0.001179634              -0.000754594               0.002115598               0.001361004               0.000000000               0.000000000               0.000000000               0.000000000               0.000232373               0.005466914               0.000979299              -0.000596223               0.002021027               0.001424804               0.000000000               0.000000000               0.000000000               0.000000000               0.000563880               0.005336006               0.000755326              -0.000455545               0.001930499               0.001474954               0.000000000               0.000000000               0.000000000               0.000000000               0.000815939               0.005204684               0.000512202              -0.000344608               0.001849746               0.001505139               0.000000000               0.000000000               0.000000000               0.000000000               0.000963495               0.005091275               0.000258980              -0.000275098               0.001788774               0.001513676               0.000000000               0.000000000               0.000000000               0.000000000               0.001003428               0.005040174               0.000129595              -0.000253735               0.001764620               0.001510884               0.000000000               0.000000000               0.000000000               0.000000000              -0.009764870              -0.000622828              -0.001093742              -0.003583970               0.000987040              -0.002596930               0.000000000               0.000000000               0.000000000               0.000000000              -0.006948900               0.000767784               0.000551219              -0.002701808               0.001156523              -0.001545285               0.000000000               0.000000000               0.000000000               0.000000000              -0.005016046               0.001975979               0.002019977              -0.002128012               0.001367987              -0.000760025               0.000000000               0.000000000               0.000000000               0.000000000              -0.003890314               0.002991890               0.002404692              -0.001832851               0.001608235              -0.000224616               0.000000000               0.000000000               0.000000000               0.000000000              -0.003114038               0.003742585               0.002409311              -0.001635584               0.001792709               0.000157125               0.000000000               0.000000000               0.000000000               0.000000000              -0.002510778               0.004279174               0.002280809              -0.001476436               0.001918521               0.000442085               0.000000000               0.000000000               0.000000000               0.000000000              -0.002009322               0.004657313               0.002114191              -0.001335658               0.001997640               0.000661983               0.000000000               0.000000000               0.000000000               0.000000000              -0.001563374               0.004925993               0.001944725              -0.001202012               0.002042651               0.000840639               0.000000000               0.000000000               0.000000000               0.000000000              -0.001135426               0.005117331               0.001779957              -0.001065449               0.002060909               0.000995460               0.000000000               0.000000000               0.000000000               0.000000000              -0.000709576               0.005239798               0.001619157              -0.000921064               0.002053603               0.001132539               0.000000000               0.000000000               0.000000000               0.000000000              -0.000284253               0.005296344               0.001457280              -0.000768637               0.002021642               0.001253006               0.000000000               0.000000000               0.000000000               0.000000000               0.000142839               0.005306183               0.001291097              -0.000609707               0.001971945               0.001362238               0.000000000               0.000000000               0.000000000               0.000000000               0.000562623               0.005281574               0.001107418              -0.000449213               0.001910244               0.001461032               0.000000000               0.000000000               0.000000000               0.000000000               0.000967369               0.005232210               0.000892377              -0.000291263               0.001841140               0.001549877               0.000000000               0.000000000               0.000000000               0.000000000               0.001342729               0.005165705               0.000640930              -0.000142190               0.001769281               0.001627091               0.000000000               0.000000000               0.000000000               0.000000000               0.001655486               0.005089170               0.000343862              -0.000015340               0.001701486               0.001686146               0.000000000               0.000000000               0.000000000               0.000000000               0.001822194               0.005061917               0.000188313               0.000050582               0.001670428               0.001721010               0.000000000               0.000000000               0.000000000               0.000000000              -0.011499427              -0.000994761              -0.001007176              -0.004187937               0.001064385              -0.003123553               0.000000000               0.000000000               0.000000000               0.000000000              -0.007889122              -0.000025120               0.000286397              -0.002955279               0.000976713              -0.001978566               0.000000000               0.000000000               0.000000000               0.000000000              -0.005206273               0.000742612               0.001477011              -0.002045177               0.000929256              -0.001115921               0.000000000               0.000000000               0.000000000               0.000000000              -0.003750219               0.001678051               0.001843806              -0.001616086               0.001098037              -0.000518049               0.000000000               0.000000000               0.000000000               0.000000000              -0.002832296               0.002492752               0.001897325              -0.001373703               0.001288808              -0.000084894               0.000000000               0.000000000               0.000000000               0.000000000              -0.002179119               0.003145598               0.001829653              -0.001210367               0.001451977               0.000241610               0.000000000               0.000000000               0.000000000               0.000000000              -0.001660588               0.003657939               0.001721532              -0.001079961               0.001579287               0.000499326               0.000000000               0.000000000               0.000000000               0.000000000              -0.001210373               0.004060681               0.001607121              -0.000961474               0.001674037               0.000712564               0.000000000               0.000000000               0.000000000               0.000000000              -0.000791388               0.004379240               0.001492260              -0.000844174               0.001741123               0.000896949               0.000000000               0.000000000               0.000000000               0.000000000              -0.000380678               0.004626587               0.001376064              -0.000721077               0.001782539               0.001061462               0.000000000               0.000000000               0.000000000               0.000000000               0.000039979               0.004812484               0.001257870              -0.000586568               0.001799668               0.001213100               0.000000000               0.000000000               0.000000000               0.000000000               0.000480083               0.004949527               0.001131602              -0.000438659               0.001796045               0.001357386               0.000000000               0.000000000               0.000000000               0.000000000               0.000937859               0.005036743               0.000988342              -0.000277896               0.001771529               0.001493633               0.000000000               0.000000000               0.000000000               0.000000000               0.001422620               0.005087178               0.000821081              -0.000102415               0.001729847               0.001627432               0.000000000               0.000000000               0.000000000               0.000000000               0.001938468               0.005106386               0.000615978               0.000088626               0.001672570               0.001761196               0.000000000               0.000000000               0.000000000               0.000000000               0.002467350               0.005075709               0.000345139               0.000290790               0.001594956               0.001885746               0.000000000               0.000000000               0.000000000               0.000000000               0.002831894               0.005082523               0.000201813               0.000426641               0.001551944               0.001978585               0.000000000               0.000000000               0.000000000               0.000000000              -0.012664820              -0.001152544              -0.000597914              -0.004605237               0.001150890              -0.003454347               0.000000000               0.000000000               0.000000000               0.000000000              -0.008535124              -0.000496269               0.000112025              -0.003138636               0.000880783              -0.002257853               0.000000000               0.000000000               0.000000000               0.000000000              -0.005338273              -0.000058765               0.000777846              -0.001994505               0.000645242              -0.001349263               0.000000000               0.000000000               0.000000000               0.000000000              -0.003643602               0.000783736               0.001002052              -0.001464316               0.000749345              -0.000714971               0.000000000               0.000000000               0.000000000               0.000000000              -0.002619718               0.001615889               0.001048312              -0.001184378               0.000933416              -0.000250963               0.000000000               0.000000000               0.000000000               0.000000000              -0.001918191               0.002334272               0.001022861              -0.001011103               0.001115117               0.000104013               0.000000000               0.000000000               0.000000000               0.000000000              -0.001378490               0.002924584               0.000972946              -0.000882505               0.001269020               0.000386515               0.000000000               0.000000000               0.000000000               0.000000000              -0.000923202               0.003405406               0.000916416              -0.000771875               0.001392415               0.000620540               0.000000000               0.000000000               0.000000000               0.000000000              -0.000508207               0.003802302               0.000857942              -0.000665864               0.001489376               0.000823512               0.000000000               0.000000000               0.000000000               0.000000000              -0.000102254               0.004134891               0.000799204              -0.000555206               0.001563352               0.001008146               0.000000000               0.000000000               0.000000000               0.000000000               0.000316566               0.004411834               0.000738871              -0.000432766               0.001614852               0.001182086               0.000000000               0.000000000               0.000000000               0.000000000               0.000765061               0.004636543               0.000670445              -0.000292670               0.001643055               0.001350386               0.000000000               0.000000000               0.000000000               0.000000000               0.001258596               0.004807979               0.000590131              -0.000129024               0.001645652               0.001516628               0.000000000               0.000000000               0.000000000               0.000000000               0.001813960               0.004937935               0.000497934               0.000062992               0.001624965               0.001687957               0.000000000               0.000000000               0.000000000               0.000000000               0.002444291               0.005024095               0.000381995               0.000288594               0.001578483               0.001867078               0.000000000               0.000000000               0.000000000               0.000000000               0.003158627               0.005037795               0.000218554               0.000554755               0.001494330               0.002049085               0.000000000               0.000000000               0.000000000               0.000000000               0.003706086               0.005082600               0.000132919               0.000754450               0.001442700               0.002197149               0.000000000               0.000000000               0.000000000               0.000000000              -0.013077234              -0.001194386               0.000000000              -0.004754662               0.001186751              -0.003567911               0.000000000               0.000000000               0.000000000               0.000000000              -0.008766077              -0.000653172               0.000000000              -0.003205630               0.000850814              -0.002354817               0.000000000               0.000000000               0.000000000               0.000000000              -0.005385990              -0.000337026              -0.000000000              -0.001977617               0.000546860              -0.001430757               0.000000000               0.000000000               0.000000000               0.000000000              -0.003604245               0.000465819               0.000000000              -0.001409818               0.000625208              -0.000784610               0.000000000               0.000000000               0.000000000               0.000000000              -0.002540795               0.001299282               0.000000000              -0.001115206               0.000804824              -0.000310382               0.000000000               0.000000000               0.000000000               0.000000000              -0.001818621               0.002037182              -0.000000000              -0.000936629               0.000991263               0.000054635               0.000000000               0.000000000               0.000000000               0.000000000              -0.001269793               0.002649949              -0.000000000              -0.000807414               0.001152446               0.000345031               0.000000000               0.000000000               0.000000000               0.000000000              -0.000812543               0.003158121               0.000000000              -0.000699467               0.001285852               0.000586385               0.000000000               0.000000000               0.000000000               0.000000000              -0.000395343               0.003586621               0.000000000              -0.000596580               0.001394388               0.000797808               0.000000000               0.000000000               0.000000000               0.000000000               0.000011485               0.003948566              -0.000000000              -0.000489263               0.001479263               0.000990000               0.000000000               0.000000000               0.000000000               0.000000000               0.000430334               0.004255744              -0.000000000              -0.000370592               0.001542098               0.001171506               0.000000000               0.000000000               0.000000000               0.000000000               0.000882505               0.004512286               0.000000000              -0.000233096               0.001581779               0.001348683               0.000000000               0.000000000               0.000000000               0.000000000               0.001389957               0.004710755              -0.000000000              -0.000067611               0.001592773               0.001525162               0.000000000               0.000000000               0.000000000               0.000000000               0.001972454               0.004864652               0.000000000               0.000131587               0.001577672               0.001709259               0.000000000               0.000000000               0.000000000               0.000000000               0.002645863               0.004977439               0.000000000               0.000370015               0.001535791               0.001905806               0.000000000               0.000000000               0.000000000               0.000000000               0.003432586               0.005015902               0.000000000               0.000660225               0.001451875               0.002112101               0.000000000               0.000000000               0.000000000               0.000000000               0.004051951               0.005079454              -0.000000000               0.000884541               0.001398287               0.002282828               0.000000000               0.000000000               0.000000000               0.000000000               0.002247296               0.024396903               0.000000000              -0.002206871               0.008867843               0.006660972               0.000000000               0.000000000               0.000000000               0.000000000               0.002188114               0.018915270               0.000000000              -0.001543862               0.006819648               0.005275786               0.000000000               0.000000000               0.000000000               0.000000000               0.002839953               0.014438609              -0.000000000              -0.000739842               0.005059436               0.004319593               0.000000000               0.000000000               0.000000000               0.000000000               0.002669373               0.011903815               0.000000000              -0.000486961               0.004130219               0.003643258               0.000000000               0.000000000               0.000000000               0.000000000               0.002269141               0.010287370              -0.000000000              -0.000434992               0.003574087               0.003139094               0.000000000               0.000000000               0.000000000               0.000000000               0.001839928               0.009164717              -0.000000000              -0.000455616               0.003206747               0.002751131               0.000000000               0.000000000               0.000000000               0.000000000               0.001435569               0.008319396              -0.000000000              -0.000501585               0.002940299               0.002438714               0.000000000               0.000000000               0.000000000               0.000000000               0.001074614               0.007650449              -0.000000000              -0.000553324               0.002734566               0.002181241               0.000000000               0.000000000               0.000000000               0.000000000               0.000761680               0.007084155              -0.000000000              -0.000599888               0.002561324               0.001961436               0.000000000               0.000000000               0.000000000               0.000000000               0.000497712               0.006571874              -0.000000000              -0.000634841               0.002402216               0.001767376               0.000000000               0.000000000               0.000000000               0.000000000               0.000276946               0.006083669               0.000000000              -0.000656602               0.002246737               0.001590135               0.000000000               0.000000000               0.000000000               0.000000000               0.000101265               0.005596237               0.000000000              -0.000661554               0.002085912               0.001424358               0.000000000               0.000000000               0.000000000               0.000000000              -0.000028520               0.005087988              -0.000000000              -0.000646692               0.001911543               0.001264851               0.000000000               0.000000000               0.000000000               0.000000000              -0.000110100               0.004535535               0.000000000              -0.000608228               0.001714573               0.001106345               0.000000000               0.000000000               0.000000000               0.000000000              -0.000133839               0.003911553              -0.000000000              -0.000539133               0.001483549               0.000944416               0.000000000               0.000000000               0.000000000               0.000000000              -0.000089468               0.003197974              -0.000000000              -0.000433296               0.001210413               0.000777116               0.000000000               0.000000000               0.000000000               0.000000000              -0.000109679               0.002646343              -0.000000000              -0.000371922               0.001006079               0.000634158               0.000000000               0.000000000               0.000000000               0.000000000               0.002325867               0.023889047              -0.001647950              -0.002113926               0.008667578               0.006553652               0.000000000               0.000000000               0.000000000               0.000000000               0.002136251               0.018588026              -0.000794009              -0.001522405               0.006703415               0.005181010               0.000000000               0.000000000               0.000000000               0.000000000               0.002650520               0.014306438               0.000051605              -0.000794358               0.005033551               0.004239193               0.000000000               0.000000000               0.000000000               0.000000000               0.002425385               0.011869536               0.000399142              -0.000574171               0.004147863               0.003573691               0.000000000               0.000000000               0.000000000               0.000000000               0.002012929               0.010308352               0.000533667              -0.000533695               0.003613981               0.003080287               0.000000000               0.000000000               0.000000000               0.000000000               0.001594108               0.009211073               0.000578253              -0.000553593               0.003254858               0.002701265               0.000000000               0.000000000               0.000000000               0.000000000               0.001209158               0.008385652               0.000585359              -0.000594771               0.002993446               0.002398675               0.000000000               0.000000000               0.000000000               0.000000000               0.000868359               0.007726600               0.000573287              -0.000640189               0.002788904               0.002148715               0.000000000               0.000000000               0.000000000               0.000000000               0.000578848               0.007161110               0.000546509              -0.000678069               0.002613036               0.001934967               0.000000000               0.000000000               0.000000000               0.000000000               0.000340023               0.006643387               0.000514774              -0.000702913               0.002448745               0.001745832               0.000000000               0.000000000               0.000000000               0.000000000               0.000151344               0.006147990               0.000481632              -0.000711743               0.002286557               0.001574814               0.000000000               0.000000000               0.000000000               0.000000000               0.000011360               0.005654608               0.000444967              -0.000702564               0.002119038               0.001416474               0.000000000               0.000000000               0.000000000               0.000000000              -0.000083530               0.005144900               0.000401492              -0.000674435               0.001939761               0.001265326               0.000000000               0.000000000               0.000000000               0.000000000              -0.000135013               0.004600521               0.000340541              -0.000625693               0.001742056               0.001116363               0.000000000               0.000000000               0.000000000               0.000000000              -0.000137202               0.004005490               0.000255170              -0.000552136               0.001519195               0.000967059               0.000000000               0.000000000               0.000000000               0.000000000              -0.000085112               0.003346662               0.000141180              -0.000450249               0.001265626               0.000815377               0.000000000               0.000000000               0.000000000               0.000000000              -0.000100024               0.002849611               0.000087041              -0.000393710               0.001081098               0.000687388               0.000000000               0.000000000               0.000000000               0.000000000               0.002504867               0.022427620              -0.003056009              -0.001864124               0.008097173               0.006233049               0.000000000               0.000000000               0.000000000               0.000000000               0.001960817               0.017658142              -0.001472010              -0.001471958               0.006376641               0.004904683               0.000000000               0.000000000               0.000000000               0.000000000               0.002099333               0.013928906               0.000080750              -0.000953861               0.004960876               0.004007015               0.000000000               0.000000000               0.000000000               0.000000000               0.001745659               0.011767575               0.000699247              -0.000816323               0.004194593               0.003378270               0.000000000               0.000000000               0.000000000               0.000000000               0.001314872               0.010348465               0.000930046              -0.000800479               0.003716280               0.002915801               0.000000000               0.000000000               0.000000000               0.000000000               0.000923077               0.009327697               0.001004040              -0.000819806               0.003382470               0.002562664               0.000000000               0.000000000               0.000000000               0.000000000               0.000592209               0.008549080               0.001013090              -0.000846555               0.003131850               0.002285295               0.000000000               0.000000000               0.000000000               0.000000000               0.000317792               0.007909082               0.000985727              -0.000869461               0.002926155               0.002056693               0.000000000               0.000000000               0.000000000               0.000000000               0.000101165               0.007340871               0.000933342              -0.000879670               0.002740156               0.001860486               0.000000000               0.000000000               0.000000000               0.000000000              -0.000059019               0.006808271               0.000875437              -0.000873164               0.002560456               0.001687292               0.000000000               0.000000000               0.000000000               0.000000000              -0.000167995               0.006294829               0.000817511              -0.000849850               0.002381538               0.001531689               0.000000000               0.000000000               0.000000000               0.000000000              -0.000227183               0.005789164               0.000753626              -0.000808837               0.002199314               0.001390477               0.000000000               0.000000000               0.000000000               0.000000000              -0.000239441               0.005284541               0.000675614              -0.000750356               0.002011615               0.001261258               0.000000000               0.000000000               0.000000000               0.000000000              -0.000220819               0.004772618               0.000569018              -0.000679383               0.001817318               0.001137935               0.000000000               0.000000000               0.000000000               0.000000000              -0.000173964               0.004254005               0.000424143              -0.000596986               0.001616983               0.001019997               0.000000000               0.000000000               0.000000000               0.000000000              -0.000095471               0.003735019               0.000233574              -0.000502678               0.001412553               0.000909875               0.000000000               0.000000000               0.000000000               0.000000000              -0.000088924               0.003373826               0.000141328              -0.000455074               0.001276289               0.000821215               0.000000000               0.000000000               0.000000000               0.000000000               0.002668567               0.020205177              -0.004050465              -0.001524933               0.007243302               0.005718369               0.000000000               0.000000000               0.000000000               0.000000000               0.001637638               0.016266763              -0.001957689              -0.001419229               0.005895276               0.004476047               0.000000000               0.000000000               0.000000000               0.000000000               0.001257132               0.013360055               0.000065006              -0.001198579               0.004852834               0.003654254               0.000000000               0.000000000               0.000000000               0.000000000               0.000755682               0.011589269               0.000826593              -0.001165275               0.004251476               0.003086201               0.000000000               0.000000000               0.000000000               0.000000000               0.000334721               0.010360659               0.001096667              -0.001169559               0.003843371               0.002673812               0.000000000               0.000000000               0.000000000               0.000000000               0.000008733               0.009443480               0.001177217              -0.001177158               0.003540181               0.002363024               0.000000000               0.000000000               0.000000000               0.000000000              -0.000235065               0.008708110               0.001181561              -0.001176661               0.003294894               0.002118234               0.000000000               0.000000000               0.000000000               0.000000000              -0.000406267               0.008076387               0.001142821              -0.001161896               0.003079401               0.001917505               0.000000000               0.000000000               0.000000000               0.000000000              -0.000513404               0.007496615               0.001075674              -0.001129601               0.002875380               0.001745779               0.000000000               0.000000000               0.000000000               0.000000000              -0.000556593               0.006948135               0.001004100              -0.001077237               0.002675101               0.001597864               0.000000000               0.000000000               0.000000000               0.000000000              -0.000546875               0.006422323               0.000932998              -0.001007866               0.002476708               0.001468842               0.000000000               0.000000000               0.000000000               0.000000000              -0.000497489               0.005915494               0.000853115              -0.000925993               0.002280476               0.001354483               0.000000000               0.000000000               0.000000000               0.000000000              -0.000416054               0.005430853               0.000755582              -0.000834875               0.002088558               0.001253683               0.000000000               0.000000000               0.000000000               0.000000000              -0.000316442               0.004974141               0.000625263              -0.000740432               0.001904841               0.001164409               0.000000000               0.000000000               0.000000000               0.000000000              -0.000211812               0.004556121               0.000457461              -0.000648943               0.001735006               0.001086063               0.000000000               0.000000000               0.000000000               0.000000000              -0.000106045               0.004197399               0.000249843              -0.000564441               0.001587266               0.001022825               0.000000000               0.000000000               0.000000000               0.000000000              -0.000075362               0.003985401               0.000146975              -0.000526434               0.001503932               0.000977497               0.000000000               0.000000000               0.000000000               0.000000000               0.002674545               0.017502693              -0.004536756              -0.001184883               0.006229133               0.005044250               0.000000000               0.000000000               0.000000000               0.000000000               0.001140548               0.014599392              -0.002224184              -0.001397216               0.005332154               0.003934937               0.000000000               0.000000000               0.000000000               0.000000000               0.000224913               0.012662885              -0.000025494              -0.001498514               0.004720424               0.003221910               0.000000000               0.000000000               0.000000000               0.000000000              -0.000375864               0.011316132               0.000749444              -0.001555462               0.004290494               0.002735032               0.000000000               0.000000000               0.000000000               0.000000000              -0.000734206               0.010289233               0.001008192              -0.001561478               0.003950203               0.002388725               0.000000000               0.000000000               0.000000000               0.000000000              -0.000948975               0.009461830               0.001079583              -0.001538591               0.003666775               0.002128184               0.000000000               0.000000000               0.000000000               0.000000000              -0.001067946               0.008755563               0.001083035              -0.001494922               0.003416799               0.001921877               0.000000000               0.000000000               0.000000000               0.000000000              -0.001100822               0.008122216               0.001047415              -0.001428082               0.003183405               0.001755323               0.000000000               0.000000000               0.000000000               0.000000000              -0.001069178               0.007529322               0.000981341              -0.001342104               0.002957117               0.001615013               0.000000000               0.000000000               0.000000000               0.000000000              -0.000987525               0.006969421               0.000908386              -0.001241496               0.002736949               0.001495453               0.000000000               0.000000000               0.000000000               0.000000000              -0.000866322               0.006442385               0.000832838              -0.001130166               0.002524162               0.001393996               0.000000000               0.000000000               0.000000000               0.000000000              -0.000716835               0.005952291               0.000746225              -0.001012847               0.002321693               0.001308846               0.000000000               0.000000000               0.000000000               0.000000000              -0.000551798               0.005505917               0.000642385              -0.000895162               0.002133674               0.001238513               0.000000000               0.000000000               0.000000000               0.000000000              -0.000387487               0.005113006               0.000511653              -0.000784431               0.001965795               0.001181364               0.000000000               0.000000000               0.000000000               0.000000000              -0.000234346               0.004790516               0.000356630              -0.000686693               0.001825720               0.001139028               0.000000000               0.000000000               0.000000000               0.000000000              -0.000104792               0.004557613               0.000185798              -0.000608997               0.001722188               0.001113191               0.000000000               0.000000000               0.000000000               0.000000000              -0.000058447               0.004448282               0.000103362              -0.000577952               0.001675396               0.001097445               0.000000000               0.000000000               0.000000000               0.000000000               0.002390162               0.014591820              -0.004528562              -0.000927668               0.005173113               0.004245445               0.000000000               0.000000000               0.000000000               0.000000000               0.000459201               0.012831430              -0.002302011              -0.001431726               0.004754342               0.003322616               0.000000000               0.000000000               0.000000000               0.000000000              -0.000884121               0.011896533              -0.000213895              -0.001818608               0.004571674               0.002753066               0.000000000               0.000000000               0.000000000               0.000000000              -0.001477421               0.010941467               0.000477838              -0.001921711               0.004287690               0.002365978               0.000000000               0.000000000               0.000000000               0.000000000              -0.001712793               0.010085507               0.000700611              -0.001902981               0.003996129               0.002093148               0.000000000               0.000000000               0.000000000               0.000000000              -0.001772209               0.009330093               0.000767542              -0.001830836               0.003720278               0.001889443               0.000000000               0.000000000               0.000000000               0.000000000              -0.001731222               0.008644236               0.000782710              -0.001729734               0.003457961               0.001728227               0.000000000               0.000000000               0.000000000               0.000000000              -0.001619545               0.008003332               0.000763068              -0.001607742               0.003203665               0.001595923               0.000000000               0.000000000               0.000000000               0.000000000              -0.001452614               0.007401333               0.000712907              -0.001469893               0.002957051               0.001487158               0.000000000               0.000000000               0.000000000               0.000000000              -0.001252627               0.006845379               0.000653815              -0.001325404               0.002723571               0.001398167               0.000000000               0.000000000               0.000000000               0.000000000              -0.001036494               0.006339948               0.000589802              -0.001181176               0.002507020               0.001325844               0.000000000               0.000000000               0.000000000               0.000000000              -0.000812541               0.005889314               0.000514973              -0.001040865               0.002310040               0.001269175               0.000000000               0.000000000               0.000000000               0.000000000              -0.000596079               0.005500350               0.000425634              -0.000911071               0.002137122               0.001226051               0.000000000               0.000000000               0.000000000               0.000000000              -0.000399087               0.005179367               0.000319273              -0.000797077               0.001992130               0.001195054               0.000000000               0.000000000               0.000000000               0.000000000              -0.000228541               0.004940162               0.000205937              -0.000703221               0.001881111               0.001177890               0.000000000               0.000000000               0.000000000               0.000000000              -0.000097368               0.004791604               0.000099432              -0.000635462               0.001809006               0.001173544               0.000000000               0.000000000               0.000000000               0.000000000              -0.000050086               0.004732722               0.000052950              -0.000610371               0.001781015               0.001170644               0.000000000               0.000000000               0.000000000               0.000000000               0.001752701               0.011710694              -0.004110308              -0.000806576               0.004172383               0.003365807               0.000000000               0.000000000               0.000000000               0.000000000              -0.000361650               0.011105568              -0.002248653              -0.001523812               0.004209756               0.002685944               0.000000000               0.000000000               0.000000000               0.000000000              -0.001946445               0.011090390              -0.000509568              -0.002116210               0.004402163               0.002285953               0.000000000               0.000000000               0.000000000               0.000000000              -0.002414144               0.010460006               0.000048487              -0.002212799               0.004224234               0.002011434               0.000000000               0.000000000               0.000000000               0.000000000              -0.002464625               0.009736057               0.000246731              -0.002141236               0.003959065               0.001817829               0.000000000               0.000000000               0.000000000               0.000000000              -0.002349182               0.009031597               0.000327668              -0.002009888               0.003680465               0.001670577               0.000000000               0.000000000               0.000000000               0.000000000              -0.002149663               0.008361912               0.000370119              -0.001851358               0.003404395               0.001553037               0.000000000               0.000000000               0.000000000               0.000000000              -0.001895022               0.007731515               0.000382794              -0.001677068               0.003136169               0.001459100               0.000000000               0.000000000               0.000000000               0.000000000              -0.001608127               0.007143383               0.000367319              -0.001495967               0.002879759               0.001383793               0.000000000               0.000000000               0.000000000               0.000000000              -0.001309984               0.006616610               0.000341647              -0.001318317               0.002644954               0.001326637               0.000000000               0.000000000               0.000000000               0.000000000              -0.001022538               0.006156484               0.000307678              -0.001153009               0.002436477               0.001283468               0.000000000               0.000000000               0.000000000               0.000000000              -0.000755643               0.005762060               0.000263273              -0.001003621               0.002255208               0.001251587               0.000000000               0.000000000               0.000000000               0.000000000              -0.000519860               0.005438011               0.000208410              -0.000874697               0.002104218               0.001229521               0.000000000               0.000000000               0.000000000               0.000000000              -0.000323529               0.005190896               0.000143254              -0.000770183               0.001987009               0.001216826               0.000000000               0.000000000               0.000000000               0.000000000              -0.000171381               0.005024769               0.000082404              -0.000692362               0.001905694               0.001213331               0.000000000               0.000000000               0.000000000               0.000000000              -0.000068220               0.004932336               0.000036158              -0.000642123               0.001858137               0.001216014               0.000000000               0.000000000               0.000000000               0.000000000              -0.000035163               0.004897679               0.000019766              -0.000625394               0.001841008               0.001215614               0.000000000               0.000000000               0.000000000               0.000000000               0.000785225               0.009040633              -0.003390998              -0.000835621               0.003292053               0.002456433               0.000000000               0.000000000               0.000000000               0.000000000              -0.001272536               0.009519076              -0.002125927              -0.001667083               0.003728687               0.002061605               0.000000000               0.000000000               0.000000000               0.000000000              -0.002849039               0.010245328              -0.000905510              -0.002349050               0.004198092               0.001849042               0.000000000               0.000000000               0.000000000               0.000000000              -0.003091189               0.009861577              -0.000468101              -0.002391887               0.004084455               0.001692568               0.000000000               0.000000000               0.000000000               0.000000000              -0.002938066               0.009246540              -0.000264955              -0.002257587               0.003834678               0.001577092               0.000000000               0.000000000               0.000000000               0.000000000              -0.002655682               0.008595601              -0.000145755              -0.002070326               0.003555280               0.001484955               0.000000000               0.000000000               0.000000000               0.000000000              -0.002311005               0.007966012              -0.000057011              -0.001862374               0.003276102               0.001413728               0.000000000               0.000000000               0.000000000               0.000000000              -0.001930132               0.007368203               0.000000960              -0.001644821               0.003004317               0.001359496               0.000000000               0.000000000               0.000000000               0.000000000              -0.001544573               0.006818590               0.000030203              -0.001431535               0.002750019               0.001318484               0.000000000               0.000000000               0.000000000               0.000000000              -0.001175668               0.006341217               0.000051531              -0.001233524               0.002524893               0.001291368               0.000000000               0.000000000               0.000000000               0.000000000              -0.000845306               0.005935203               0.000061688              -0.001058888               0.002331344               0.001272456               0.000000000               0.000000000               0.000000000               0.000000000              -0.000568218               0.005598228               0.000057597              -0.000912858               0.002170343               0.001257485               0.000000000               0.000000000               0.000000000               0.000000000              -0.000347784               0.005335276               0.000046765              -0.000797326               0.002044183               0.001246857               0.000000000               0.000000000               0.000000000               0.000000000              -0.000183749               0.005153109               0.000028668              -0.000713043               0.001955367               0.001242324               0.000000000               0.000000000               0.000000000               0.000000000              -0.000076558               0.005043451               0.000011863              -0.000659139               0.001900846               0.001241708               0.000000000               0.000000000               0.000000000               0.000000000              -0.000021534               0.004987270               0.000003990              -0.000631483               0.001872901               0.001241418               0.000000000               0.000000000               0.000000000               0.000000000              -0.000008354               0.004967986               0.000003580              -0.000624129               0.001864022               0.001239892               0.000000000               0.000000000               0.000000000               0.000000000              -0.000383432               0.006777676              -0.002501960              -0.000990996               0.002589534               0.001598538               0.000000000               0.000000000               0.000000000               0.000000000              -0.002164944               0.008097826              -0.001984733              -0.001824078               0.003307274               0.001483196               0.000000000               0.000000000               0.000000000               0.000000000              -0.003551011               0.009402172              -0.001376794              -0.002506895               0.003969657               0.001462763               0.000000000               0.000000000               0.000000000               0.000000000              -0.003548183               0.009270962              -0.001014479              -0.002489433               0.003920101               0.001430668               0.000000000               0.000000000               0.000000000               0.000000000              -0.003220691               0.008795678              -0.000779025              -0.002307213               0.003700934               0.001393721               0.000000000               0.000000000               0.000000000               0.000000000              -0.002804125               0.008238318              -0.000606885              -0.002081332               0.003439856               0.001358524               0.000000000               0.000000000               0.000000000               0.000000000              -0.002351028               0.007678009              -0.000472698              -0.001841382               0.003173105               0.001331723               0.000000000               0.000000000               0.000000000               0.000000000              -0.001879571               0.007131765              -0.000368520              -0.001596306               0.002909333               0.001313027               0.000000000               0.000000000               0.000000000               0.000000000              -0.001415100               0.006633559              -0.000284858              -0.001359854               0.002664449               0.001304595               0.000000000               0.000000000               0.000000000               0.000000000              -0.000994279               0.006201717              -0.000211308              -0.001148067               0.002449907               0.001301841               0.000000000               0.000000000               0.000000000               0.000000000              -0.000640021               0.005828181              -0.000150979              -0.000968528               0.002265550               0.001297022               0.000000000               0.000000000               0.000000000               0.000000000              -0.000364667               0.005518250              -0.000103498              -0.000826529               0.002114908               0.001288379               0.000000000               0.000000000               0.000000000               0.000000000              -0.000169113               0.005285020              -0.000064387              -0.000724043               0.002003003               0.001278960               0.000000000               0.000000000               0.000000000               0.000000000              -0.000049346               0.005126243              -0.000034766              -0.000659283               0.001928492               0.001269208               0.000000000               0.000000000               0.000000000               0.000000000               0.000007725               0.005036266              -0.000015220              -0.000626635               0.001887617               0.001260982               0.000000000               0.000000000               0.000000000               0.000000000               0.000020009               0.004997547              -0.000003104              -0.000617188               0.001871562               0.001254373               0.000000000               0.000000000               0.000000000               0.000000000               0.000017018               0.004988660               0.000001173              -0.000617199               0.001868603               0.001251404               0.000000000               0.000000000               0.000000000               0.000000000              -0.001759305               0.004678414              -0.001560571              -0.001244539               0.001974302               0.000729763               0.000000000               0.000000000               0.000000000               0.000000000              -0.002921914               0.006459258              -0.001822027              -0.001903121               0.002787438               0.000884317               0.000000000               0.000000000               0.000000000               0.000000000              -0.003971801               0.008181706              -0.001868951              -0.002512133               0.003564585               0.001052452               0.000000000               0.000000000               0.000000000               0.000000000              -0.003828986               0.008434768              -0.001595160              -0.002490210               0.003641631               0.001151421               0.000000000               0.000000000               0.000000000               0.000000000              -0.003417645               0.008222920              -0.001328509              -0.002309476               0.003510771               0.001201295               0.000000000               0.000000000               0.000000000               0.000000000              -0.002949481               0.007860698              -0.001106798              -0.002088638               0.003316419               0.001227781               0.000000000               0.000000000               0.000000000               0.000000000              -0.002466469               0.007456456              -0.000929679              -0.001856978               0.003104453               0.001247475               0.000000000               0.000000000               0.000000000               0.000000000              -0.001977594               0.007042526              -0.000780534              -0.001621910               0.002888122               0.001266212               0.000000000               0.000000000               0.000000000               0.000000000              -0.001498337               0.006637981              -0.000645311              -0.001391620               0.002676512               0.001284891               0.000000000               0.000000000               0.000000000               0.000000000              -0.001054950               0.006265715              -0.000521518              -0.001178818               0.002481490               0.001302672               0.000000000               0.000000000               0.000000000               0.000000000              -0.000673825               0.005929487              -0.000407836              -0.000993868               0.002307765               0.001313897               0.000000000               0.000000000               0.000000000               0.000000000              -0.000368968               0.005634220              -0.000301493              -0.000842639               0.002158934               0.001316296               0.000000000               0.000000000               0.000000000               0.000000000              -0.000150894               0.005388098              -0.000204100              -0.000730096               0.002039380               0.001309284               0.000000000               0.000000000               0.000000000               0.000000000              -0.000015049               0.005201885              -0.000120491              -0.000655878               0.001952570               0.001296693               0.000000000               0.000000000               0.000000000               0.000000000               0.000052893               0.005083648              -0.000055317              -0.000615620               0.001899739               0.001284119               0.000000000               0.000000000               0.000000000               0.000000000               0.000069488               0.005023437              -0.000015646              -0.000601870               0.001875086               0.001273216               0.000000000               0.000000000               0.000000000               0.000000000               0.000064069               0.005005663              -0.000001973              -0.000601680               0.001869098               0.001267417               0.000000000               0.000000000               0.000000000               0.000000000              -0.003520816               0.002773367              -0.000633603              -0.001666974               0.001480103              -0.000186871               0.000000000               0.000000000               0.000000000               0.000000000              -0.003779608               0.004807367              -0.001585471              -0.002018270               0.002275195               0.000256926               0.000000000               0.000000000               0.000000000               0.000000000              -0.004301190               0.006760418              -0.002257016              -0.002457993               0.003072780               0.000614787               0.000000000               0.000000000               0.000000000               0.000000000              -0.004024917               0.007383126              -0.002149372              -0.002432229               0.003271760               0.000839531               0.000000000               0.000000000               0.000000000               0.000000000              -0.003556348               0.007477323              -0.001896131              -0.002268291               0.003248513               0.000980222               0.000000000               0.000000000               0.000000000               0.000000000              -0.003058131               0.007357775              -0.001642656              -0.002066516               0.003141406               0.001074889               0.000000000               0.000000000               0.000000000               0.000000000              -0.002566416               0.007148562              -0.001426819              -0.001855972               0.003001487               0.001145515               0.000000000               0.000000000               0.000000000               0.000000000              -0.002083190               0.006888592              -0.001240657              -0.001642266               0.002843596               0.001201330               0.000000000               0.000000000               0.000000000               0.000000000              -0.001607126               0.006597798              -0.001067148              -0.001427394               0.002675042               0.001247648               0.000000000               0.000000000               0.000000000               0.000000000              -0.001152214               0.006306578              -0.000901494              -0.001220400               0.002508972               0.001288572               0.000000000               0.000000000               0.000000000               0.000000000              -0.000742252               0.006024770              -0.000742039              -0.001031438               0.002352049               0.001320611               0.000000000               0.000000000               0.000000000               0.000000000              -0.000393662               0.005757938              -0.000584962              -0.000867363               0.002208415               0.001341051               0.000000000               0.000000000               0.000000000               0.000000000              -0.000119810               0.005512623              -0.000430639              -0.000734005               0.002082191               0.001348186               0.000000000               0.000000000               0.000000000               0.000000000               0.000067708               0.005305940              -0.000287727              -0.000637850               0.001981246               0.001343395               0.000000000               0.000000000               0.000000000               0.000000000               0.000174499               0.005158140              -0.000162256              -0.000579329               0.001912473               0.001333144               0.000000000               0.000000000               0.000000000               0.000000000               0.000206419               0.005062721              -0.000064964              -0.000555432               0.001872701               0.001317269               0.000000000               0.000000000               0.000000000               0.000000000               0.000194229               0.005020252              -0.000022156              -0.000554694               0.001858299               0.001303604               0.000000000               0.000000000               0.000000000               0.000000000              -0.005548036               0.001212247               0.000196953              -0.002232041               0.001148089              -0.001083953               0.000000000               0.000000000               0.000000000               0.000000000              -0.004780577               0.003250597              -0.001258948              -0.002199037               0.001816532              -0.000382505               0.000000000               0.000000000               0.000000000               0.000000000              -0.004568368               0.005154643              -0.002426954              -0.002357463               0.002504017               0.000146554               0.000000000               0.000000000               0.000000000               0.000000000              -0.004074848               0.006034938              -0.002526953              -0.002282430               0.002772435               0.000490005               0.000000000               0.000000000               0.000000000               0.000000000              -0.003536740               0.006417425              -0.002342151              -0.002128451               0.002848603               0.000720152               0.000000000               0.000000000               0.000000000               0.000000000              -0.003015191               0.006553811              -0.002098822              -0.001949919               0.002834554               0.000884635               0.000000000               0.000000000               0.000000000               0.000000000              -0.002519741               0.006557584              -0.001868373              -0.001764597               0.002774038               0.001009441               0.000000000               0.000000000               0.000000000               0.000000000              -0.002047725               0.006472264              -0.001659365              -0.001576927               0.002683042               0.001106115               0.000000000               0.000000000               0.000000000               0.000000000              -0.001588391               0.006327360              -0.001463109              -0.001386564               0.002571286               0.001184723               0.000000000               0.000000000               0.000000000               0.000000000              -0.001141068               0.006148970              -0.001274637              -0.001196519               0.002448476               0.001251957               0.000000000               0.000000000               0.000000000               0.000000000              -0.000715923               0.005952313              -0.001090548              -0.001012508               0.002321587               0.001309079               0.000000000               0.000000000               0.000000000               0.000000000              -0.000331965               0.005747173              -0.000905470              -0.000842882               0.002196666               0.001353784               0.000000000               0.000000000               0.000000000               0.000000000              -0.000000785               0.005543337              -0.000714724              -0.000693210               0.002078830               0.001385620               0.000000000               0.000000000               0.000000000               0.000000000               0.000257067               0.005358399              -0.000519688              -0.000573399               0.001977248               0.001403849               0.000000000               0.000000000               0.000000000               0.000000000               0.000420493               0.005203164              -0.000329211              -0.000492709               0.001898607               0.001405898               0.000000000               0.000000000               0.000000000               0.000000000               0.000483388               0.005084475              -0.000153104              -0.000454288               0.001846237               0.001391950               0.000000000               0.000000000               0.000000000               0.000000000               0.000476075               0.005028899              -0.000066905              -0.000450083               0.001826310               0.001376227               0.000000000               0.000000000               0.000000000               0.000000000              -0.007699119               0.000085354               0.000809552              -0.002897836               0.000994390              -0.001903447               0.000000000               0.000000000               0.000000000               0.000000000              -0.005867409               0.001876567              -0.000892401              -0.002434846               0.001437128              -0.000997718               0.000000000               0.000000000               0.000000000               0.000000000              -0.004800290               0.003502020              -0.002348616              -0.002237857               0.001913278              -0.000324579               0.000000000               0.000000000               0.000000000               0.000000000              -0.004014712               0.004512477              -0.002631548              -0.002069572               0.002194000               0.000124428               0.000000000               0.000000000               0.000000000               0.000000000              -0.003373560               0.005125445              -0.002544467              -0.001905762               0.002343717               0.000437956               0.000000000               0.000000000               0.000000000               0.000000000              -0.002816716               0.005489126              -0.002350327              -0.001742406               0.002410492               0.000668086               0.000000000               0.000000000               0.000000000               0.000000000              -0.002323091               0.005690284              -0.002139760              -0.001582442               0.002424222               0.000841781               0.000000000               0.000000000               0.000000000               0.000000000              -0.001867055               0.005787643              -0.001934654              -0.001423598               0.002403727               0.000980129               0.000000000               0.000000000               0.000000000               0.000000000              -0.001425939               0.005813061              -0.001738034              -0.001261357               0.002358120               0.001096762               0.000000000               0.000000000               0.000000000               0.000000000              -0.000987994               0.005781213              -0.001551188              -0.001093147               0.002291434               0.001198286               0.000000000               0.000000000               0.000000000               0.000000000              -0.000559105               0.005702219              -0.001367376              -0.000922440               0.002208201               0.001285760               0.000000000               0.000000000               0.000000000               0.000000000              -0.000148169               0.005592256              -0.001179634              -0.000754594               0.002115598               0.001361004               0.000000000               0.000000000               0.000000000               0.000000000               0.000232373               0.005466914              -0.000979299              -0.000596223               0.002021027               0.001424804               0.000000000               0.000000000               0.000000000               0.000000000               0.000563880               0.005336006              -0.000755326              -0.000455545               0.001930499               0.001474954               0.000000000               0.000000000               0.000000000               0.000000000               0.000815939               0.005204684              -0.000512202              -0.000344608               0.001849746               0.001505139               0.000000000               0.000000000               0.000000000               0.000000000               0.000963495               0.005091275              -0.000258980              -0.000275098               0.001788774               0.001513676               0.000000000               0.000000000               0.000000000               0.000000000               0.001003428               0.005040174              -0.000129595              -0.000253735               0.001764620               0.001510884               0.000000000               0.000000000               0.000000000               0.000000000              -0.009764870              -0.000622828               0.001093742              -0.003583970               0.000987040              -0.002596930               0.000000000               0.000000000               0.000000000               0.000000000              -0.006948900               0.000767784              -0.000551219              -0.002701808               0.001156523              -0.001545285               0.000000000               0.000000000               0.000000000               0.000000000              -0.005016046               0.001975979              -0.002019977              -0.002128012               0.001367987              -0.000760025               0.000000000               0.000000000               0.000000000               0.000000000              -0.003890314               0.002991890              -0.002404692              -0.001832851               0.001608235              -0.000224616               0.000000000               0.000000000               0.000000000               0.000000000              -0.003114038               0.003742585              -0.002409311              -0.001635584               0.001792709               0.000157125               0.000000000               0.000000000               0.000000000               0.000000000              -0.002510778               0.004279174              -0.002280809              -0.001476436               0.001918521               0.000442085               0.000000000               0.000000000               0.000000000               0.000000000              -0.002009322               0.004657313              -0.002114191              -0.001335658               0.001997640               0.000661983               0.000000000               0.000000000               0.000000000               0.000000000              -0.001563374               0.004925993              -0.001944725              -0.001202012               0.002042651               0.000840639               0.000000000               0.000000000               0.000000000               0.000000000              -0.001135426               0.005117331              -0.001779957              -0.001065449               0.002060909               0.000995460               0.000000000               0.000000000               0.000000000               0.000000000              -0.000709576               0.005239798              -0.001619157              -0.000921064               0.002053603               0.001132539               0.000000000               0.000000000               0.000000000               0.000000000              -0.000284253               0.005296344              -0.001457280              -0.000768637               0.002021642               0.001253006               0.000000000               0.000000000               0.000000000               0.000000000               0.000142839               0.005306183              -0.001291097              -0.000609707               0.001971945               0.001362238               0.000000000               0.000000000               0.000000000               0.000000000               0.000562623               0.005281574              -0.001107418              -0.000449213               0.001910244               0.001461032               0.000000000               0.000000000               0.000000000               0.000000000               0.000967369               0.005232210              -0.000892377              -0.000291263               0.001841140               0.001549877               0.000000000               0.000000000               0.000000000               0.000000000               0.001342729               0.005165705              -0.000640930              -0.000142190               0.001769281               0.001627091               0.000000000               0.000000000               0.000000000               0.000000000               0.001655486               0.005089170              -0.000343862              -0.000015340               0.001701486               0.001686146               0.000000000               0.000000000               0.000000000               0.000000000               0.001822194               0.005061917              -0.000188313               0.000050582               0.001670428               0.001721010               0.000000000               0.000000000               0.000000000               0.000000000              -0.011499427              -0.000994761               0.001007176              -0.004187937               0.001064385              -0.003123553               0.000000000               0.000000000               0.000000000               0.000000000              -0.007889122              -0.000025120              -0.000286397              -0.002955279               0.000976713              -0.001978566               0.000000000               0.000000000               0.000000000               0.000000000              -0.005206273               0.000742612              -0.001477011              -0.002045177               0.000929256              -0.001115921               0.000000000               0.000000000               0.000000000               0.000000000              -0.003750219               0.001678051              -0.001843806              -0.001616086               0.001098037              -0.000518049               0.000000000               0.000000000               0.000000000               0.000000000              -0.002832296               0.002492752              -0.001897325              -0.001373703               0.001288808              -0.000084894               0.000000000               0.000000000               0.000000000               0.000000000              -0.002179119               0.003145598              -0.001829653              -0.001210367               0.001451977               0.000241610               0.000000000               0.000000000               0.000000000               0.000000000              -0.001660588               0.003657939              -0.001721532              -0.001079961               0.001579287               0.000499326               0.000000000               0.000000000               0.000000000               0.000000000              -0.001210373               0.004060681              -0.001607121              -0.000961474               0.001674037               0.000712564               0.000000000               0.000000000               0.000000000               0.000000000              -0.000791388               0.004379240              -0.001492260              -0.000844174               0.001741123               0.000896949               0.000000000               0.000000000               0.000000000               0.000000000              -0.000380678               0.004626587              -0.001376064              -0.000721077               0.001782539               0.001061462               0.000000000               0.000000000               0.000000000               0.000000000               0.000039979               0.004812484              -0.001257870              -0.000586568               0.001799668               0.001213100               0.000000000               0.000000000               0.000000000               0.000000000               0.000480083               0.004949527              -0.001131602              -0.000438659               0.001796045               0.001357386               0.000000000               0.000000000               0.000000000               0.000000000               0.000937859               0.005036743              -0.000988342              -0.000277896               0.001771529               0.001493633               0.000000000               0.000000000               0.000000000               0.000000000               0.001422620               0.005087178              -0.000821081              -0.000102415               0.001729847               0.001627432               0.000000000               0.000000000               0.000000000               0.000000000               0.001938468               0.005106386              -0.000615978               0.000088626               0.001672570               0.001761196               0.000000000               0.000000000               0.000000000               0.000000000               0.002467350               0.005075709              -0.000345139               0.000290790               0.001594956               0.001885746               0.000000000               0.000000000               0.000000000               0.000000000               0.002831894               0.005082523              -0.000201813               0.000426641               0.001551944               0.001978585               0.000000000               0.000000000               0.000000000               0.000000000              -0.012664820              -0.001152544               0.000597914              -0.004605237               0.001150890              -0.003454347               0.000000000               0.000000000               0.000000000               0.000000000              -0.008535124              -0.000496269              -0.000112025              -0.003138636               0.000880783              -0.002257853               0.000000000               0.000000000               0.000000000               0.000000000              -0.005338273              -0.000058765              -0.000777846              -0.001994505               0.000645242              -0.001349263               0.000000000               0.000000000               0.000000000               0.000000000              -0.003643602               0.000783736              -0.001002052              -0.001464316               0.000749345              -0.000714971               0.000000000               0.000000000               0.000000000               0.000000000              -0.002619718               0.001615889              -0.001048312              -0.001184378               0.000933416              -0.000250963               0.000000000               0.000000000               0.000000000               0.000000000              -0.001918191               0.002334272              -0.001022861              -0.001011103               0.001115117               0.000104013               0.000000000               0.000000000               0.000000000               0.000000000              -0.001378490               0.002924584              -0.000972946              -0.000882505               0.001269020               0.000386515               0.000000000               0.000000000               0.000000000               0.000000000              -0.000923202               0.003405406              -0.000916416              -0.000771875               0.001392415               0.000620540               0.000000000               0.000000000               0.000000000               0.000000000              -0.000508207               0.003802302              -0.000857942              -0.000665864               0.001489376               0.000823512               0.000000000               0.000000000               0.000000000               0.000000000              -0.000102254               0.004134891              -0.000799204              -0.000555206               0.001563352               0.001008146               0.000000000               0.000000000               0.000000000               0.000000000               0.000316566               0.004411834              -0.000738871              -0.000432766               0.001614852               0.001182086               0.000000000               0.000000000               0.000000000               0.000000000               0.000765061               0.004636543              -0.000670445              -0.000292670               0.001643055               0.001350386               0.000000000               0.000000000               0.000000000               0.000000000               0.001258596               0.004807979              -0.000590131              -0.000129024               0.001645652               0.001516628               0.000000000               0.000000000               0.000000000               0.000000000               0.001813960               0.004937935              -0.000497934               0.000062992               0.001624965               0.001687957               0.000000000               0.000000000               0.000000000               0.000000000               0.002444291               0.005024095              -0.000381995               0.000288594               0.001578483               0.001867078               0.000000000               0.000000000               0.000000000               0.000000000               0.003158627               0.005037795              -0.000218554               0.000554755               0.001494330               0.002049085               0.000000000               0.000000000               0.000000000               0.000000000               0.003706086               0.005082600              -0.000132919               0.000754450               0.001442700               0.002197149               0.000000000               0.000000000               0.000000000               0.000000000               0.000000000               0.000000000               0.000000000               0.000000000               0.000000000               0.000000000               0.000000000               0.000000000               0.000000000               0.000000000               0.000000000               0.000000000               0.000000000               0.000000000               0.000000000               0.000000000               0.000000000               0.000000000               0.000000000               0.000000000               0.000000000               0.000000000               0.000000000               0.000000000               0.000000000               0.000000000               0.000000000               0.000000000               0.000000000               0.000000000               0.000000000               0.000000000               0.000000000               0.000000000               0.000000000               0.000000000               0.000000000               0.000000000               0.000000000               0.000000000               0.000000000               0.000000000               0.000000000               0.000000000               0.000000000               0.000000000               0.000000000               0.000000000               0.000000000               0.000000000               0.000000000               0.000000000               0.000000000               0.000000000               0.000000000               0.000000000               0.000000000               0.000000000               0.000000000               0.000000000               0.000000000               0.000000000               0.000000000               0.000000000               0.000000000               0.000000000               0.000000000               0.000000000               0.000000000               0.000000000               0.000000000               0.000000000               0.000000000               0.000000000               0.000000000               0.000000000               0.000000000               0.000000000               0.000000000               0.000000000               0.000000000               0.000000000               0.000000000               0.000000000               0.000000000               0.000000000               0.000000000               0.000000000               0.000000000               0.000000000               0.000000000               0.000000000               0.000000000               0.000000000               0.000000000               0.000000000               0.000000000               0.000000000               0.000000000               0.000000000               0.000000000               0.000000000               0.000000000               0.000000000               0.000000000               0.000000000               0.000000000               0.000000000               0.000000000               0.000000000               0.000000000               0.000000000               0.000000000               0.000000000               0.000000000               0.000000000               0.000000000               0.000000000               0.000000000               0.000000000               0.000000000               0.000000000               0.000000000               0.000000000               0.000000000               0.000000000               0.000000000               0.000000000               0.000000000               0.000000000               0.000000000               0.000000000               0.000000000               0.000000000               0.000000000               0.000000000               0.000000000               0.000000000               0.000000000               0.000000000               0.000000000               0.000000000               0.000000000               0.000000000               0.000000000               0.000000000               0.000000000               0.000000000               0.000000000               0.000000000               0.000000000               0.000000000               0.000000000               0.000000000               0.000000000               0.000000000               0.000000000               0.000000000               0.000000000               0.000000000               0.000000000               0.000000000               0.000000000               0.000000000               0.000000000               0.000000000               0.000000000               0.000000000               0.000000000               0.000000000               0.000000000               0.000000000               0.000000000               0.000000000               0.000000000               0.000000000               0.000000000               0.000000000               0.000000000               0.000000000               0.000000000               0.000000000               0.000000000               0.000000000               0.000000000               0.000000000               0.000000000               0.000000000               0.000000000               0.000000000               0.000000000               0.000000000               0.000000000               0.000000000               0.000000000               0.000000000               0.000000000               0.000000000               0.000000000               0.000000000               0.000000000               0.000000000               0.000000000               0.000000000               0.000000000               0.000000000               0.000000000               0.000000000               0.000000000               0.000000000               0.000000000               0.000000000               0.000000000               0.000000000               0.000000000               0.000000000               0.000000000               0.000000000               0.000000000               0.000000000               0.000000000               0.000000000               0.000000000               0.000000000               0.000000000               0.000000000               0.000000000               0.000000000               0.000000000               0.000000000               0.000000000               0.000000000               0.000000000               0.000000000               0.000000000               0.000000000               0.000000000               0.000000000               0.000000000               0.000000000               0.000000000               0.000000000               0.000000000               0.000000000               0.000000000               0.000000000               0.000000000               0.000000000               0.000000000               0.000000000               0.000000000               0.000000000               0.000000000               0.000000000               0.000000000               0.000000000               0.000000000               0.000000000               0.000000000               0.000000000               0.000000000               0.000000000               0.000000000               0.000000000               0.000000000               0.000000000               0.000000000               0.000000000               0.000000000               0.000000000               0.000000000               0.000000000               0.000000000               0.000000000               0.000000000               0.000000000               0.000000000               0.000000000               0.000000000               0.000000000               0.000000000               0.000000000               0.000000000               0.000000000               0.000000000               0.000000000               0.000000000               0.000000000               0.000000000               0.000000000               0.000000000               0.000000000               0.000000000               0.000000000               0.000000000               0.000000000               0.000000000               0.000000000               0.000000000               0.000000000               0.000000000               0.000000000               0.000000000               0.000000000               0.000000000               0.000000000               0.000000000               0.000000000               0.000000000               0.000000000               0.000000000               0.000000000               0.000000000               0.000000000               0.000000000               0.000000000               0.000000000               0.000000000               0.000000000               0.000000000               0.000000000               0.000000000               0.000000000               0.000000000               0.000000000               0.000000000               0.000000000               0.000000000               0.000000000               0.000000000               0.000000000               0.000000000               0.000000000               0.000000000               0.000000000               0.000000000               0.000000000               0.000000000               0.000000000               0.000000000               0.002325867               0.023889047               0.001647950              -0.002113926               0.008667578               0.006553652               0.000000000               0.000000000               0.000000000               0.000000000               0.002136251               0.018588026               0.000794009              -0.001522405               0.006703415               0.005181010               0.000000000               0.000000000               0.000000000               0.000000000               0.002650520               0.014306438              -0.000051605              -0.000794358               0.005033551               0.004239193               0.000000000               0.000000000               0.000000000               0.000000000               0.002425385               0.011869536              -0.000399142              -0.000574171               0.004147863               0.003573691               0.000000000               0.000000000               0.000000000               0.000000000               0.002012929               0.010308352              -0.000533667              -0.000533695               0.003613981               0.003080287               0.000000000               0.000000000               0.000000000               0.000000000               0.001594108               0.009211073              -0.000578253              -0.000553593               0.003254858               0.002701265               0.000000000               0.000000000               0.000000000               0.000000000               0.001209158               0.008385652              -0.000585359              -0.000594771               0.002993446               0.002398675               0.000000000               0.000000000               0.000000000               0.000000000               0.000868359               0.007726600              -0.000573287              -0.000640189               0.002788904               0.002148715               0.000000000               0.000000000               0.000000000               0.000000000               0.000578848               0.007161110              -0.000546509              -0.000678069               0.002613036               0.001934967               0.000000000               0.000000000               0.000000000               0.000000000               0.000340023               0.006643387              -0.000514774              -0.000702913               0.002448745               0.001745832               0.000000000               0.000000000               0.000000000               0.000000000               0.000151344               0.006147990              -0.000481632              -0.000711743               0.002286557               0.001574814               0.000000000               0.000000000               0.000000000               0.000000000               0.000011360               0.005654608              -0.000444967              -0.000702564               0.002119038               0.001416474               0.000000000               0.000000000               0.000000000               0.000000000              -0.000083530               0.005144900              -0.000401492              -0.000674435               0.001939761               0.001265326               0.000000000               0.000000000               0.000000000               0.000000000              -0.000135013               0.004600521              -0.000340541              -0.000625693               0.001742056               0.001116363               0.000000000               0.000000000               0.000000000               0.000000000              -0.000137202               0.004005490              -0.000255170              -0.000552136               0.001519195               0.000967059               0.000000000               0.000000000               0.000000000               0.000000000              -0.000085112               0.003346662              -0.000141180              -0.000450249               0.001265626               0.000815377               0.000000000               0.000000000               0.000000000               0.000000000              -0.000100024               0.002849611              -0.000087041              -0.000393710               0.001081098               0.000687388               0.000000000               0.000000000               0.000000000               0.000000000               0.002504867               0.022427620               0.003056009              -0.001864124               0.008097173               0.006233049               0.000000000               0.000000000               0.000000000               0.000000000               0.001960817               0.017658142               0.001472010              -0.001471958               0.006376641               0.004904683               0.000000000               0.000000000               0.000000000               0.000000000               0.002099333               0.013928906              -0.000080750              -0.000953861               0.004960876               0.004007015               0.000000000               0.000000000               0.000000000               0.000000000               0.001745659               0.011767575              -0.000699247              -0.000816323               0.004194593               0.003378270               0.000000000               0.000000000               0.000000000               0.000000000               0.001314872               0.010348465              -0.000930046              -0.000800479               0.003716280               0.002915801               0.000000000               0.000000000               0.000000000               0.000000000               0.000923077               0.009327697              -0.001004040              -0.000819806               0.003382470               0.002562664               0.000000000               0.000000000               0.000000000               0.000000000               0.000592209               0.008549080              -0.001013090              -0.000846555               0.003131850               0.002285295               0.000000000               0.000000000               0.000000000               0.000000000               0.000317792               0.007909082              -0.000985727              -0.000869461               0.002926155               0.002056693               0.000000000               0.000000000               0.000000000               0.000000000               0.000101165               0.007340871              -0.000933342              -0.000879670               0.002740156               0.001860486               0.000000000               0.000000000               0.000000000               0.000000000              -0.000059019               0.006808271              -0.000875437              -0.000873164               0.002560456               0.001687292               0.000000000               0.000000000               0.000000000               0.000000000              -0.000167995               0.006294829              -0.000817511              -0.000849850               0.002381538               0.001531689               0.000000000               0.000000000               0.000000000               0.000000000              -0.000227183               0.005789164              -0.000753626              -0.000808837               0.002199314               0.001390477               0.000000000               0.000000000               0.000000000               0.000000000              -0.000239441               0.005284541              -0.000675614              -0.000750356               0.002011615               0.001261258               0.000000000               0.000000000               0.000000000               0.000000000              -0.000220819               0.004772618              -0.000569018              -0.000679383               0.001817318               0.001137935               0.000000000               0.000000000               0.000000000               0.000000000              -0.000173964               0.004254005              -0.000424143              -0.000596986               0.001616983               0.001019997               0.000000000               0.000000000               0.000000000               0.000000000              -0.000095471               0.003735019              -0.000233574              -0.000502678               0.001412553               0.000909875               0.000000000               0.000000000               0.000000000               0.000000000              -0.000088924               0.003373826              -0.000141328              -0.000455074               0.001276289               0.000821215               0.000000000               0.000000000               0.000000000               0.000000000               0.002668567               0.020205177               0.004050465              -0.001524933               0.007243302               0.005718369               0.000000000               0.000000000               0.000000000               0.000000000               0.001637638               0.016266763               0.001957689              -0.001419229               0.005895276               0.004476047               0.000000000               0.000000000               0.000000000               0.000000000               0.001257132               0.013360055              -0.000065006              -0.001198579               0.004852834               0.003654254               0.000000000               0.000000000               0.000000000               0.000000000               0.000755682               0.011589269              -0.000826593              -0.001165275               0.004251476               0.003086201               0.000000000               0.000000000               0.000000000               0.000000000               0.000334721               0.010360659              -0.001096667              -0.001169559               0.003843371               0.002673812               0.000000000               0.000000000               0.000000000               0.000000000               0.000008733               0.009443480              -0.001177217              -0.001177158               0.003540181               0.002363024               0.000000000               0.000000000               0.000000000               0.000000000              -0.000235065               0.008708110              -0.001181561              -0.001176661               0.003294894               0.002118234               0.000000000               0.000000000               0.000000000               0.000000000              -0.000406267               0.008076387              -0.001142821              -0.001161896               0.003079401               0.001917505               0.000000000               0.000000000               0.000000000               0.000000000              -0.000513404               0.007496615              -0.001075674              -0.001129601               0.002875380               0.001745779               0.000000000               0.000000000               0.000000000               0.000000000              -0.000556593               0.006948135              -0.001004100              -0.001077237               0.002675101               0.001597864               0.000000000               0.000000000               0.000000000               0.000000000              -0.000546875               0.006422323              -0.000932998              -0.001007866               0.002476708               0.001468842               0.000000000               0.000000000               0.000000000               0.000000000              -0.000497489               0.005915494              -0.000853115              -0.000925993               0.002280476               0.001354483               0.000000000               0.000000000               0.000000000               0.000000000              -0.000416054               0.005430853              -0.000755582              -0.000834875               0.002088558               0.001253683               0.000000000               0.000000000               0.000000000               0.000000000              -0.000316442               0.004974141              -0.000625263              -0.000740432               0.001904841               0.001164409               0.000000000               0.000000000               0.000000000               0.000000000              -0.000211812               0.004556121              -0.000457461              -0.000648943               0.001735006               0.001086063               0.000000000               0.000000000               0.000000000               0.000000000              -0.000106045               0.004197399              -0.000249843              -0.000564441               0.001587266               0.001022825               0.000000000               0.000000000               0.000000000               0.000000000              -0.000075362               0.003985401              -0.000146975              -0.000526434               0.001503932               0.000977497               0.000000000               0.000000000               0.000000000               0.000000000               0.002674545               0.017502693               0.004536756              -0.001184883               0.006229133               0.005044250               0.000000000               0.000000000               0.000000000               0.000000000               0.001140548               0.014599392               0.002224184              -0.001397216               0.005332154               0.003934937               0.000000000               0.000000000               0.000000000               0.000000000               0.000224913               0.012662885               0.000025494              -0.001498514               0.004720424               0.003221910               0.000000000               0.000000000               0.000000000               0.000000000              -0.000375864               0.011316132              -0.000749444              -0.001555462               0.004290494               0.002735032               0.000000000               0.000000000               0.000000000               0.000000000              -0.000734206               0.010289233              -0.001008192              -0.001561478               0.003950203               0.002388725               0.000000000               0.000000000               0.000000000               0.000000000              -0.000948975               0.009461830              -0.001079583              -0.001538591               0.003666775               0.002128184               0.000000000               0.000000000               0.000000000               0.000000000              -0.001067946               0.008755563              -0.001083035              -0.001494922               0.003416799               0.001921877               0.000000000               0.000000000               0.000000000               0.000000000              -0.001100822               0.008122216              -0.001047415              -0.001428082               0.003183405               0.001755323               0.000000000               0.000000000               0.000000000               0.000000000              -0.001069178               0.007529322              -0.000981341              -0.001342104               0.002957117               0.001615013               0.000000000               0.000000000               0.000000000               0.000000000              -0.000987525               0.006969421              -0.000908386              -0.001241496               0.002736949               0.001495453               0.000000000               0.000000000               0.000000000               0.000000000              -0.000866322               0.006442385              -0.000832838              -0.001130166               0.002524162               0.001393996               0.000000000               0.000000000               0.000000000               0.000000000              -0.000716835               0.005952291              -0.000746225              -0.001012847               0.002321693               0.001308846               0.000000000               0.000000000               0.000000000               0.000000000              -0.000551798               0.005505917              -0.000642385              -0.000895162               0.002133674               0.001238513               0.000000000               0.000000000               0.000000000               0.000000000              -0.000387487               0.005113006              -0.000511653              -0.000784431               0.001965795               0.001181364               0.000000000               0.000000000               0.000000000               0.000000000              -0.000234346               0.004790516              -0.000356630              -0.000686693               0.001825720               0.001139028               0.000000000               0.000000000               0.000000000               0.000000000              -0.000104792               0.004557613              -0.000185798              -0.000608997               0.001722188               0.001113191               0.000000000               0.000000000               0.000000000               0.000000000              -0.000058447               0.004448282              -0.000103362              -0.000577952               0.001675396               0.001097445               0.000000000               0.000000000               0.000000000               0.000000000               0.002390162               0.014591820               0.004528562              -0.000927668               0.005173113               0.004245445               0.000000000               0.000000000               0.000000000               0.000000000               0.000459201               0.012831430               0.002302011              -0.001431726               0.004754342               0.003322616               0.000000000               0.000000000               0.000000000               0.000000000              -0.000884121               0.011896533               0.000213895              -0.001818608               0.004571674               0.002753066               0.000000000               0.000000000               0.000000000               0.000000000              -0.001477421               0.010941467              -0.000477838              -0.001921711               0.004287690               0.002365978               0.000000000               0.000000000               0.000000000               0.000000000              -0.001712793               0.010085507              -0.000700611              -0.001902981               0.003996129               0.002093148               0.000000000               0.000000000               0.000000000               0.000000000              -0.001772209               0.009330093              -0.000767542              -0.001830836               0.003720278               0.001889443               0.000000000               0.000000000               0.000000000               0.000000000              -0.001731222               0.008644236              -0.000782710              -0.001729734               0.003457961               0.001728227               0.000000000               0.000000000               0.000000000               0.000000000              -0.001619545               0.008003332              -0.000763068              -0.001607742               0.003203665               0.001595923               0.000000000               0.000000000               0.000000000               0.000000000              -0.001452614               0.007401333              -0.000712907              -0.001469893               0.002957051               0.001487158               0.000000000               0.000000000               0.000000000               0.000000000              -0.001252627               0.006845379              -0.000653815              -0.001325404               0.002723571               0.001398167               0.000000000               0.000000000               0.000000000               0.000000000              -0.001036494               0.006339948              -0.000589802              -0.001181176               0.002507020               0.001325844               0.000000000               0.000000000               0.000000000               0.000000000              -0.000812541               0.005889314              -0.000514973              -0.001040865               0.002310040               0.001269175               0.000000000               0.000000000               0.000000000               0.000000000              -0.000596079               0.005500350              -0.000425634              -0.000911071               0.002137122               0.001226051               0.000000000               0.000000000               0.000000000               0.000000000              -0.000399087               0.005179367              -0.000319273              -0.000797077               0.001992130               0.001195054               0.000000000               0.000000000               0.000000000               0.000000000              -0.000228541               0.004940162              -0.000205937              -0.000703221               0.001881111               0.001177890               0.000000000               0.000000000               0.000000000               0.000000000              -0.000097368               0.004791604              -0.000099432              -0.000635462               0.001809006               0.001173544               0.000000000               0.000000000               0.000000000               0.000000000              -0.000050086               0.004732722              -0.000052950              -0.000610371               0.001781015               0.001170644               0.000000000               0.000000000               0.000000000               0.000000000               0.001752701               0.011710694               0.004110308              -0.000806576               0.004172383               0.003365807               0.000000000               0.000000000               0.000000000               0.000000000              -0.000361650               0.011105568               0.002248653              -0.001523812               0.004209756               0.002685944               0.000000000               0.000000000               0.000000000               0.000000000              -0.001946445               0.011090390               0.000509568              -0.002116210               0.004402163               0.002285953               0.000000000               0.000000000               0.000000000               0.000000000              -0.002414144               0.010460006              -0.000048487              -0.002212799               0.004224234               0.002011434               0.000000000               0.000000000               0.000000000               0.000000000              -0.002464625               0.009736057              -0.000246731              -0.002141236               0.003959065               0.001817829               0.000000000               0.000000000               0.000000000               0.000000000              -0.002349182               0.009031597              -0.000327668              -0.002009888               0.003680465               0.001670577               0.000000000               0.000000000               0.000000000               0.000000000              -0.002149663               0.008361912              -0.000370119              -0.001851358               0.003404395               0.001553037               0.000000000               0.000000000               0.000000000               0.000000000              -0.001895022               0.007731515              -0.000382794              -0.001677068               0.003136169               0.001459100               0.000000000               0.000000000               0.000000000               0.000000000              -0.001608127               0.007143383              -0.000367319              -0.001495967               0.002879759               0.001383793               0.000000000               0.000000000               0.000000000               0.000000000              -0.001309984               0.006616610              -0.000341647              -0.001318317               0.002644954               0.001326637               0.000000000               0.000000000               0.000000000               0.000000000              -0.001022538               0.006156484              -0.000307678              -0.001153009               0.002436477               0.001283468               0.000000000               0.000000000               0.000000000               0.000000000              -0.000755643               0.005762060              -0.000263273              -0.001003621               0.002255208               0.001251587               0.000000000               0.000000000               0.000000000               0.000000000              -0.000519860               0.005438011              -0.000208410              -0.000874697               0.002104218               0.001229521               0.000000000               0.000000000               0.000000000               0.000000000              -0.000323529               0.005190896              -0.000143254              -0.000770183               0.001987009               0.001216826               0.000000000               0.000000000               0.000000000               0.000000000              -0.000171381               0.005024769              -0.000082404              -0.000692362               0.001905694               0.001213331               0.000000000               0.000000000               0.000000000               0.000000000              -0.000068220               0.004932336              -0.000036158              -0.000642123               0.001858137               0.001216014               0.000000000               0.000000000               0.000000000               0.000000000              -0.000035163               0.004897679              -0.000019766              -0.000625394               0.001841008               0.001215614               0.000000000               0.000000000               0.000000000               0.000000000               0.000785225               0.009040633               0.003390998              -0.000835621               0.003292053               0.002456433               0.000000000               0.000000000               0.000000000               0.000000000              -0.001272536               0.009519076               0.002125927              -0.001667083               0.003728687               0.002061605               0.000000000               0.000000000               0.000000000               0.000000000              -0.002849039               0.010245328               0.000905510              -0.002349050               0.004198092               0.001849042               0.000000000               0.000000000               0.000000000               0.000000000              -0.003091189               0.009861577               0.000468101              -0.002391887               0.004084455               0.001692568               0.000000000               0.000000000               0.000000000               0.000000000              -0.002938066               0.009246540               0.000264955              -0.002257587               0.003834678               0.001577092               0.000000000               0.000000000               0.000000000               0.000000000              -0.002655682               0.008595601               0.000145755              -0.002070326               0.003555280               0.001484955               0.000000000               0.000000000               0.000000000               0.000000000              -0.002311005               0.007966012               0.000057011              -0.001862374               0.003276102               0.001413728               0.000000000               0.000000000               0.000000000               0.000000000              -0.001930132               0.007368203              -0.000000960              -0.001644821               0.003004317               0.001359496               0.000000000               0.000000000               0.000000000               0.000000000              -0.001544573               0.006818590              -0.000030203              -0.001431535               0.002750019               0.001318484               0.000000000               0.000000000               0.000000000               0.000000000              -0.001175668               0.006341217              -0.000051531              -0.001233524               0.002524893               0.001291368               0.000000000               0.000000000               0.000000000               0.000000000              -0.000845306               0.005935203              -0.000061688              -0.001058888               0.002331344               0.001272456               0.000000000               0.000000000               0.000000000               0.000000000              -0.000568218               0.005598228              -0.000057597              -0.000912858               0.002170343               0.001257485               0.000000000               0.000000000               0.000000000               0.000000000              -0.000347784               0.005335276              -0.000046765              -0.000797326               0.002044183               0.001246857               0.000000000               0.000000000               0.000000000               0.000000000              -0.000183749               0.005153109              -0.000028668              -0.000713043               0.001955367               0.001242324               0.000000000               0.000000000               0.000000000               0.000000000              -0.000076558               0.005043451              -0.000011863              -0.000659139               0.001900846               0.001241708               0.000000000               0.000000000               0.000000000               0.000000000              -0.000021534               0.004987270              -0.000003990              -0.000631483               0.001872901               0.001241418               0.000000000               0.000000000               0.000000000               0.000000000              -0.000008354               0.004967986              -0.000003580              -0.000624129               0.001864022               0.001239892               0.000000000               0.000000000               0.000000000               0.000000000              -0.000383432               0.006777676               0.002501960              -0.000990996               0.002589534               0.001598538               0.000000000               0.000000000               0.000000000               0.000000000              -0.002164944               0.008097826               0.001984733              -0.001824078               0.003307274               0.001483196               0.000000000               0.000000000               0.000000000               0.000000000              -0.003551011               0.009402172               0.001376794              -0.002506895               0.003969657               0.001462763               0.000000000               0.000000000               0.000000000               0.000000000              -0.003548183               0.009270962               0.001014479              -0.002489433               0.003920101               0.001430668               0.000000000               0.000000000               0.000000000               0.000000000              -0.003220691               0.008795678               0.000779025              -0.002307213               0.003700934               0.001393721               0.000000000               0.000000000               0.000000000               0.000000000              -0.002804125               0.008238318               0.000606885              -0.002081332               0.003439856               0.001358524               0.000000000               0.000000000               0.000000000               0.000000000              -0.002351028               0.007678009               0.000472698              -0.001841382               0.003173105               0.001331723               0.000000000               0.000000000               0.000000000               0.000000000              -0.001879571               0.007131765               0.000368520              -0.001596306               0.002909333               0.001313027               0.000000000               0.000000000               0.000000000               0.000000000              -0.001415100               0.006633559               0.000284858              -0.001359854               0.002664449               0.001304595               0.000000000               0.000000000               0.000000000               0.000000000              -0.000994279               0.006201717               0.000211308              -0.001148067               0.002449907               0.001301841               0.000000000               0.000000000               0.000000000               0.000000000              -0.000640021               0.005828181               0.000150979              -0.000968528               0.002265550               0.001297022               0.000000000               0.000000000               0.000000000               0.000000000              -0.000364667               0.005518250               0.000103498              -0.000826529               0.002114908               0.001288379               0.000000000               0.000000000               0.000000000               0.000000000              -0.000169113               0.005285020               0.000064387              -0.000724043               0.002003003               0.001278960               0.000000000               0.000000000               0.000000000               0.000000000              -0.000049346               0.005126243               0.000034766              -0.000659283               0.001928492               0.001269208               0.000000000               0.000000000               0.000000000               0.000000000               0.000007725               0.005036266               0.000015220              -0.000626635               0.001887617               0.001260982               0.000000000               0.000000000               0.000000000               0.000000000               0.000020009               0.004997547               0.000003104              -0.000617188               0.001871562               0.001254373               0.000000000               0.000000000               0.000000000               0.000000000               0.000017018               0.004988660              -0.000001173              -0.000617199               0.001868603               0.001251404               0.000000000               0.000000000               0.000000000               0.000000000              -0.001759305               0.004678414               0.001560571              -0.001244539               0.001974302               0.000729763               0.000000000               0.000000000               0.000000000               0.000000000              -0.002921914               0.006459258               0.001822027              -0.001903121               0.002787438               0.000884317               0.000000000               0.000000000               0.000000000               0.000000000              -0.003971801               0.008181706               0.001868951              -0.002512133               0.003564585               0.001052452               0.000000000               0.000000000               0.000000000               0.000000000              -0.003828986               0.008434768               0.001595160              -0.002490210               0.003641631               0.001151421               0.000000000               0.000000000               0.000000000               0.000000000              -0.003417645               0.008222920               0.001328509              -0.002309476               0.003510771               0.001201295               0.000000000               0.000000000               0.000000000               0.000000000              -0.002949481               0.007860698               0.001106798              -0.002088638               0.003316419               0.001227781               0.000000000               0.000000000               0.000000000               0.000000000              -0.002466469               0.007456456               0.000929679              -0.001856978               0.003104453               0.001247475               0.000000000               0.000000000               0.000000000               0.000000000              -0.001977594               0.007042526               0.000780534              -0.001621910               0.002888122               0.001266212               0.000000000               0.000000000               0.000000000               0.000000000              -0.001498337               0.006637981               0.000645311              -0.001391620               0.002676512               0.001284891               0.000000000               0.000000000               0.000000000               0.000000000              -0.001054950               0.006265715               0.000521518              -0.001178818               0.002481490               0.001302672               0.000000000               0.000000000               0.000000000               0.000000000              -0.000673825               0.005929487               0.000407836              -0.000993868               0.002307765               0.001313897               0.000000000               0.000000000               0.000000000               0.000000000              -0.000368968               0.005634220               0.000301493              -0.000842639               0.002158934               0.001316296               0.000000000               0.000000000               0.000000000               0.000000000              -0.000150894               0.005388098               0.000204100              -0.000730096               0.002039380               0.001309284               0.000000000               0.000000000               0.000000000               0.000000000              -0.000015049               0.005201885               0.000120491              -0.000655878               0.001952570               0.001296693               0.000000000               0.000000000               0.000000000               0.000000000               0.000052893               0.005083648               0.000055317              -0.000615620               0.001899739               0.001284119               0.000000000               0.000000000               0.000000000               0.000000000               0.000069488               0.005023437               0.000015646              -0.000601870               0.001875086               0.001273216               0.000000000               0.000000000               0.000000000               0.000000000               0.000064069               0.005005663               0.000001973              -0.000601680               0.001869098               0.001267417               0.000000000               0.000000000               0.000000000               0.000000000              -0.003520816               0.002773367               0.000633603              -0.001666974               0.001480103              -0.000186871               0.000000000               0.000000000               0.000000000               0.000000000              -0.003779608               0.004807367               0.001585471              -0.002018270               0.002275195               0.000256926               0.000000000               0.000000000               0.000000000               0.000000000              -0.004301190               0.006760418               0.002257016              -0.002457993               0.003072780               0.000614787               0.000000000               0.000000000               0.000000000               0.000000000              -0.004024917               0.007383126               0.002149372              -0.002432229               0.003271760               0.000839531               0.000000000               0.000000000               0.000000000               0.000000000              -0.003556348               0.007477323               0.001896131              -0.002268291               0.003248513               0.000980222               0.000000000               0.000000000               0.000000000               0.000000000              -0.003058131               0.007357775               0.001642656              -0.002066516               0.003141406               0.001074889               0.000000000               0.000000000               0.000000000               0.000000000              -0.002566416               0.007148562               0.001426819              -0.001855972               0.003001487               0.001145515               0.000000000               0.000000000               0.000000000               0.000000000              -0.002083190               0.006888592               0.001240657              -0.001642266               0.002843596               0.001201330               0.000000000               0.000000000               0.000000000               0.000000000              -0.001607126               0.006597798               0.001067148              -0.001427394               0.002675042               0.001247648               0.000000000               0.000000000               0.000000000               0.000000000              -0.001152214               0.006306578               0.000901494              -0.001220400               0.002508972               0.001288572               0.000000000               0.000000000               0.000000000               0.000000000              -0.000742252               0.006024770               0.000742039              -0.001031438               0.002352049               0.001320611               0.000000000               0.000000000               0.000000000               0.000000000              -0.000393662               0.005757938               0.000584962              -0.000867363               0.002208415               0.001341051               0.000000000               0.000000000               0.000000000               0.000000000              -0.000119810               0.005512623               0.000430639              -0.000734005               0.002082191               0.001348186               0.000000000               0.000000000               0.000000000               0.000000000               0.000067708               0.005305940               0.000287727              -0.000637850               0.001981246               0.001343395               0.000000000               0.000000000               0.000000000               0.000000000               0.000174499               0.005158140               0.000162256              -0.000579329               0.001912473               0.001333144               0.000000000               0.000000000               0.000000000               0.000000000               0.000206419               0.005062721               0.000064964              -0.000555432               0.001872701               0.001317269               0.000000000               0.000000000               0.000000000               0.000000000               0.000194229               0.005020252               0.000022156              -0.000554694               0.001858299               0.001303604               0.000000000               0.000000000               0.000000000               0.000000000              -0.005548036               0.001212247              -0.000196953              -0.002232041               0.001148089              -0.001083953               0.000000000               0.000000000               0.000000000               0.000000000              -0.004780577               0.003250597               0.001258948              -0.002199037               0.001816532              -0.000382505               0.000000000               0.000000000               0.000000000               0.000000000              -0.004568368               0.005154643               0.002426954              -0.002357463               0.002504017               0.000146554               0.000000000               0.000000000               0.000000000               0.000000000              -0.004074848               0.006034938               0.002526953              -0.002282430               0.002772435               0.000490005               0.000000000               0.000000000               0.000000000               0.000000000              -0.003536740               0.006417425               0.002342151              -0.002128451               0.002848603               0.000720152               0.000000000               0.000000000               0.000000000               0.000000000              -0.003015191               0.006553811               0.002098822              -0.001949919               0.002834554               0.000884635               0.000000000               0.000000000               0.000000000               0.000000000              -0.002519741               0.006557584               0.001868373              -0.001764597               0.002774038               0.001009441               0.000000000               0.000000000               0.000000000               0.000000000              -0.002047725               0.006472264               0.001659365              -0.001576927               0.002683042               0.001106115               0.000000000               0.000000000               0.000000000               0.000000000              -0.001588391               0.006327360               0.001463109              -0.001386564               0.002571286               0.001184723               0.000000000               0.000000000               0.000000000               0.000000000              -0.001141068               0.006148970               0.001274637              -0.001196519               0.002448476               0.001251957               0.000000000               0.000000000               0.000000000               0.000000000              -0.000715923               0.005952313               0.001090548              -0.001012508               0.002321587               0.001309079               0.000000000               0.000000000               0.000000000               0.000000000              -0.000331965               0.005747173               0.000905470              -0.000842882               0.002196666               0.001353784               0.000000000               0.000000000               0.000000000               0.000000000              -0.000000785               0.005543337               0.000714724              -0.000693210               0.002078830               0.001385620               0.000000000               0.000000000               0.000000000               0.000000000               0.000257067               0.005358399               0.000519688              -0.000573399               0.001977248               0.001403849               0.000000000               0.000000000               0.000000000               0.000000000               0.000420493               0.005203164               0.000329211              -0.000492709               0.001898607               0.001405898               0.000000000               0.000000000               0.000000000               0.000000000               0.000483388               0.005084475               0.000153104              -0.000454288               0.001846237               0.001391950               0.000000000               0.000000000               0.000000000               0.000000000               0.000476075               0.005028899               0.000066905              -0.000450083               0.001826310               0.001376227               0.000000000               0.000000000               0.000000000               0.000000000              -0.007699119               0.000085354              -0.000809552              -0.002897836               0.000994390              -0.001903447               0.000000000               0.000000000               0.000000000               0.000000000              -0.005867409               0.001876567               0.000892401              -0.002434846               0.001437128              -0.000997718               0.000000000               0.000000000               0.000000000               0.000000000              -0.004800290               0.003502020               0.002348616              -0.002237857               0.001913278              -0.000324579               0.000000000               0.000000000               0.000000000               0.000000000              -0.004014712               0.004512477               0.002631548              -0.002069572               0.002194000               0.000124428               0.000000000               0.000000000               0.000000000               0.000000000              -0.003373560               0.005125445               0.002544467              -0.001905762               0.002343717               0.000437956               0.000000000               0.000000000               0.000000000               0.000000000              -0.002816716               0.005489126               0.002350327              -0.001742406               0.002410492               0.000668086               0.000000000               0.000000000               0.000000000               0.000000000              -0.002323091               0.005690284               0.002139760              -0.001582442               0.002424222               0.000841781               0.000000000               0.000000000               0.000000000               0.000000000              -0.001867055               0.005787643               0.001934654              -0.001423598               0.002403727               0.000980129               0.000000000               0.000000000               0.000000000               0.000000000              -0.001425939               0.005813061               0.001738034              -0.001261357               0.002358120               0.001096762               0.000000000               0.000000000               0.000000000               0.000000000              -0.000987994               0.005781213               0.001551188              -0.001093147               0.002291434               0.001198286               0.000000000               0.000000000               0.000000000               0.000000000              -0.000559105               0.005702219               0.001367376              -0.000922440               0.002208201               0.001285760               0.000000000               0.000000000               0.000000000               0.000000000              -0.000148169               0.005592256               0.001179634              -0.000754594               0.002115598               0.001361004               0.000000000               0.000000000               0.000000000               0.000000000               0.000232373               0.005466914               0.000979299              -0.000596223               0.002021027               0.001424804               0.000000000               0.000000000               0.000000000               0.000000000               0.000563880               0.005336006               0.000755326              -0.000455545               0.001930499               0.001474954               0.000000000               0.000000000               0.000000000               0.000000000               0.000815939               0.005204684               0.000512202              -0.000344608               0.001849746               0.001505139               0.000000000               0.000000000               0.000000000               0.000000000               0.000963495               0.005091275               0.000258980              -0.000275098               0.001788774               0.001513676               0.000000000               0.000000000               0.000000000               0.000000000               0.001003428               0.005040174               0.000129595              -0.000253735               0.001764620               0.001510884               0.000000000               0.000000000               0.000000000               0.000000000              -0.009764870              -0.000622828              -0.001093742              -0.003583970               0.000987040              -0.002596930               0.000000000               0.000000000               0.000000000               0.000000000              -0.006948900               0.000767784               0.000551219              -0.002701808               0.001156523              -0.001545285               0.000000000               0.000000000               0.000000000               0.000000000              -0.005016046               0.001975979               0.002019977              -0.002128012               0.001367987              -0.000760025               0.000000000               0.000000000               0.000000000               0.000000000              -0.003890314               0.002991890               0.002404692              -0.001832851               0.001608235              -0.000224616               0.000000000               0.000000000               0.000000000               0.000000000              -0.003114038               0.003742585               0.002409311              -0.001635584               0.001792709               0.000157125               0.000000000               0.000000000               0.000000000               0.000000000              -0.002510778               0.004279174               0.002280809              -0.001476436               0.001918521               0.000442085               0.000000000               0.000000000               0.000000000               0.000000000              -0.002009322               0.004657313               0.002114191              -0.001335658               0.001997640               0.000661983               0.000000000               0.000000000               0.000000000               0.000000000              -0.001563374               0.004925993               0.001944725              -0.001202012               0.002042651               0.000840639               0.000000000               0.000000000               0.000000000               0.000000000              -0.001135426               0.005117331               0.001779957              -0.001065449               0.002060909               0.000995460               0.000000000               0.000000000               0.000000000               0.000000000              -0.000709576               0.005239798               0.001619157              -0.000921064               0.002053603               0.001132539               0.000000000               0.000000000               0.000000000               0.000000000              -0.000284253               0.005296344               0.001457280              -0.000768637               0.002021642               0.001253006               0.000000000               0.000000000               0.000000000               0.000000000               0.000142839               0.005306183               0.001291097              -0.000609707               0.001971945               0.001362238               0.000000000               0.000000000               0.000000000               0.000000000               0.000562623               0.005281574               0.001107418              -0.000449213               0.001910244               0.001461032               0.000000000               0.000000000               0.000000000               0.000000000               0.000967369               0.005232210               0.000892377              -0.000291263               0.001841140               0.001549877               0.000000000               0.000000000               0.000000000               0.000000000               0.001342729               0.005165705               0.000640930              -0.000142190               0.001769281               0.001627091               0.000000000               0.000000000               0.000000000               0.000000000               0.001655486               0.005089170               0.000343862              -0.000015340               0.001701486               0.001686146               0.000000000               0.000000000               0.000000000               0.000000000               0.001822194               0.005061917               0.000188313               0.000050582               0.001670428               0.001721010               0.000000000               0.000000000               0.000000000               0.000000000              -0.011499427              -0.000994761              -0.001007176              -0.004187937               0.001064385              -0.003123553               0.000000000               0.000000000               0.000000000               0.000000000              -0.007889122              -0.000025120               0.000286397              -0.002955279               0.000976713              -0.001978566               0.000000000               0.000000000               0.000000000               0.000000000              -0.005206273               0.000742612               0.001477011              -0.002045177               0.000929256              -0.001115921               0.000000000               0.000000000               0.000000000               0.000000000              -0.003750219               0.001678051               0.001843806              -0.001616086               0.001098037              -0.000518049               0.000000000               0.000000000               0.000000000               0.000000000              -0.002832296               0.002492752               0.001897325              -0.001373703               0.001288808              -0.000084894               0.000000000               0.000000000               0.000000000               0.000000000              -0.002179119               0.003145598               0.001829653              -0.001210367               0.001451977               0.000241610               0.000000000               0.000000000               0.000000000               0.000000000              -0.001660588               0.003657939               0.001721532              -0.001079961               0.001579287               0.000499326               0.000000000               0.000000000               0.000000000               0.000000000              -0.001210373               0.004060681               0.001607121              -0.000961474               0.001674037               0.000712564               0.000000000               0.000000000               0.000000000               0.000000000              -0.000791388               0.004379240               0.001492260              -0.000844174               0.001741123               0.000896949               0.000000000               0.000000000               0.000000000               0.000000000              -0.000380678               0.004626587               0.001376064              -0.000721077               0.001782539               0.001061462               0.000000000               0.000000000               0.000000000               0.000000000               0.000039979               0.004812484               0.001257870              -0.000586568               0.001799668               0.001213100               0.000000000               0.000000000               0.000000000               0.000000000               0.000480083               0.004949527               0.001131602              -0.000438659               0.001796045               0.001357386               0.000000000               0.000000000               0.000000000               0.000000000               0.000937859               0.005036743               0.000988342              -0.000277896               0.001771529               0.001493633               0.000000000               0.000000000               0.000000000               0.000000000               0.001422620               0.005087178               0.000821081              -0.000102415               0.001729847               0.001627432               0.000000000               0.000000000               0.000000000               0.000000000               0.001938468               0.005106386               0.000615978               0.000088626               0.001672570               0.001761196               0.000000000               0.000000000               0.000000000               0.000000000               0.002467350               0.005075709               0.000345139               0.000290790               0.001594956               0.001885746               0.000000000               0.000000000               0.000000000               0.000000000               0.002831894               0.005082523               0.000201813               0.000426641               0.001551944               0.001978585               0.000000000               0.000000000               0.000000000               0.000000000              -0.012664820              -0.001152544              -0.000597914              -0.004605237               0.001150890              -0.003454347               0.000000000               0.000000000               0.000000000               0.000000000              -0.008535124              -0.000496269               0.000112025              -0.003138636               0.000880783              -0.002257853               0.000000000               0.000000000               0.000000000               0.000000000              -0.005338273              -0.000058765               0.000777846              -0.001994505               0.000645242              -0.001349263               0.000000000               0.000000000               0.000000000               0.000000000              -0.003643602               0.000783736               0.001002052              -0.001464316               0.000749345              -0.000714971               0.000000000               0.000000000               0.000000000               0.000000000              -0.002619718               0.001615889               0.001048312              -0.001184378               0.000933416              -0.000250963               0.000000000               0.000000000               0.000000000               0.000000000              -0.001918191               0.002334272               0.001022861              -0.001011103               0.001115117               0.000104013               0.000000000               0.000000000               0.000000000               0.000000000              -0.001378490               0.002924584               0.000972946              -0.000882505               0.001269020               0.000386515               0.000000000               0.000000000               0.000000000               0.000000000              -0.000923202               0.003405406               0.000916416              -0.000771875               0.001392415               0.000620540               0.000000000               0.000000000               0.000000000               0.000000000              -0.000508207               0.003802302               0.000857942              -0.000665864               0.001489376               0.000823512               0.000000000               0.000000000               0.000000000               0.000000000              -0.000102254               0.004134891               0.000799204              -0.000555206               0.001563352               0.001008146               0.000000000               0.000000000               0.000000000               0.000000000               0.000316566               0.004411834               0.000738871              -0.000432766               0.001614852               0.001182086               0.000000000               0.000000000               0.000000000               0.000000000               0.000765061               0.004636543               0.000670445              -0.000292670               0.001643055               0.001350386               0.000000000               0.000000000               0.000000000               0.000000000               0.001258596               0.004807979               0.000590131              -0.000129024               0.001645652               0.001516628               0.000000000               0.000000000               0.000000000               0.000000000               0.001813960               0.004937935               0.000497934               0.000062992               0.001624965               0.001687957               0.000000000               0.000000000               0.000000000               0.000000000               0.002444291               0.005024095               0.000381995               0.000288594               0.001578483               0.001867078               0.000000000               0.000000000               0.000000000               0.000000000               0.003158627               0.005037795               0.000218554               0.000554755               0.001494330               0.002049085               0.000000000               0.000000000               0.000000000               0.000000000               0.003706086               0.005082600               0.000132919               0.000754450               0.001442700               0.002197149               0.000000000               0.000000000               0.000000000               0.000000000               0.000000000               0.000000000               0.000000000               0.000000000               0.000000000               0.000000000               0.000000000               0.000000000               0.000000000               0.000000000               0.000000000               0.000000000               0.000000000               0.000000000               0.000000000               0.000000000               0.000000000               0.000000000               0.000000000               0.000000000               0.000000000               0.000000000               0.000000000               0.000000000               0.000000000               0.000000000               0.000000000               0.000000000               0.000000000               0.000000000               0.000000000               0.000000000               0.000000000               0.000000000               0.000000000               0.000000000               0.000000000               0.000000000               0.000000000               0.000000000               0.000000000               0.000000000               0.000000000               0.000000000               0.000000000               0.000000000               0.000000000               0.000000000               0.000000000               0.000000000               0.000000000               0.000000000               0.000000000               0.000000000               0.000000000               0.000000000               0.000000000               0.000000000               0.000000000               0.000000000               0.000000000               0.000000000               0.000000000               0.000000000               0.000000000               0.000000000               0.000000000               0.000000000               0.000000000               0.000000000               0.000000000               0.000000000               0.000000000               0.000000000               0.000000000               0.000000000               0.000000000               0.000000000               0.000000000               0.000000000               0.000000000               0.000000000               0.000000000               0.000000000               0.000000000               0.000000000               0.000000000               0.000000000               0.000000000               0.000000000               0.000000000               0.000000000               0.000000000               0.000000000               0.000000000               0.000000000               0.000000000               0.000000000               0.000000000               0.000000000               0.000000000               0.000000000               0.000000000               0.000000000               0.000000000               0.000000000               0.000000000               0.000000000               0.000000000               0.000000000               0.000000000               0.000000000               0.000000000               0.000000000               0.000000000               0.000000000               0.000000000               0.000000000               0.000000000               0.000000000               0.000000000               0.000000000               0.000000000               0.000000000               0.000000000               0.000000000               0.000000000               0.000000000               0.000000000               0.000000000               0.000000000               0.000000000               0.000000000               0.000000000               0.000000000               0.000000000               0.000000000               0.000000000               0.000000000               0.000000000               0.000000000               0.000000000               0.000000000               0.000000000               0.000000000               0.000000000               0.000000000               0.000000000               0.000000000               0.000000000               0.000000000               0.000000000               0.000000000               0.000000000               0.000000000               0.000000000               0.000000000               0.000000000               0.000000000               0.000000000               0.000000000               0.000000000               0.000000000               0.000000000               0.000000000               0.000000000               0.000000000               0.000000000               0.000000000               0.000000000 </DataArray>
</PointData>
</Piece>
</UnstructuredGrid> </VTKFile>
