<?xml version="1.0"?>
<VTKFile type="UnstructuredGrid" version="0.1">
<UnstructuredGrid>
<Piece NumberOfPoints="      1156" NumberOfCells="      1024">
<Points>
<DataArray type="Float64"                                    Name="coordinates"                                                      NumberOfComponents=" 3" format="ascii">
              0.133000000               0.000000000               0.000000000               0.155937500               0.000000000               0.000000000               0.178875000               0.000000000               0.000000000               0.201812500               0.000000000               0.000000000               0.224750000               0.000000000               0.000000000               0.247687500               0.000000000               0.000000000               0.270625000               0.000000000               0.000000000               0.293562500               0.000000000               0.000000000               0.316500000               0.000000000               0.000000000               0.339437500               0.000000000               0.000000000               0.362375000               0.000000000               0.000000000               0.385312500               0.000000000               0.000000000               0.408250000               0.000000000               0.000000000               0.431187500               0.000000000               0.000000000               0.454125000               0.000000000               0.000000000               0.477062500               0.000000000               0.000000000               0.500000000               0.000000000               0.000000000               0.132359569               0.013036280               0.000000000               0.155337096               0.016127762               0.000000000               0.178314623               0.019219245               0.000000000               0.201292150               0.022310727               0.000000000               0.224269676               0.025402210               0.000000000               0.247247203               0.028493692               0.000000000               0.270224730               0.031585175               0.000000000               0.293202257               0.034676657               0.000000000               0.316179784               0.037768140               0.000000000               0.339157311               0.040859622               0.000000000               0.362134838               0.043951105               0.000000000               0.385112365               0.047042587               0.000000000               0.408089892               0.050134070               0.000000000               0.431067419               0.053225552               0.000000000               0.454044946               0.056317035               0.000000000               0.477022473               0.059408517               0.000000000               0.500000000               0.062500000               0.000000000               0.130444442               0.025947013               0.000000000               0.153541665               0.032137825               0.000000000               0.176638887               0.038328636               0.000000000               0.199736109               0.044519448               0.000000000               0.222833332               0.050710260               0.000000000               0.245930554               0.056901071               0.000000000               0.269027776               0.063091883               0.000000000               0.292124999               0.069282695               0.000000000               0.315222221               0.075473506               0.000000000               0.338319444               0.081664318               0.000000000               0.361416666               0.087855130               0.000000000               0.384513888               0.094045942               0.000000000               0.407611111               0.100236753               0.000000000               0.430708333               0.106427565               0.000000000               0.453805555               0.112618377               0.000000000               0.476902778               0.118809188               0.000000000               0.500000000               0.125000000               0.000000000               0.127273065               0.038607862               0.000000000               0.150568498               0.047913621               0.000000000               0.173863932               0.057219379               0.000000000               0.197159365               0.066525138               0.000000000               0.220454798               0.075830897               0.000000000               0.243750232               0.085136655               0.000000000               0.267045665               0.094442414               0.000000000               0.290341099               0.103748172               0.000000000               0.313636532               0.113053931               0.000000000               0.336931966               0.122359690               0.000000000               0.360227399               0.131665448               0.000000000               0.383522833               0.140971207               0.000000000               0.406818266               0.150276966               0.000000000               0.430113700               0.159582724               0.000000000               0.453409133               0.168888483               0.000000000               0.476704567               0.178194241               0.000000000               0.500000000               0.187500000               0.000000000               0.122875978               0.050896897               0.000000000               0.146446229               0.063340840               0.000000000               0.170016481               0.075784784               0.000000000               0.193586732               0.088228728               0.000000000               0.217156983               0.100672672               0.000000000               0.240727235               0.113116616               0.000000000               0.264297486               0.125560560               0.000000000               0.287867738               0.138004504               0.000000000               0.311437989               0.150448448               0.000000000               0.335008240               0.162892392               0.000000000               0.358578492               0.175336336               0.000000000               0.382148743               0.187780280               0.000000000               0.405718994               0.200224224               0.000000000               0.429289246               0.212668168               0.000000000               0.452859497               0.225112112               0.000000000               0.476429749               0.237556056               0.000000000               0.500000000               0.250000000               0.000000000               0.117295528               0.062695766               0.000000000               0.141214558               0.078308531               0.000000000               0.165133587               0.093921295               0.000000000               0.189052617               0.109534060               0.000000000               0.212971646               0.125146824               0.000000000               0.236890676               0.140759589               0.000000000               0.260809705               0.156372354               0.000000000               0.284728735               0.171985118               0.000000000               0.308647764               0.187597883               0.000000000               0.332566794               0.203210648               0.000000000               0.356485823               0.218823412               0.000000000               0.380404853               0.234436177               0.000000000               0.404323882               0.250048941               0.000000000               0.428242912               0.265661706               0.000000000               0.452161941               0.281274471               0.000000000               0.476080971               0.296887235               0.000000000               0.500000000               0.312500000               0.000000000               0.110585458               0.073890841               0.000000000               0.134923867               0.092710163               0.000000000               0.159262276               0.111529486               0.000000000               0.183600685               0.130348808               0.000000000               0.207939094               0.149168131               0.000000000               0.232277503               0.167987453               0.000000000               0.256615912               0.186806776               0.000000000               0.280954320               0.205626098               0.000000000               0.305292729               0.224445420               0.000000000               0.329631138               0.243264743               0.000000000               0.353969547               0.262084065               0.000000000               0.378307956               0.280903388               0.000000000               0.402646365               0.299722710               0.000000000               0.426984773               0.318542033               0.000000000               0.451323182               0.337361355               0.000000000               0.475661591               0.356180678               0.000000000               0.500000000               0.375000000               0.000000000               0.102810390               0.084374307               0.000000000               0.127634741               0.106444663               0.000000000               0.152459092               0.128515018               0.000000000               0.177283442               0.150585374               0.000000000               0.202107793               0.172655730               0.000000000               0.226932143               0.194726086               0.000000000               0.251756494               0.216796442               0.000000000               0.276580845               0.238866798               0.000000000               0.301405195               0.260937153               0.000000000               0.326229546               0.283007509               0.000000000               0.351053896               0.305077865               0.000000000               0.375878247               0.327148221               0.000000000               0.400702598               0.349218577               0.000000000               0.425526948               0.371288933               0.000000000               0.450351299               0.393359288               0.000000000               0.475175649               0.415429644               0.000000000               0.500000000               0.437500000               0.000000000               0.094045202               0.094045202               0.000000000               0.119417377               0.119417377               0.000000000               0.144789552               0.144789552               0.000000000               0.170161727               0.170161727               0.000000000               0.195533901               0.195533901               0.000000000               0.220906076               0.220906076               0.000000000               0.246278251               0.246278251               0.000000000               0.271650426               0.271650426               0.000000000               0.297022601               0.297022601               0.000000000               0.322394776               0.322394776               0.000000000               0.347766951               0.347766951               0.000000000               0.373139126               0.373139126               0.000000000               0.398511300               0.398511300               0.000000000               0.423883475               0.423883475               0.000000000               0.449255650               0.449255650               0.000000000               0.474627825               0.474627825               0.000000000               0.500000000               0.500000000               0.000000000               0.084374307               0.102810390               0.000000000               0.106444663               0.127634741               0.000000000               0.128515018               0.152459092               0.000000000               0.150585374               0.177283442               0.000000000               0.172655730               0.202107793               0.000000000               0.194726086               0.226932143               0.000000000               0.216796442               0.251756494               0.000000000               0.238866798               0.276580845               0.000000000               0.260937153               0.301405195               0.000000000               0.283007509               0.326229546               0.000000000               0.305077865               0.351053896               0.000000000               0.327148221               0.375878247               0.000000000               0.349218577               0.400702598               0.000000000               0.371288933               0.425526948               0.000000000               0.393359288               0.450351299               0.000000000               0.415429644               0.475175649               0.000000000               0.437500000               0.500000000               0.000000000               0.073890841               0.110585458               0.000000000               0.092710163               0.134923867               0.000000000               0.111529486               0.159262276               0.000000000               0.130348808               0.183600685               0.000000000               0.149168131               0.207939094               0.000000000               0.167987453               0.232277503               0.000000000               0.186806776               0.256615912               0.000000000               0.205626098               0.280954320               0.000000000               0.224445420               0.305292729               0.000000000               0.243264743               0.329631138               0.000000000               0.262084065               0.353969547               0.000000000               0.280903388               0.378307956               0.000000000               0.299722710               0.402646365               0.000000000               0.318542033               0.426984773               0.000000000               0.337361355               0.451323182               0.000000000               0.356180678               0.475661591               0.000000000               0.375000000               0.500000000               0.000000000               0.062695766               0.117295528               0.000000000               0.078308531               0.141214558               0.000000000               0.093921295               0.165133587               0.000000000               0.109534060               0.189052617               0.000000000               0.125146824               0.212971646               0.000000000               0.140759589               0.236890676               0.000000000               0.156372354               0.260809705               0.000000000               0.171985118               0.284728735               0.000000000               0.187597883               0.308647764               0.000000000               0.203210648               0.332566794               0.000000000               0.218823412               0.356485823               0.000000000               0.234436177               0.380404853               0.000000000               0.250048941               0.404323882               0.000000000               0.265661706               0.428242912               0.000000000               0.281274471               0.452161941               0.000000000               0.296887235               0.476080971               0.000000000               0.312500000               0.500000000               0.000000000               0.050896897               0.122875978               0.000000000               0.063340840               0.146446229               0.000000000               0.075784784               0.170016481               0.000000000               0.088228728               0.193586732               0.000000000               0.100672672               0.217156983               0.000000000               0.113116616               0.240727235               0.000000000               0.125560560               0.264297486               0.000000000               0.138004504               0.287867738               0.000000000               0.150448448               0.311437989               0.000000000               0.162892392               0.335008240               0.000000000               0.175336336               0.358578492               0.000000000               0.187780280               0.382148743               0.000000000               0.200224224               0.405718994               0.000000000               0.212668168               0.429289246               0.000000000               0.225112112               0.452859497               0.000000000               0.237556056               0.476429749               0.000000000               0.250000000               0.500000000               0.000000000               0.038607862               0.127273065               0.000000000               0.047913621               0.150568498               0.000000000               0.057219379               0.173863932               0.000000000               0.066525138               0.197159365               0.000000000               0.075830897               0.220454798               0.000000000               0.085136655               0.243750232               0.000000000               0.094442414               0.267045665               0.000000000               0.103748172               0.290341099               0.000000000               0.113053931               0.313636532               0.000000000               0.122359690               0.336931966               0.000000000               0.131665448               0.360227399               0.000000000               0.140971207               0.383522833               0.000000000               0.150276966               0.406818266               0.000000000               0.159582724               0.430113700               0.000000000               0.168888483               0.453409133               0.000000000               0.178194241               0.476704567               0.000000000               0.187500000               0.500000000               0.000000000               0.025947013               0.130444442               0.000000000               0.032137825               0.153541665               0.000000000               0.038328636               0.176638887               0.000000000               0.044519448               0.199736109               0.000000000               0.050710260               0.222833332               0.000000000               0.056901071               0.245930554               0.000000000               0.063091883               0.269027776               0.000000000               0.069282695               0.292124999               0.000000000               0.075473506               0.315222221               0.000000000               0.081664318               0.338319444               0.000000000               0.087855130               0.361416666               0.000000000               0.094045942               0.384513888               0.000000000               0.100236753               0.407611111               0.000000000               0.106427565               0.430708333               0.000000000               0.112618377               0.453805555               0.000000000               0.118809188               0.476902778               0.000000000               0.125000000               0.500000000               0.000000000               0.013036280               0.132359569               0.000000000               0.016127762               0.155337096               0.000000000               0.019219245               0.178314623               0.000000000               0.022310727               0.201292150               0.000000000               0.025402210               0.224269676               0.000000000               0.028493692               0.247247203               0.000000000               0.031585175               0.270224730               0.000000000               0.034676657               0.293202257               0.000000000               0.037768140               0.316179784               0.000000000               0.040859622               0.339157311               0.000000000               0.043951105               0.362134838               0.000000000               0.047042587               0.385112365               0.000000000               0.050134070               0.408089892               0.000000000               0.053225552               0.431067419               0.000000000               0.056317035               0.454044946               0.000000000               0.059408517               0.477022473               0.000000000               0.062500000               0.500000000               0.000000000               0.000000000               0.133000000               0.000000000               0.000000000               0.155937500               0.000000000               0.000000000               0.178875000               0.000000000               0.000000000               0.201812500               0.000000000               0.000000000               0.224750000               0.000000000               0.000000000               0.247687500               0.000000000               0.000000000               0.270625000               0.000000000               0.000000000               0.293562500               0.000000000               0.000000000               0.316500000               0.000000000               0.000000000               0.339437500               0.000000000               0.000000000               0.362375000               0.000000000               0.000000000               0.385312500               0.000000000               0.000000000               0.408250000               0.000000000               0.000000000               0.431187500               0.000000000               0.000000000               0.454125000               0.000000000               0.000000000               0.477062500               0.000000000               0.000000000               0.500000000               0.000000000               0.133000000               0.000000000               0.000000000               0.155937500               0.000000000               0.000000000               0.178875000               0.000000000               0.000000000               0.201812500               0.000000000               0.000000000               0.224750000               0.000000000               0.000000000               0.247687500               0.000000000               0.000000000               0.270625000               0.000000000               0.000000000               0.293562500               0.000000000               0.000000000               0.316500000               0.000000000               0.000000000               0.339437500               0.000000000               0.000000000               0.362375000               0.000000000               0.000000000               0.385312500               0.000000000               0.000000000               0.408250000               0.000000000               0.000000000               0.431187500               0.000000000               0.000000000               0.454125000               0.000000000               0.000000000               0.477062500               0.000000000               0.000000000               0.500000000               0.000000000               0.000000000               0.132359569              -0.013036280               0.000000000               0.155337096              -0.016127762               0.000000000               0.178314623              -0.019219245               0.000000000               0.201292150              -0.022310727               0.000000000               0.224269676              -0.025402210               0.000000000               0.247247203              -0.028493692               0.000000000               0.270224730              -0.031585175               0.000000000               0.293202257              -0.034676657               0.000000000               0.316179784              -0.037768140               0.000000000               0.339157311              -0.040859622               0.000000000               0.362134838              -0.043951105               0.000000000               0.385112365              -0.047042587               0.000000000               0.408089892              -0.050134070               0.000000000               0.431067419              -0.053225552               0.000000000               0.454044946              -0.056317035               0.000000000               0.477022473              -0.059408517               0.000000000               0.500000000              -0.062500000               0.000000000               0.130444442              -0.025947013               0.000000000               0.153541665              -0.032137825               0.000000000               0.176638887              -0.038328636               0.000000000               0.199736109              -0.044519448               0.000000000               0.222833332              -0.050710260               0.000000000               0.245930554              -0.056901071               0.000000000               0.269027776              -0.063091883               0.000000000               0.292124999              -0.069282695               0.000000000               0.315222221              -0.075473506               0.000000000               0.338319444              -0.081664318               0.000000000               0.361416666              -0.087855130               0.000000000               0.384513888              -0.094045942               0.000000000               0.407611111              -0.100236753               0.000000000               0.430708333              -0.106427565               0.000000000               0.453805555              -0.112618377               0.000000000               0.476902778              -0.118809188               0.000000000               0.500000000              -0.125000000               0.000000000               0.127273065              -0.038607862               0.000000000               0.150568498              -0.047913621               0.000000000               0.173863932              -0.057219379               0.000000000               0.197159365              -0.066525138               0.000000000               0.220454798              -0.075830897               0.000000000               0.243750232              -0.085136655               0.000000000               0.267045665              -0.094442414               0.000000000               0.290341099              -0.103748172               0.000000000               0.313636532              -0.113053931               0.000000000               0.336931966              -0.122359690               0.000000000               0.360227399              -0.131665448               0.000000000               0.383522833              -0.140971207               0.000000000               0.406818266              -0.150276966               0.000000000               0.430113700              -0.159582724               0.000000000               0.453409133              -0.168888483               0.000000000               0.476704567              -0.178194241               0.000000000               0.500000000              -0.187500000               0.000000000               0.122875978              -0.050896897               0.000000000               0.146446229              -0.063340840               0.000000000               0.170016481              -0.075784784               0.000000000               0.193586732              -0.088228728               0.000000000               0.217156983              -0.100672672               0.000000000               0.240727235              -0.113116616               0.000000000               0.264297486              -0.125560560               0.000000000               0.287867738              -0.138004504               0.000000000               0.311437989              -0.150448448               0.000000000               0.335008240              -0.162892392               0.000000000               0.358578492              -0.175336336               0.000000000               0.382148743              -0.187780280               0.000000000               0.405718994              -0.200224224               0.000000000               0.429289246              -0.212668168               0.000000000               0.452859497              -0.225112112               0.000000000               0.476429749              -0.237556056               0.000000000               0.500000000              -0.250000000               0.000000000               0.117295528              -0.062695766               0.000000000               0.141214558              -0.078308531               0.000000000               0.165133587              -0.093921295               0.000000000               0.189052617              -0.109534060               0.000000000               0.212971646              -0.125146824               0.000000000               0.236890676              -0.140759589               0.000000000               0.260809705              -0.156372354               0.000000000               0.284728735              -0.171985118               0.000000000               0.308647764              -0.187597883               0.000000000               0.332566794              -0.203210648               0.000000000               0.356485823              -0.218823412               0.000000000               0.380404853              -0.234436177               0.000000000               0.404323882              -0.250048941               0.000000000               0.428242912              -0.265661706               0.000000000               0.452161941              -0.281274471               0.000000000               0.476080971              -0.296887235               0.000000000               0.500000000              -0.312500000               0.000000000               0.110585458              -0.073890841               0.000000000               0.134923867              -0.092710163               0.000000000               0.159262276              -0.111529486               0.000000000               0.183600685              -0.130348808               0.000000000               0.207939094              -0.149168131               0.000000000               0.232277503              -0.167987453               0.000000000               0.256615912              -0.186806776               0.000000000               0.280954320              -0.205626098               0.000000000               0.305292729              -0.224445420               0.000000000               0.329631138              -0.243264743               0.000000000               0.353969547              -0.262084065               0.000000000               0.378307956              -0.280903388               0.000000000               0.402646365              -0.299722710               0.000000000               0.426984773              -0.318542033               0.000000000               0.451323182              -0.337361355               0.000000000               0.475661591              -0.356180678               0.000000000               0.500000000              -0.375000000               0.000000000               0.102810390              -0.084374307               0.000000000               0.127634741              -0.106444663               0.000000000               0.152459092              -0.128515018               0.000000000               0.177283442              -0.150585374               0.000000000               0.202107793              -0.172655730               0.000000000               0.226932143              -0.194726086               0.000000000               0.251756494              -0.216796442               0.000000000               0.276580845              -0.238866798               0.000000000               0.301405195              -0.260937153               0.000000000               0.326229546              -0.283007509               0.000000000               0.351053896              -0.305077865               0.000000000               0.375878247              -0.327148221               0.000000000               0.400702598              -0.349218577               0.000000000               0.425526948              -0.371288933               0.000000000               0.450351299              -0.393359288               0.000000000               0.475175649              -0.415429644               0.000000000               0.500000000              -0.437500000               0.000000000               0.094045202              -0.094045202               0.000000000               0.119417377              -0.119417377               0.000000000               0.144789552              -0.144789552               0.000000000               0.170161727              -0.170161727               0.000000000               0.195533901              -0.195533901               0.000000000               0.220906076              -0.220906076               0.000000000               0.246278251              -0.246278251               0.000000000               0.271650426              -0.271650426               0.000000000               0.297022601              -0.297022601               0.000000000               0.322394776              -0.322394776               0.000000000               0.347766951              -0.347766951               0.000000000               0.373139126              -0.373139126               0.000000000               0.398511300              -0.398511300               0.000000000               0.423883475              -0.423883475               0.000000000               0.449255650              -0.449255650               0.000000000               0.474627825              -0.474627825               0.000000000               0.500000000              -0.500000000               0.000000000               0.084374307              -0.102810390               0.000000000               0.106444663              -0.127634741               0.000000000               0.128515018              -0.152459092               0.000000000               0.150585374              -0.177283442               0.000000000               0.172655730              -0.202107793               0.000000000               0.194726086              -0.226932143               0.000000000               0.216796442              -0.251756494               0.000000000               0.238866798              -0.276580845               0.000000000               0.260937153              -0.301405195               0.000000000               0.283007509              -0.326229546               0.000000000               0.305077865              -0.351053896               0.000000000               0.327148221              -0.375878247               0.000000000               0.349218577              -0.400702598               0.000000000               0.371288933              -0.425526948               0.000000000               0.393359288              -0.450351299               0.000000000               0.415429644              -0.475175649               0.000000000               0.437500000              -0.500000000               0.000000000               0.073890841              -0.110585458               0.000000000               0.092710163              -0.134923867               0.000000000               0.111529486              -0.159262276               0.000000000               0.130348808              -0.183600685               0.000000000               0.149168131              -0.207939094               0.000000000               0.167987453              -0.232277503               0.000000000               0.186806776              -0.256615912               0.000000000               0.205626098              -0.280954320               0.000000000               0.224445420              -0.305292729               0.000000000               0.243264743              -0.329631138               0.000000000               0.262084065              -0.353969547               0.000000000               0.280903388              -0.378307956               0.000000000               0.299722710              -0.402646365               0.000000000               0.318542033              -0.426984773               0.000000000               0.337361355              -0.451323182               0.000000000               0.356180678              -0.475661591               0.000000000               0.375000000              -0.500000000               0.000000000               0.062695766              -0.117295528               0.000000000               0.078308531              -0.141214558               0.000000000               0.093921295              -0.165133587               0.000000000               0.109534060              -0.189052617               0.000000000               0.125146824              -0.212971646               0.000000000               0.140759589              -0.236890676               0.000000000               0.156372354              -0.260809705               0.000000000               0.171985118              -0.284728735               0.000000000               0.187597883              -0.308647764               0.000000000               0.203210648              -0.332566794               0.000000000               0.218823412              -0.356485823               0.000000000               0.234436177              -0.380404853               0.000000000               0.250048941              -0.404323882               0.000000000               0.265661706              -0.428242912               0.000000000               0.281274471              -0.452161941               0.000000000               0.296887235              -0.476080971               0.000000000               0.312500000              -0.500000000               0.000000000               0.050896897              -0.122875978               0.000000000               0.063340840              -0.146446229               0.000000000               0.075784784              -0.170016481               0.000000000               0.088228728              -0.193586732               0.000000000               0.100672672              -0.217156983               0.000000000               0.113116616              -0.240727235               0.000000000               0.125560560              -0.264297486               0.000000000               0.138004504              -0.287867738               0.000000000               0.150448448              -0.311437989               0.000000000               0.162892392              -0.335008240               0.000000000               0.175336336              -0.358578492               0.000000000               0.187780280              -0.382148743               0.000000000               0.200224224              -0.405718994               0.000000000               0.212668168              -0.429289246               0.000000000               0.225112112              -0.452859497               0.000000000               0.237556056              -0.476429749               0.000000000               0.250000000              -0.500000000               0.000000000               0.038607862              -0.127273065               0.000000000               0.047913621              -0.150568498               0.000000000               0.057219379              -0.173863932               0.000000000               0.066525138              -0.197159365               0.000000000               0.075830897              -0.220454798               0.000000000               0.085136655              -0.243750232               0.000000000               0.094442414              -0.267045665               0.000000000               0.103748172              -0.290341099               0.000000000               0.113053931              -0.313636532               0.000000000               0.122359690              -0.336931966               0.000000000               0.131665448              -0.360227399               0.000000000               0.140971207              -0.383522833               0.000000000               0.150276966              -0.406818266               0.000000000               0.159582724              -0.430113700               0.000000000               0.168888483              -0.453409133               0.000000000               0.178194241              -0.476704567               0.000000000               0.187500000              -0.500000000               0.000000000               0.025947013              -0.130444442               0.000000000               0.032137825              -0.153541665               0.000000000               0.038328636              -0.176638887               0.000000000               0.044519448              -0.199736109               0.000000000               0.050710260              -0.222833332               0.000000000               0.056901071              -0.245930554               0.000000000               0.063091883              -0.269027776               0.000000000               0.069282695              -0.292124999               0.000000000               0.075473506              -0.315222221               0.000000000               0.081664318              -0.338319444               0.000000000               0.087855130              -0.361416666               0.000000000               0.094045942              -0.384513888               0.000000000               0.100236753              -0.407611111               0.000000000               0.106427565              -0.430708333               0.000000000               0.112618377              -0.453805555               0.000000000               0.118809188              -0.476902778               0.000000000               0.125000000              -0.500000000               0.000000000               0.013036280              -0.132359569               0.000000000               0.016127762              -0.155337096               0.000000000               0.019219245              -0.178314623               0.000000000               0.022310727              -0.201292150               0.000000000               0.025402210              -0.224269676               0.000000000               0.028493692              -0.247247203               0.000000000               0.031585175              -0.270224730               0.000000000               0.034676657              -0.293202257               0.000000000               0.037768140              -0.316179784               0.000000000               0.040859622              -0.339157311               0.000000000               0.043951105              -0.362134838               0.000000000               0.047042587              -0.385112365               0.000000000               0.050134070              -0.408089892               0.000000000               0.053225552              -0.431067419               0.000000000               0.056317035              -0.454044946               0.000000000               0.059408517              -0.477022473               0.000000000               0.062500000              -0.500000000               0.000000000               0.000000000              -0.133000000               0.000000000               0.000000000              -0.155937500               0.000000000               0.000000000              -0.178875000               0.000000000               0.000000000              -0.201812500               0.000000000               0.000000000              -0.224750000               0.000000000               0.000000000              -0.247687500               0.000000000               0.000000000              -0.270625000               0.000000000               0.000000000              -0.293562500               0.000000000               0.000000000              -0.316500000               0.000000000               0.000000000              -0.339437500               0.000000000               0.000000000              -0.362375000               0.000000000               0.000000000              -0.385312500               0.000000000               0.000000000              -0.408250000               0.000000000               0.000000000              -0.431187500               0.000000000               0.000000000              -0.454125000               0.000000000               0.000000000              -0.477062500               0.000000000               0.000000000              -0.500000000               0.000000000              -0.133000000               0.000000000               0.000000000              -0.155937500               0.000000000               0.000000000              -0.178875000               0.000000000               0.000000000              -0.201812500               0.000000000               0.000000000              -0.224750000               0.000000000               0.000000000              -0.247687500               0.000000000               0.000000000              -0.270625000               0.000000000               0.000000000              -0.293562500               0.000000000               0.000000000              -0.316500000               0.000000000               0.000000000              -0.339437500               0.000000000               0.000000000              -0.362375000               0.000000000               0.000000000              -0.385312500               0.000000000               0.000000000              -0.408250000               0.000000000               0.000000000              -0.431187500               0.000000000               0.000000000              -0.454125000               0.000000000               0.000000000              -0.477062500               0.000000000               0.000000000              -0.500000000               0.000000000               0.000000000              -0.132359569              -0.013036280               0.000000000              -0.155337096              -0.016127762               0.000000000              -0.178314623              -0.019219245               0.000000000              -0.201292150              -0.022310727               0.000000000              -0.224269676              -0.025402210               0.000000000              -0.247247203              -0.028493692               0.000000000              -0.270224730              -0.031585175               0.000000000              -0.293202257              -0.034676657               0.000000000              -0.316179784              -0.037768140               0.000000000              -0.339157311              -0.040859622               0.000000000              -0.362134838              -0.043951105               0.000000000              -0.385112365              -0.047042587               0.000000000              -0.408089892              -0.050134070               0.000000000              -0.431067419              -0.053225552               0.000000000              -0.454044946              -0.056317035               0.000000000              -0.477022473              -0.059408517               0.000000000              -0.500000000              -0.062500000               0.000000000              -0.130444442              -0.025947013               0.000000000              -0.153541665              -0.032137825               0.000000000              -0.176638887              -0.038328636               0.000000000              -0.199736109              -0.044519448               0.000000000              -0.222833332              -0.050710260               0.000000000              -0.245930554              -0.056901071               0.000000000              -0.269027776              -0.063091883               0.000000000              -0.292124999              -0.069282695               0.000000000              -0.315222221              -0.075473506               0.000000000              -0.338319444              -0.081664318               0.000000000              -0.361416666              -0.087855130               0.000000000              -0.384513888              -0.094045942               0.000000000              -0.407611111              -0.100236753               0.000000000              -0.430708333              -0.106427565               0.000000000              -0.453805555              -0.112618377               0.000000000              -0.476902778              -0.118809188               0.000000000              -0.500000000              -0.125000000               0.000000000              -0.127273065              -0.038607862               0.000000000              -0.150568498              -0.047913621               0.000000000              -0.173863932              -0.057219379               0.000000000              -0.197159365              -0.066525138               0.000000000              -0.220454798              -0.075830897               0.000000000              -0.243750232              -0.085136655               0.000000000              -0.267045665              -0.094442414               0.000000000              -0.290341099              -0.103748172               0.000000000              -0.313636532              -0.113053931               0.000000000              -0.336931966              -0.122359690               0.000000000              -0.360227399              -0.131665448               0.000000000              -0.383522833              -0.140971207               0.000000000              -0.406818266              -0.150276966               0.000000000              -0.430113700              -0.159582724               0.000000000              -0.453409133              -0.168888483               0.000000000              -0.476704567              -0.178194241               0.000000000              -0.500000000              -0.187500000               0.000000000              -0.122875978              -0.050896897               0.000000000              -0.146446229              -0.063340840               0.000000000              -0.170016481              -0.075784784               0.000000000              -0.193586732              -0.088228728               0.000000000              -0.217156983              -0.100672672               0.000000000              -0.240727235              -0.113116616               0.000000000              -0.264297486              -0.125560560               0.000000000              -0.287867738              -0.138004504               0.000000000              -0.311437989              -0.150448448               0.000000000              -0.335008240              -0.162892392               0.000000000              -0.358578492              -0.175336336               0.000000000              -0.382148743              -0.187780280               0.000000000              -0.405718994              -0.200224224               0.000000000              -0.429289246              -0.212668168               0.000000000              -0.452859497              -0.225112112               0.000000000              -0.476429749              -0.237556056               0.000000000              -0.500000000              -0.250000000               0.000000000              -0.117295528              -0.062695766               0.000000000              -0.141214558              -0.078308531               0.000000000              -0.165133587              -0.093921295               0.000000000              -0.189052617              -0.109534060               0.000000000              -0.212971646              -0.125146824               0.000000000              -0.236890676              -0.140759589               0.000000000              -0.260809705              -0.156372354               0.000000000              -0.284728735              -0.171985118               0.000000000              -0.308647764              -0.187597883               0.000000000              -0.332566794              -0.203210648               0.000000000              -0.356485823              -0.218823412               0.000000000              -0.380404853              -0.234436177               0.000000000              -0.404323882              -0.250048941               0.000000000              -0.428242912              -0.265661706               0.000000000              -0.452161941              -0.281274471               0.000000000              -0.476080971              -0.296887235               0.000000000              -0.500000000              -0.312500000               0.000000000              -0.110585458              -0.073890841               0.000000000              -0.134923867              -0.092710163               0.000000000              -0.159262276              -0.111529486               0.000000000              -0.183600685              -0.130348808               0.000000000              -0.207939094              -0.149168131               0.000000000              -0.232277503              -0.167987453               0.000000000              -0.256615912              -0.186806776               0.000000000              -0.280954320              -0.205626098               0.000000000              -0.305292729              -0.224445420               0.000000000              -0.329631138              -0.243264743               0.000000000              -0.353969547              -0.262084065               0.000000000              -0.378307956              -0.280903388               0.000000000              -0.402646365              -0.299722710               0.000000000              -0.426984773              -0.318542033               0.000000000              -0.451323182              -0.337361355               0.000000000              -0.475661591              -0.356180678               0.000000000              -0.500000000              -0.375000000               0.000000000              -0.102810390              -0.084374307               0.000000000              -0.127634741              -0.106444663               0.000000000              -0.152459092              -0.128515018               0.000000000              -0.177283442              -0.150585374               0.000000000              -0.202107793              -0.172655730               0.000000000              -0.226932143              -0.194726086               0.000000000              -0.251756494              -0.216796442               0.000000000              -0.276580845              -0.238866798               0.000000000              -0.301405195              -0.260937153               0.000000000              -0.326229546              -0.283007509               0.000000000              -0.351053896              -0.305077865               0.000000000              -0.375878247              -0.327148221               0.000000000              -0.400702598              -0.349218577               0.000000000              -0.425526948              -0.371288933               0.000000000              -0.450351299              -0.393359288               0.000000000              -0.475175649              -0.415429644               0.000000000              -0.500000000              -0.437500000               0.000000000              -0.094045202              -0.094045202               0.000000000              -0.119417377              -0.119417377               0.000000000              -0.144789552              -0.144789552               0.000000000              -0.170161727              -0.170161727               0.000000000              -0.195533901              -0.195533901               0.000000000              -0.220906076              -0.220906076               0.000000000              -0.246278251              -0.246278251               0.000000000              -0.271650426              -0.271650426               0.000000000              -0.297022601              -0.297022601               0.000000000              -0.322394776              -0.322394776               0.000000000              -0.347766951              -0.347766951               0.000000000              -0.373139126              -0.373139126               0.000000000              -0.398511300              -0.398511300               0.000000000              -0.423883475              -0.423883475               0.000000000              -0.449255650              -0.449255650               0.000000000              -0.474627825              -0.474627825               0.000000000              -0.500000000              -0.500000000               0.000000000              -0.084374307              -0.102810390               0.000000000              -0.106444663              -0.127634741               0.000000000              -0.128515018              -0.152459092               0.000000000              -0.150585374              -0.177283442               0.000000000              -0.172655730              -0.202107793               0.000000000              -0.194726086              -0.226932143               0.000000000              -0.216796442              -0.251756494               0.000000000              -0.238866798              -0.276580845               0.000000000              -0.260937153              -0.301405195               0.000000000              -0.283007509              -0.326229546               0.000000000              -0.305077865              -0.351053896               0.000000000              -0.327148221              -0.375878247               0.000000000              -0.349218577              -0.400702598               0.000000000              -0.371288933              -0.425526948               0.000000000              -0.393359288              -0.450351299               0.000000000              -0.415429644              -0.475175649               0.000000000              -0.437500000              -0.500000000               0.000000000              -0.073890841              -0.110585458               0.000000000              -0.092710163              -0.134923867               0.000000000              -0.111529486              -0.159262276               0.000000000              -0.130348808              -0.183600685               0.000000000              -0.149168131              -0.207939094               0.000000000              -0.167987453              -0.232277503               0.000000000              -0.186806776              -0.256615912               0.000000000              -0.205626098              -0.280954320               0.000000000              -0.224445420              -0.305292729               0.000000000              -0.243264743              -0.329631138               0.000000000              -0.262084065              -0.353969547               0.000000000              -0.280903388              -0.378307956               0.000000000              -0.299722710              -0.402646365               0.000000000              -0.318542033              -0.426984773               0.000000000              -0.337361355              -0.451323182               0.000000000              -0.356180678              -0.475661591               0.000000000              -0.375000000              -0.500000000               0.000000000              -0.062695766              -0.117295528               0.000000000              -0.078308531              -0.141214558               0.000000000              -0.093921295              -0.165133587               0.000000000              -0.109534060              -0.189052617               0.000000000              -0.125146824              -0.212971646               0.000000000              -0.140759589              -0.236890676               0.000000000              -0.156372354              -0.260809705               0.000000000              -0.171985118              -0.284728735               0.000000000              -0.187597883              -0.308647764               0.000000000              -0.203210648              -0.332566794               0.000000000              -0.218823412              -0.356485823               0.000000000              -0.234436177              -0.380404853               0.000000000              -0.250048941              -0.404323882               0.000000000              -0.265661706              -0.428242912               0.000000000              -0.281274471              -0.452161941               0.000000000              -0.296887235              -0.476080971               0.000000000              -0.312500000              -0.500000000               0.000000000              -0.050896897              -0.122875978               0.000000000              -0.063340840              -0.146446229               0.000000000              -0.075784784              -0.170016481               0.000000000              -0.088228728              -0.193586732               0.000000000              -0.100672672              -0.217156983               0.000000000              -0.113116616              -0.240727235               0.000000000              -0.125560560              -0.264297486               0.000000000              -0.138004504              -0.287867738               0.000000000              -0.150448448              -0.311437989               0.000000000              -0.162892392              -0.335008240               0.000000000              -0.175336336              -0.358578492               0.000000000              -0.187780280              -0.382148743               0.000000000              -0.200224224              -0.405718994               0.000000000              -0.212668168              -0.429289246               0.000000000              -0.225112112              -0.452859497               0.000000000              -0.237556056              -0.476429749               0.000000000              -0.250000000              -0.500000000               0.000000000              -0.038607862              -0.127273065               0.000000000              -0.047913621              -0.150568498               0.000000000              -0.057219379              -0.173863932               0.000000000              -0.066525138              -0.197159365               0.000000000              -0.075830897              -0.220454798               0.000000000              -0.085136655              -0.243750232               0.000000000              -0.094442414              -0.267045665               0.000000000              -0.103748172              -0.290341099               0.000000000              -0.113053931              -0.313636532               0.000000000              -0.122359690              -0.336931966               0.000000000              -0.131665448              -0.360227399               0.000000000              -0.140971207              -0.383522833               0.000000000              -0.150276966              -0.406818266               0.000000000              -0.159582724              -0.430113700               0.000000000              -0.168888483              -0.453409133               0.000000000              -0.178194241              -0.476704567               0.000000000              -0.187500000              -0.500000000               0.000000000              -0.025947013              -0.130444442               0.000000000              -0.032137825              -0.153541665               0.000000000              -0.038328636              -0.176638887               0.000000000              -0.044519448              -0.199736109               0.000000000              -0.050710260              -0.222833332               0.000000000              -0.056901071              -0.245930554               0.000000000              -0.063091883              -0.269027776               0.000000000              -0.069282695              -0.292124999               0.000000000              -0.075473506              -0.315222221               0.000000000              -0.081664318              -0.338319444               0.000000000              -0.087855130              -0.361416666               0.000000000              -0.094045942              -0.384513888               0.000000000              -0.100236753              -0.407611111               0.000000000              -0.106427565              -0.430708333               0.000000000              -0.112618377              -0.453805555               0.000000000              -0.118809188              -0.476902778               0.000000000              -0.125000000              -0.500000000               0.000000000              -0.013036280              -0.132359569               0.000000000              -0.016127762              -0.155337096               0.000000000              -0.019219245              -0.178314623               0.000000000              -0.022310727              -0.201292150               0.000000000              -0.025402210              -0.224269676               0.000000000              -0.028493692              -0.247247203               0.000000000              -0.031585175              -0.270224730               0.000000000              -0.034676657              -0.293202257               0.000000000              -0.037768140              -0.316179784               0.000000000              -0.040859622              -0.339157311               0.000000000              -0.043951105              -0.362134838               0.000000000              -0.047042587              -0.385112365               0.000000000              -0.050134070              -0.408089892               0.000000000              -0.053225552              -0.431067419               0.000000000              -0.056317035              -0.454044946               0.000000000              -0.059408517              -0.477022473               0.000000000              -0.062500000              -0.500000000               0.000000000               0.000000000              -0.133000000               0.000000000               0.000000000              -0.155937500               0.000000000               0.000000000              -0.178875000               0.000000000               0.000000000              -0.201812500               0.000000000               0.000000000              -0.224750000               0.000000000               0.000000000              -0.247687500               0.000000000               0.000000000              -0.270625000               0.000000000               0.000000000              -0.293562500               0.000000000               0.000000000              -0.316500000               0.000000000               0.000000000              -0.339437500               0.000000000               0.000000000              -0.362375000               0.000000000               0.000000000              -0.385312500               0.000000000               0.000000000              -0.408250000               0.000000000               0.000000000              -0.431187500               0.000000000               0.000000000              -0.454125000               0.000000000               0.000000000              -0.477062500               0.000000000               0.000000000              -0.500000000               0.000000000              -0.133000000               0.000000000               0.000000000              -0.155937500               0.000000000               0.000000000              -0.178875000               0.000000000               0.000000000              -0.201812500               0.000000000               0.000000000              -0.224750000               0.000000000               0.000000000              -0.247687500               0.000000000               0.000000000              -0.270625000               0.000000000               0.000000000              -0.293562500               0.000000000               0.000000000              -0.316500000               0.000000000               0.000000000              -0.339437500               0.000000000               0.000000000              -0.362375000               0.000000000               0.000000000              -0.385312500               0.000000000               0.000000000              -0.408250000               0.000000000               0.000000000              -0.431187500               0.000000000               0.000000000              -0.454125000               0.000000000               0.000000000              -0.477062500               0.000000000               0.000000000              -0.500000000               0.000000000               0.000000000              -0.132359569               0.013036280               0.000000000              -0.155337096               0.016127762               0.000000000              -0.178314623               0.019219245               0.000000000              -0.201292150               0.022310727               0.000000000              -0.224269676               0.025402210               0.000000000              -0.247247203               0.028493692               0.000000000              -0.270224730               0.031585175               0.000000000              -0.293202257               0.034676657               0.000000000              -0.316179784               0.037768140               0.000000000              -0.339157311               0.040859622               0.000000000              -0.362134838               0.043951105               0.000000000              -0.385112365               0.047042587               0.000000000              -0.408089892               0.050134070               0.000000000              -0.431067419               0.053225552               0.000000000              -0.454044946               0.056317035               0.000000000              -0.477022473               0.059408517               0.000000000              -0.500000000               0.062500000               0.000000000              -0.130444442               0.025947013               0.000000000              -0.153541665               0.032137825               0.000000000              -0.176638887               0.038328636               0.000000000              -0.199736109               0.044519448               0.000000000              -0.222833332               0.050710260               0.000000000              -0.245930554               0.056901071               0.000000000              -0.269027776               0.063091883               0.000000000              -0.292124999               0.069282695               0.000000000              -0.315222221               0.075473506               0.000000000              -0.338319444               0.081664318               0.000000000              -0.361416666               0.087855130               0.000000000              -0.384513888               0.094045942               0.000000000              -0.407611111               0.100236753               0.000000000              -0.430708333               0.106427565               0.000000000              -0.453805555               0.112618377               0.000000000              -0.476902778               0.118809188               0.000000000              -0.500000000               0.125000000               0.000000000              -0.127273065               0.038607862               0.000000000              -0.150568498               0.047913621               0.000000000              -0.173863932               0.057219379               0.000000000              -0.197159365               0.066525138               0.000000000              -0.220454798               0.075830897               0.000000000              -0.243750232               0.085136655               0.000000000              -0.267045665               0.094442414               0.000000000              -0.290341099               0.103748172               0.000000000              -0.313636532               0.113053931               0.000000000              -0.336931966               0.122359690               0.000000000              -0.360227399               0.131665448               0.000000000              -0.383522833               0.140971207               0.000000000              -0.406818266               0.150276966               0.000000000              -0.430113700               0.159582724               0.000000000              -0.453409133               0.168888483               0.000000000              -0.476704567               0.178194241               0.000000000              -0.500000000               0.187500000               0.000000000              -0.122875978               0.050896897               0.000000000              -0.146446229               0.063340840               0.000000000              -0.170016481               0.075784784               0.000000000              -0.193586732               0.088228728               0.000000000              -0.217156983               0.100672672               0.000000000              -0.240727235               0.113116616               0.000000000              -0.264297486               0.125560560               0.000000000              -0.287867738               0.138004504               0.000000000              -0.311437989               0.150448448               0.000000000              -0.335008240               0.162892392               0.000000000              -0.358578492               0.175336336               0.000000000              -0.382148743               0.187780280               0.000000000              -0.405718994               0.200224224               0.000000000              -0.429289246               0.212668168               0.000000000              -0.452859497               0.225112112               0.000000000              -0.476429749               0.237556056               0.000000000              -0.500000000               0.250000000               0.000000000              -0.117295528               0.062695766               0.000000000              -0.141214558               0.078308531               0.000000000              -0.165133587               0.093921295               0.000000000              -0.189052617               0.109534060               0.000000000              -0.212971646               0.125146824               0.000000000              -0.236890676               0.140759589               0.000000000              -0.260809705               0.156372354               0.000000000              -0.284728735               0.171985118               0.000000000              -0.308647764               0.187597883               0.000000000              -0.332566794               0.203210648               0.000000000              -0.356485823               0.218823412               0.000000000              -0.380404853               0.234436177               0.000000000              -0.404323882               0.250048941               0.000000000              -0.428242912               0.265661706               0.000000000              -0.452161941               0.281274471               0.000000000              -0.476080971               0.296887235               0.000000000              -0.500000000               0.312500000               0.000000000              -0.110585458               0.073890841               0.000000000              -0.134923867               0.092710163               0.000000000              -0.159262276               0.111529486               0.000000000              -0.183600685               0.130348808               0.000000000              -0.207939094               0.149168131               0.000000000              -0.232277503               0.167987453               0.000000000              -0.256615912               0.186806776               0.000000000              -0.280954320               0.205626098               0.000000000              -0.305292729               0.224445420               0.000000000              -0.329631138               0.243264743               0.000000000              -0.353969547               0.262084065               0.000000000              -0.378307956               0.280903388               0.000000000              -0.402646365               0.299722710               0.000000000              -0.426984773               0.318542033               0.000000000              -0.451323182               0.337361355               0.000000000              -0.475661591               0.356180678               0.000000000              -0.500000000               0.375000000               0.000000000              -0.102810390               0.084374307               0.000000000              -0.127634741               0.106444663               0.000000000              -0.152459092               0.128515018               0.000000000              -0.177283442               0.150585374               0.000000000              -0.202107793               0.172655730               0.000000000              -0.226932143               0.194726086               0.000000000              -0.251756494               0.216796442               0.000000000              -0.276580845               0.238866798               0.000000000              -0.301405195               0.260937153               0.000000000              -0.326229546               0.283007509               0.000000000              -0.351053896               0.305077865               0.000000000              -0.375878247               0.327148221               0.000000000              -0.400702598               0.349218577               0.000000000              -0.425526948               0.371288933               0.000000000              -0.450351299               0.393359288               0.000000000              -0.475175649               0.415429644               0.000000000              -0.500000000               0.437500000               0.000000000              -0.094045202               0.094045202               0.000000000              -0.119417377               0.119417377               0.000000000              -0.144789552               0.144789552               0.000000000              -0.170161727               0.170161727               0.000000000              -0.195533901               0.195533901               0.000000000              -0.220906076               0.220906076               0.000000000              -0.246278251               0.246278251               0.000000000              -0.271650426               0.271650426               0.000000000              -0.297022601               0.297022601               0.000000000              -0.322394776               0.322394776               0.000000000              -0.347766951               0.347766951               0.000000000              -0.373139126               0.373139126               0.000000000              -0.398511300               0.398511300               0.000000000              -0.423883475               0.423883475               0.000000000              -0.449255650               0.449255650               0.000000000              -0.474627825               0.474627825               0.000000000              -0.500000000               0.500000000               0.000000000              -0.084374307               0.102810390               0.000000000              -0.106444663               0.127634741               0.000000000              -0.128515018               0.152459092               0.000000000              -0.150585374               0.177283442               0.000000000              -0.172655730               0.202107793               0.000000000              -0.194726086               0.226932143               0.000000000              -0.216796442               0.251756494               0.000000000              -0.238866798               0.276580845               0.000000000              -0.260937153               0.301405195               0.000000000              -0.283007509               0.326229546               0.000000000              -0.305077865               0.351053896               0.000000000              -0.327148221               0.375878247               0.000000000              -0.349218577               0.400702598               0.000000000              -0.371288933               0.425526948               0.000000000              -0.393359288               0.450351299               0.000000000              -0.415429644               0.475175649               0.000000000              -0.437500000               0.500000000               0.000000000              -0.073890841               0.110585458               0.000000000              -0.092710163               0.134923867               0.000000000              -0.111529486               0.159262276               0.000000000              -0.130348808               0.183600685               0.000000000              -0.149168131               0.207939094               0.000000000              -0.167987453               0.232277503               0.000000000              -0.186806776               0.256615912               0.000000000              -0.205626098               0.280954320               0.000000000              -0.224445420               0.305292729               0.000000000              -0.243264743               0.329631138               0.000000000              -0.262084065               0.353969547               0.000000000              -0.280903388               0.378307956               0.000000000              -0.299722710               0.402646365               0.000000000              -0.318542033               0.426984773               0.000000000              -0.337361355               0.451323182               0.000000000              -0.356180678               0.475661591               0.000000000              -0.375000000               0.500000000               0.000000000              -0.062695766               0.117295528               0.000000000              -0.078308531               0.141214558               0.000000000              -0.093921295               0.165133587               0.000000000              -0.109534060               0.189052617               0.000000000              -0.125146824               0.212971646               0.000000000              -0.140759589               0.236890676               0.000000000              -0.156372354               0.260809705               0.000000000              -0.171985118               0.284728735               0.000000000              -0.187597883               0.308647764               0.000000000              -0.203210648               0.332566794               0.000000000              -0.218823412               0.356485823               0.000000000              -0.234436177               0.380404853               0.000000000              -0.250048941               0.404323882               0.000000000              -0.265661706               0.428242912               0.000000000              -0.281274471               0.452161941               0.000000000              -0.296887235               0.476080971               0.000000000              -0.312500000               0.500000000               0.000000000              -0.050896897               0.122875978               0.000000000              -0.063340840               0.146446229               0.000000000              -0.075784784               0.170016481               0.000000000              -0.088228728               0.193586732               0.000000000              -0.100672672               0.217156983               0.000000000              -0.113116616               0.240727235               0.000000000              -0.125560560               0.264297486               0.000000000              -0.138004504               0.287867738               0.000000000              -0.150448448               0.311437989               0.000000000              -0.162892392               0.335008240               0.000000000              -0.175336336               0.358578492               0.000000000              -0.187780280               0.382148743               0.000000000              -0.200224224               0.405718994               0.000000000              -0.212668168               0.429289246               0.000000000              -0.225112112               0.452859497               0.000000000              -0.237556056               0.476429749               0.000000000              -0.250000000               0.500000000               0.000000000              -0.038607862               0.127273065               0.000000000              -0.047913621               0.150568498               0.000000000              -0.057219379               0.173863932               0.000000000              -0.066525138               0.197159365               0.000000000              -0.075830897               0.220454798               0.000000000              -0.085136655               0.243750232               0.000000000              -0.094442414               0.267045665               0.000000000              -0.103748172               0.290341099               0.000000000              -0.113053931               0.313636532               0.000000000              -0.122359690               0.336931966               0.000000000              -0.131665448               0.360227399               0.000000000              -0.140971207               0.383522833               0.000000000              -0.150276966               0.406818266               0.000000000              -0.159582724               0.430113700               0.000000000              -0.168888483               0.453409133               0.000000000              -0.178194241               0.476704567               0.000000000              -0.187500000               0.500000000               0.000000000              -0.025947013               0.130444442               0.000000000              -0.032137825               0.153541665               0.000000000              -0.038328636               0.176638887               0.000000000              -0.044519448               0.199736109               0.000000000              -0.050710260               0.222833332               0.000000000              -0.056901071               0.245930554               0.000000000              -0.063091883               0.269027776               0.000000000              -0.069282695               0.292124999               0.000000000              -0.075473506               0.315222221               0.000000000              -0.081664318               0.338319444               0.000000000              -0.087855130               0.361416666               0.000000000              -0.094045942               0.384513888               0.000000000              -0.100236753               0.407611111               0.000000000              -0.106427565               0.430708333               0.000000000              -0.112618377               0.453805555               0.000000000              -0.118809188               0.476902778               0.000000000              -0.125000000               0.500000000               0.000000000              -0.013036280               0.132359569               0.000000000              -0.016127762               0.155337096               0.000000000              -0.019219245               0.178314623               0.000000000              -0.022310727               0.201292150               0.000000000              -0.025402210               0.224269676               0.000000000              -0.028493692               0.247247203               0.000000000              -0.031585175               0.270224730               0.000000000              -0.034676657               0.293202257               0.000000000              -0.037768140               0.316179784               0.000000000              -0.040859622               0.339157311               0.000000000              -0.043951105               0.362134838               0.000000000              -0.047042587               0.385112365               0.000000000              -0.050134070               0.408089892               0.000000000              -0.053225552               0.431067419               0.000000000              -0.056317035               0.454044946               0.000000000              -0.059408517               0.477022473               0.000000000              -0.062500000               0.500000000               0.000000000               0.000000000               0.133000000               0.000000000               0.000000000               0.155937500               0.000000000               0.000000000               0.178875000               0.000000000               0.000000000               0.201812500               0.000000000               0.000000000               0.224750000               0.000000000               0.000000000               0.247687500               0.000000000               0.000000000               0.270625000               0.000000000               0.000000000               0.293562500               0.000000000               0.000000000               0.316500000               0.000000000               0.000000000               0.339437500               0.000000000               0.000000000               0.362375000               0.000000000               0.000000000               0.385312500               0.000000000               0.000000000               0.408250000               0.000000000               0.000000000               0.431187500               0.000000000               0.000000000               0.454125000               0.000000000               0.000000000               0.477062500               0.000000000               0.000000000               0.500000000               0.000000000 </DataArray>
</Points>
<Cells>
<DataArray type="Int32"                                    Name="connectivity"                                                      NumberOfComponents=" 1" format="ascii">
         0          1         18         17          1          2         19         18          2          3         20         19          3          4         21         20          4          5         22         21          5          6         23         22          6          7         24         23          7          8         25         24          8          9         26         25          9         10         27         26         10         11         28         27         11         12         29         28         12         13         30         29         13         14         31         30         14         15         32         31         15         16         33         32         17         18         35         34         18         19         36         35         19         20         37         36         20         21         38         37         21         22         39         38         22         23         40         39         23         24         41         40         24         25         42         41         25         26         43         42         26         27         44         43         27         28         45         44         28         29         46         45         29         30         47         46         30         31         48         47         31         32         49         48         32         33         50         49         34         35         52         51         35         36         53         52         36         37         54         53         37         38         55         54         38         39         56         55         39         40         57         56         40         41         58         57         41         42         59         58         42         43         60         59         43         44         61         60         44         45         62         61         45         46         63         62         46         47         64         63         47         48         65         64         48         49         66         65         49         50         67         66         51         52         69         68         52         53         70         69         53         54         71         70         54         55         72         71         55         56         73         72         56         57         74         73         57         58         75         74         58         59         76         75         59         60         77         76         60         61         78         77         61         62         79         78         62         63         80         79         63         64         81         80         64         65         82         81         65         66         83         82         66         67         84         83         68         69         86         85         69         70         87         86         70         71         88         87         71         72         89         88         72         73         90         89         73         74         91         90         74         75         92         91         75         76         93         92         76         77         94         93         77         78         95         94         78         79         96         95         79         80         97         96         80         81         98         97         81         82         99         98         82         83        100         99         83         84        101        100         85         86        103        102         86         87        104        103         87         88        105        104         88         89        106        105         89         90        107        106         90         91        108        107         91         92        109        108         92         93        110        109         93         94        111        110         94         95        112        111         95         96        113        112         96         97        114        113         97         98        115        114         98         99        116        115         99        100        117        116        100        101        118        117        102        103        120        119        103        104        121        120        104        105        122        121        105        106        123        122        106        107        124        123        107        108        125        124        108        109        126        125        109        110        127        126        110        111        128        127        111        112        129        128        112        113        130        129        113        114        131        130        114        115        132        131        115        116        133        132        116        117        134        133        117        118        135        134        119        120        137        136        120        121        138        137        121        122        139        138        122        123        140        139        123        124        141        140        124        125        142        141        125        126        143        142        126        127        144        143        127        128        145        144        128        129        146        145        129        130        147        146        130        131        148        147        131        132        149        148        132        133        150        149        133        134        151        150        134        135        152        151        136        137        154        153        137        138        155        154        138        139        156        155        139        140        157        156        140        141        158        157        141        142        159        158        142        143        160        159        143        144        161        160        144        145        162        161        145        146        163        162        146        147        164        163        147        148        165        164        148        149        166        165        149        150        167        166        150        151        168        167        151        152        169        168        153        154        171        170        154        155        172        171        155        156        173        172        156        157        174        173        157        158        175        174        158        159        176        175        159        160        177        176        160        161        178        177        161        162        179        178        162        163        180        179        163        164        181        180        164        165        182        181        165        166        183        182        166        167        184        183        167        168        185        184        168        169        186        185        170        171        188        187        171        172        189        188        172        173        190        189        173        174        191        190        174        175        192        191        175        176        193        192        176        177        194        193        177        178        195        194        178        179        196        195        179        180        197        196        180        181        198        197        181        182        199        198        182        183        200        199        183        184        201        200        184        185        202        201        185        186        203        202        187        188        205        204        188        189        206        205        189        190        207        206        190        191        208        207        191        192        209        208        192        193        210        209        193        194        211        210        194        195        212        211        195        196        213        212        196        197        214        213        197        198        215        214        198        199        216        215        199        200        217        216        200        201        218        217        201        202        219        218        202        203        220        219        204        205        222        221        205        206        223        222        206        207        224        223        207        208        225        224        208        209        226        225        209        210        227        226        210        211        228        227        211        212        229        228        212        213        230        229        213        214        231        230        214        215        232        231        215        216        233        232        216        217        234        233        217        218        235        234        218        219        236        235        219        220        237        236        221        222        239        238        222        223        240        239        223        224        241        240        224        225        242        241        225        226        243        242        226        227        244        243        227        228        245        244        228        229        246        245        229        230        247        246        230        231        248        247        231        232        249        248        232        233        250        249        233        234        251        250        234        235        252        251        235        236        253        252        236        237        254        253        238        239        256        255        239        240        257        256        240        241        258        257        241        242        259        258        242        243        260        259        243        244        261        260        244        245        262        261        245        246        263        262        246        247        264        263        247        248        265        264        248        249        266        265        249        250        267        266        250        251        268        267        251        252        269        268        252        253        270        269        253        254        271        270        255        256        273        272        256        257        274        273        257        258        275        274        258        259        276        275        259        260        277        276        260        261        278        277        261        262        279        278        262        263        280        279        263        264        281        280        264        265        282        281        265        266        283        282        266        267        284        283        267        268        285        284        268        269        286        285        269        270        287        286        270        271        288        287        306        307          1          0        307        308          2          1        308        309          3          2        309        310          4          3        310        311          5          4        311        312          6          5        312        313          7          6        313        314          8          7        314        315          9          8        315        316         10          9        316        317         11         10        317        318         12         11        318        319         13         12        319        320         14         13        320        321         15         14        321        322         16         15        323        324        307        306        324        325        308        307        325        326        309        308        326        327        310        309        327        328        311        310        328        329        312        311        329        330        313        312        330        331        314        313        331        332        315        314        332        333        316        315        333        334        317        316        334        335        318        317        335        336        319        318        336        337        320        319        337        338        321        320        338        339        322        321        340        341        324        323        341        342        325        324        342        343        326        325        343        344        327        326        344        345        328        327        345        346        329        328        346        347        330        329        347        348        331        330        348        349        332        331        349        350        333        332        350        351        334        333        351        352        335        334        352        353        336        335        353        354        337        336        354        355        338        337        355        356        339        338        357        358        341        340        358        359        342        341        359        360        343        342        360        361        344        343        361        362        345        344        362        363        346        345        363        364        347        346        364        365        348        347        365        366        349        348        366        367        350        349        367        368        351        350        368        369        352        351        369        370        353        352        370        371        354        353        371        372        355        354        372        373        356        355        374        375        358        357        375        376        359        358        376        377        360        359        377        378        361        360        378        379        362        361        379        380        363        362        380        381        364        363        381        382        365        364        382        383        366        365        383        384        367        366        384        385        368        367        385        386        369        368        386        387        370        369        387        388        371        370        388        389        372        371        389        390        373        372        391        392        375        374        392        393        376        375        393        394        377        376        394        395        378        377        395        396        379        378        396        397        380        379        397        398        381        380        398        399        382        381        399        400        383        382        400        401        384        383        401        402        385        384        402        403        386        385        403        404        387        386        404        405        388        387        405        406        389        388        406        407        390        389        408        409        392        391        409        410        393        392        410        411        394        393        411        412        395        394        412        413        396        395        413        414        397        396        414        415        398        397        415        416        399        398        416        417        400        399        417        418        401        400        418        419        402        401        419        420        403        402        420        421        404        403        421        422        405        404        422        423        406        405        423        424        407        406        425        426        409        408        426        427        410        409        427        428        411        410        428        429        412        411        429        430        413        412        430        431        414        413        431        432        415        414        432        433        416        415        433        434        417        416        434        435        418        417        435        436        419        418        436        437        420        419        437        438        421        420        438        439        422        421        439        440        423        422        440        441        424        423        442        443        426        425        443        444        427        426        444        445        428        427        445        446        429        428        446        447        430        429        447        448        431        430        448        449        432        431        449        450        433        432        450        451        434        433        451        452        435        434        452        453        436        435        453        454        437        436        454        455        438        437        455        456        439        438        456        457        440        439        457        458        441        440        459        460        443        442        460        461        444        443        461        462        445        444        462        463        446        445        463        464        447        446        464        465        448        447        465        466        449        448        466        467        450        449        467        468        451        450        468        469        452        451        469        470        453        452        470        471        454        453        471        472        455        454        472        473        456        455        473        474        457        456        474        475        458        457        476        477        460        459        477        478        461        460        478        479        462        461        479        480        463        462        480        481        464        463        481        482        465        464        482        483        466        465        483        484        467        466        484        485        468        467        485        486        469        468        486        487        470        469        487        488        471        470        488        489        472        471        489        490        473        472        490        491        474        473        491        492        475        474        493        494        477        476        494        495        478        477        495        496        479        478        496        497        480        479        497        498        481        480        498        499        482        481        499        500        483        482        500        501        484        483        501        502        485        484        502        503        486        485        503        504        487        486        504        505        488        487        505        506        489        488        506        507        490        489        507        508        491        490        508        509        492        491        510        511        494        493        511        512        495        494        512        513        496        495        513        514        497        496        514        515        498        497        515        516        499        498        516        517        500        499        517        518        501        500        518        519        502        501        519        520        503        502        520        521        504        503        521        522        505        504        522        523        506        505        523        524        507        506        524        525        508        507        525        526        509        508        527        528        511        510        528        529        512        511        529        530        513        512        530        531        514        513        531        532        515        514        532        533        516        515        533        534        517        516        534        535        518        517        535        536        519        518        536        537        520        519        537        538        521        520        538        539        522        521        539        540        523        522        540        541        524        523        541        542        525        524        542        543        526        525        544        545        528        527        545        546        529        528        546        547        530        529        547        548        531        530        548        549        532        531        549        550        533        532        550        551        534        533        551        552        535        534        552        553        536        535        553        554        537        536        554        555        538        537        555        556        539        538        556        557        540        539        557        558        541        540        558        559        542        541        559        560        543        542        561        562        545        544        562        563        546        545        563        564        547        546        564        565        548        547        565        566        549        548        566        567        550        549        567        568        551        550        568        569        552        551        569        570        553        552        570        571        554        553        571        572        555        554        572        573        556        555        573        574        557        556        574        575        558        557        575        576        559        558        576        577        560        559        578        579        596        595        579        580        597        596        580        581        598        597        581        582        599        598        582        583        600        599        583        584        601        600        584        585        602        601        585        586        603        602        586        587        604        603        587        588        605        604        588        589        606        605        589        590        607        606        590        591        608        607        591        592        609        608        592        593        610        609        593        594        611        610        595        596        613        612        596        597        614        613        597        598        615        614        598        599        616        615        599        600        617        616        600        601        618        617        601        602        619        618        602        603        620        619        603        604        621        620        604        605        622        621        605        606        623        622        606        607        624        623        607        608        625        624        608        609        626        625        609        610        627        626        610        611        628        627        612        613        630        629        613        614        631        630        614        615        632        631        615        616        633        632        616        617        634        633        617        618        635        634        618        619        636        635        619        620        637        636        620        621        638        637        621        622        639        638        622        623        640        639        623        624        641        640        624        625        642        641        625        626        643        642        626        627        644        643        627        628        645        644        629        630        647        646        630        631        648        647        631        632        649        648        632        633        650        649        633        634        651        650        634        635        652        651        635        636        653        652        636        637        654        653        637        638        655        654        638        639        656        655        639        640        657        656        640        641        658        657        641        642        659        658        642        643        660        659        643        644        661        660        644        645        662        661        646        647        664        663        647        648        665        664        648        649        666        665        649        650        667        666        650        651        668        667        651        652        669        668        652        653        670        669        653        654        671        670        654        655        672        671        655        656        673        672        656        657        674        673        657        658        675        674        658        659        676        675        659        660        677        676        660        661        678        677        661        662        679        678        663        664        681        680        664        665        682        681        665        666        683        682        666        667        684        683        667        668        685        684        668        669        686        685        669        670        687        686        670        671        688        687        671        672        689        688        672        673        690        689        673        674        691        690        674        675        692        691        675        676        693        692        676        677        694        693        677        678        695        694        678        679        696        695        680        681        698        697        681        682        699        698        682        683        700        699        683        684        701        700        684        685        702        701        685        686        703        702        686        687        704        703        687        688        705        704        688        689        706        705        689        690        707        706        690        691        708        707        691        692        709        708        692        693        710        709        693        694        711        710        694        695        712        711        695        696        713        712        697        698        715        714        698        699        716        715        699        700        717        716        700        701        718        717        701        702        719        718        702        703        720        719        703        704        721        720        704        705        722        721        705        706        723        722        706        707        724        723        707        708        725        724        708        709        726        725        709        710        727        726        710        711        728        727        711        712        729        728        712        713        730        729        714        715        732        731        715        716        733        732        716        717        734        733        717        718        735        734        718        719        736        735        719        720        737        736        720        721        738        737        721        722        739        738        722        723        740        739        723        724        741        740        724        725        742        741        725        726        743        742        726        727        744        743        727        728        745        744        728        729        746        745        729        730        747        746        731        732        749        748        732        733        750        749        733        734        751        750        734        735        752        751        735        736        753        752        736        737        754        753        737        738        755        754        738        739        756        755        739        740        757        756        740        741        758        757        741        742        759        758        742        743        760        759        743        744        761        760        744        745        762        761        745        746        763        762        746        747        764        763        748        749        766        765        749        750        767        766        750        751        768        767        751        752        769        768        752        753        770        769        753        754        771        770        754        755        772        771        755        756        773        772        756        757        774        773        757        758        775        774        758        759        776        775        759        760        777        776        760        761        778        777        761        762        779        778        762        763        780        779        763        764        781        780        765        766        783        782        766        767        784        783        767        768        785        784        768        769        786        785        769        770        787        786        770        771        788        787        771        772        789        788        772        773        790        789        773        774        791        790        774        775        792        791        775        776        793        792        776        777        794        793        777        778        795        794        778        779        796        795        779        780        797        796        780        781        798        797        782        783        800        799        783        784        801        800        784        785        802        801        785        786        803        802        786        787        804        803        787        788        805        804        788        789        806        805        789        790        807        806        790        791        808        807        791        792        809        808        792        793        810        809        793        794        811        810        794        795        812        811        795        796        813        812        796        797        814        813        797        798        815        814        799        800        817        816        800        801        818        817        801        802        819        818        802        803        820        819        803        804        821        820        804        805        822        821        805        806        823        822        806        807        824        823        807        808        825        824        808        809        826        825        809        810        827        826        810        811        828        827        811        812        829        828        812        813        830        829        813        814        831        830        814        815        832        831        816        817        834        833        817        818        835        834        818        819        836        835        819        820        837        836        820        821        838        837        821        822        839        838        822        823        840        839        823        824        841        840        824        825        842        841        825        826        843        842        826        827        844        843        827        828        845        844        828        829        846        845        829        830        847        846        830        831        848        847        831        832        849        848        833        834        562        561        834        835        563        562        835        836        564        563        836        837        565        564        837        838        566        565        838        839        567        566        839        840        568        567        840        841        569        568        841        842        570        569        842        843        571        570        843        844        572        571        844        845        573        572        845        846        574        573        846        847        575        574        847        848        576        575        848        849        577        576        884        885        579        578        885        886        580        579        886        887        581        580        887        888        582        581        888        889        583        582        889        890        584        583        890        891        585        584        891        892        586        585        892        893        587        586        893        894        588        587        894        895        589        588        895        896        590        589        896        897        591        590        897        898        592        591        898        899        593        592        899        900        594        593        901        902        885        884        902        903        886        885        903        904        887        886        904        905        888        887        905        906        889        888        906        907        890        889        907        908        891        890        908        909        892        891        909        910        893        892        910        911        894        893        911        912        895        894        912        913        896        895        913        914        897        896        914        915        898        897        915        916        899        898        916        917        900        899        918        919        902        901        919        920        903        902        920        921        904        903        921        922        905        904        922        923        906        905        923        924        907        906        924        925        908        907        925        926        909        908        926        927        910        909        927        928        911        910        928        929        912        911        929        930        913        912        930        931        914        913        931        932        915        914        932        933        916        915        933        934        917        916        935        936        919        918        936        937        920        919        937        938        921        920        938        939        922        921        939        940        923        922        940        941        924        923        941        942        925        924        942        943        926        925        943        944        927        926        944        945        928        927        945        946        929        928        946        947        930        929        947        948        931        930        948        949        932        931        949        950        933        932        950        951        934        933        952        953        936        935        953        954        937        936        954        955        938        937        955        956        939        938        956        957        940        939        957        958        941        940        958        959        942        941        959        960        943        942        960        961        944        943        961        962        945        944        962        963        946        945        963        964        947        946        964        965        948        947        965        966        949        948        966        967        950        949        967        968        951        950        969        970        953        952        970        971        954        953        971        972        955        954        972        973        956        955        973        974        957        956        974        975        958        957        975        976        959        958        976        977        960        959        977        978        961        960        978        979        962        961        979        980        963        962        980        981        964        963        981        982        965        964        982        983        966        965        983        984        967        966        984        985        968        967        986        987        970        969        987        988        971        970        988        989        972        971        989        990        973        972        990        991        974        973        991        992        975        974        992        993        976        975        993        994        977        976        994        995        978        977        995        996        979        978        996        997        980        979        997        998        981        980        998        999        982        981        999       1000        983        982       1000       1001        984        983       1001       1002        985        984       1003       1004        987        986       1004       1005        988        987       1005       1006        989        988       1006       1007        990        989       1007       1008        991        990       1008       1009        992        991       1009       1010        993        992       1010       1011        994        993       1011       1012        995        994       1012       1013        996        995       1013       1014        997        996       1014       1015        998        997       1015       1016        999        998       1016       1017       1000        999       1017       1018       1001       1000       1018       1019       1002       1001       1020       1021       1004       1003       1021       1022       1005       1004       1022       1023       1006       1005       1023       1024       1007       1006       1024       1025       1008       1007       1025       1026       1009       1008       1026       1027       1010       1009       1027       1028       1011       1010       1028       1029       1012       1011       1029       1030       1013       1012       1030       1031       1014       1013       1031       1032       1015       1014       1032       1033       1016       1015       1033       1034       1017       1016       1034       1035       1018       1017       1035       1036       1019       1018       1037       1038       1021       1020       1038       1039       1022       1021       1039       1040       1023       1022       1040       1041       1024       1023       1041       1042       1025       1024       1042       1043       1026       1025       1043       1044       1027       1026       1044       1045       1028       1027       1045       1046       1029       1028       1046       1047       1030       1029       1047       1048       1031       1030       1048       1049       1032       1031       1049       1050       1033       1032       1050       1051       1034       1033       1051       1052       1035       1034       1052       1053       1036       1035       1054       1055       1038       1037       1055       1056       1039       1038       1056       1057       1040       1039       1057       1058       1041       1040       1058       1059       1042       1041       1059       1060       1043       1042       1060       1061       1044       1043       1061       1062       1045       1044       1062       1063       1046       1045       1063       1064       1047       1046       1064       1065       1048       1047       1065       1066       1049       1048       1066       1067       1050       1049       1067       1068       1051       1050       1068       1069       1052       1051       1069       1070       1053       1052       1071       1072       1055       1054       1072       1073       1056       1055       1073       1074       1057       1056       1074       1075       1058       1057       1075       1076       1059       1058       1076       1077       1060       1059       1077       1078       1061       1060       1078       1079       1062       1061       1079       1080       1063       1062       1080       1081       1064       1063       1081       1082       1065       1064       1082       1083       1066       1065       1083       1084       1067       1066       1084       1085       1068       1067       1085       1086       1069       1068       1086       1087       1070       1069       1088       1089       1072       1071       1089       1090       1073       1072       1090       1091       1074       1073       1091       1092       1075       1074       1092       1093       1076       1075       1093       1094       1077       1076       1094       1095       1078       1077       1095       1096       1079       1078       1096       1097       1080       1079       1097       1098       1081       1080       1098       1099       1082       1081       1099       1100       1083       1082       1100       1101       1084       1083       1101       1102       1085       1084       1102       1103       1086       1085       1103       1104       1087       1086       1105       1106       1089       1088       1106       1107       1090       1089       1107       1108       1091       1090       1108       1109       1092       1091       1109       1110       1093       1092       1110       1111       1094       1093       1111       1112       1095       1094       1112       1113       1096       1095       1113       1114       1097       1096       1114       1115       1098       1097       1115       1116       1099       1098       1116       1117       1100       1099       1117       1118       1101       1100       1118       1119       1102       1101       1119       1120       1103       1102       1120       1121       1104       1103       1122       1123       1106       1105       1123       1124       1107       1106       1124       1125       1108       1107       1125       1126       1109       1108       1126       1127       1110       1109       1127       1128       1111       1110       1128       1129       1112       1111       1129       1130       1113       1112       1130       1131       1114       1113       1131       1132       1115       1114       1132       1133       1116       1115       1133       1134       1117       1116       1134       1135       1118       1117       1135       1136       1119       1118       1136       1137       1120       1119       1137       1138       1121       1120        272        273       1123       1122        273        274       1124       1123        274        275       1125       1124        275        276       1126       1125        276        277       1127       1126        277        278       1128       1127        278        279       1129       1128        279        280       1130       1129        280        281       1131       1130        281        282       1132       1131        282        283       1133       1132        283        284       1134       1133        284        285       1135       1134        285        286       1136       1135        286        287       1137       1136        287        288       1138       1137 </DataArray>
<DataArray type="Int32"                                    Name="offsets"                                                      NumberOfComponents=" 1" format="ascii">
         4          8         12         16         20         24         28         32         36         40         44         48         52         56         60         64         68         72         76         80         84         88         92         96        100        104        108        112        116        120        124        128        132        136        140        144        148        152        156        160        164        168        172        176        180        184        188        192        196        200        204        208        212        216        220        224        228        232        236        240        244        248        252        256        260        264        268        272        276        280        284        288        292        296        300        304        308        312        316        320        324        328        332        336        340        344        348        352        356        360        364        368        372        376        380        384        388        392        396        400        404        408        412        416        420        424        428        432        436        440        444        448        452        456        460        464        468        472        476        480        484        488        492        496        500        504        508        512        516        520        524        528        532        536        540        544        548        552        556        560        564        568        572        576        580        584        588        592        596        600        604        608        612        616        620        624        628        632        636        640        644        648        652        656        660        664        668        672        676        680        684        688        692        696        700        704        708        712        716        720        724        728        732        736        740        744        748        752        756        760        764        768        772        776        780        784        788        792        796        800        804        808        812        816        820        824        828        832        836        840        844        848        852        856        860        864        868        872        876        880        884        888        892        896        900        904        908        912        916        920        924        928        932        936        940        944        948        952        956        960        964        968        972        976        980        984        988        992        996       1000       1004       1008       1012       1016       1020       1024       1028       1032       1036       1040       1044       1048       1052       1056       1060       1064       1068       1072       1076       1080       1084       1088       1092       1096       1100       1104       1108       1112       1116       1120       1124       1128       1132       1136       1140       1144       1148       1152       1156       1160       1164       1168       1172       1176       1180       1184       1188       1192       1196       1200       1204       1208       1212       1216       1220       1224       1228       1232       1236       1240       1244       1248       1252       1256       1260       1264       1268       1272       1276       1280       1284       1288       1292       1296       1300       1304       1308       1312       1316       1320       1324       1328       1332       1336       1340       1344       1348       1352       1356       1360       1364       1368       1372       1376       1380       1384       1388       1392       1396       1400       1404       1408       1412       1416       1420       1424       1428       1432       1436       1440       1444       1448       1452       1456       1460       1464       1468       1472       1476       1480       1484       1488       1492       1496       1500       1504       1508       1512       1516       1520       1524       1528       1532       1536       1540       1544       1548       1552       1556       1560       1564       1568       1572       1576       1580       1584       1588       1592       1596       1600       1604       1608       1612       1616       1620       1624       1628       1632       1636       1640       1644       1648       1652       1656       1660       1664       1668       1672       1676       1680       1684       1688       1692       1696       1700       1704       1708       1712       1716       1720       1724       1728       1732       1736       1740       1744       1748       1752       1756       1760       1764       1768       1772       1776       1780       1784       1788       1792       1796       1800       1804       1808       1812       1816       1820       1824       1828       1832       1836       1840       1844       1848       1852       1856       1860       1864       1868       1872       1876       1880       1884       1888       1892       1896       1900       1904       1908       1912       1916       1920       1924       1928       1932       1936       1940       1944       1948       1952       1956       1960       1964       1968       1972       1976       1980       1984       1988       1992       1996       2000       2004       2008       2012       2016       2020       2024       2028       2032       2036       2040       2044       2048       2052       2056       2060       2064       2068       2072       2076       2080       2084       2088       2092       2096       2100       2104       2108       2112       2116       2120       2124       2128       2132       2136       2140       2144       2148       2152       2156       2160       2164       2168       2172       2176       2180       2184       2188       2192       2196       2200       2204       2208       2212       2216       2220       2224       2228       2232       2236       2240       2244       2248       2252       2256       2260       2264       2268       2272       2276       2280       2284       2288       2292       2296       2300       2304       2308       2312       2316       2320       2324       2328       2332       2336       2340       2344       2348       2352       2356       2360       2364       2368       2372       2376       2380       2384       2388       2392       2396       2400       2404       2408       2412       2416       2420       2424       2428       2432       2436       2440       2444       2448       2452       2456       2460       2464       2468       2472       2476       2480       2484       2488       2492       2496       2500       2504       2508       2512       2516       2520       2524       2528       2532       2536       2540       2544       2548       2552       2556       2560       2564       2568       2572       2576       2580       2584       2588       2592       2596       2600       2604       2608       2612       2616       2620       2624       2628       2632       2636       2640       2644       2648       2652       2656       2660       2664       2668       2672       2676       2680       2684       2688       2692       2696       2700       2704       2708       2712       2716       2720       2724       2728       2732       2736       2740       2744       2748       2752       2756       2760       2764       2768       2772       2776       2780       2784       2788       2792       2796       2800       2804       2808       2812       2816       2820       2824       2828       2832       2836       2840       2844       2848       2852       2856       2860       2864       2868       2872       2876       2880       2884       2888       2892       2896       2900       2904       2908       2912       2916       2920       2924       2928       2932       2936       2940       2944       2948       2952       2956       2960       2964       2968       2972       2976       2980       2984       2988       2992       2996       3000       3004       3008       3012       3016       3020       3024       3028       3032       3036       3040       3044       3048       3052       3056       3060       3064       3068       3072       3076       3080       3084       3088       3092       3096       3100       3104       3108       3112       3116       3120       3124       3128       3132       3136       3140       3144       3148       3152       3156       3160       3164       3168       3172       3176       3180       3184       3188       3192       3196       3200       3204       3208       3212       3216       3220       3224       3228       3232       3236       3240       3244       3248       3252       3256       3260       3264       3268       3272       3276       3280       3284       3288       3292       3296       3300       3304       3308       3312       3316       3320       3324       3328       3332       3336       3340       3344       3348       3352       3356       3360       3364       3368       3372       3376       3380       3384       3388       3392       3396       3400       3404       3408       3412       3416       3420       3424       3428       3432       3436       3440       3444       3448       3452       3456       3460       3464       3468       3472       3476       3480       3484       3488       3492       3496       3500       3504       3508       3512       3516       3520       3524       3528       3532       3536       3540       3544       3548       3552       3556       3560       3564       3568       3572       3576       3580       3584       3588       3592       3596       3600       3604       3608       3612       3616       3620       3624       3628       3632       3636       3640       3644       3648       3652       3656       3660       3664       3668       3672       3676       3680       3684       3688       3692       3696       3700       3704       3708       3712       3716       3720       3724       3728       3732       3736       3740       3744       3748       3752       3756       3760       3764       3768       3772       3776       3780       3784       3788       3792       3796       3800       3804       3808       3812       3816       3820       3824       3828       3832       3836       3840       3844       3848       3852       3856       3860       3864       3868       3872       3876       3880       3884       3888       3892       3896       3900       3904       3908       3912       3916       3920       3924       3928       3932       3936       3940       3944       3948       3952       3956       3960       3964       3968       3972       3976       3980       3984       3988       3992       3996       4000       4004       4008       4012       4016       4020       4024       4028       4032       4036       4040       4044       4048       4052       4056       4060       4064       4068       4072       4076       4080       4084       4088       4092       4096 </DataArray>
<DataArray type="UInt8"                                    Name="types"                                                      NumberOfComponents=" 1" format="ascii">
         9          9          9          9          9          9          9          9          9          9          9          9          9          9          9          9          9          9          9          9          9          9          9          9          9          9          9          9          9          9          9          9          9          9          9          9          9          9          9          9          9          9          9          9          9          9          9          9          9          9          9          9          9          9          9          9          9          9          9          9          9          9          9          9          9          9          9          9          9          9          9          9          9          9          9          9          9          9          9          9          9          9          9          9          9          9          9          9          9          9          9          9          9          9          9          9          9          9          9          9          9          9          9          9          9          9          9          9          9          9          9          9          9          9          9          9          9          9          9          9          9          9          9          9          9          9          9          9          9          9          9          9          9          9          9          9          9          9          9          9          9          9          9          9          9          9          9          9          9          9          9          9          9          9          9          9          9          9          9          9          9          9          9          9          9          9          9          9          9          9          9          9          9          9          9          9          9          9          9          9          9          9          9          9          9          9          9          9          9          9          9          9          9          9          9          9          9          9          9          9          9          9          9          9          9          9          9          9          9          9          9          9          9          9          9          9          9          9          9          9          9          9          9          9          9          9          9          9          9          9          9          9          9          9          9          9          9          9          9          9          9          9          9          9          9          9          9          9          9          9          9          9          9          9          9          9          9          9          9          9          9          9          9          9          9          9          9          9          9          9          9          9          9          9          9          9          9          9          9          9          9          9          9          9          9          9          9          9          9          9          9          9          9          9          9          9          9          9          9          9          9          9          9          9          9          9          9          9          9          9          9          9          9          9          9          9          9          9          9          9          9          9          9          9          9          9          9          9          9          9          9          9          9          9          9          9          9          9          9          9          9          9          9          9          9          9          9          9          9          9          9          9          9          9          9          9          9          9          9          9          9          9          9          9          9          9          9          9          9          9          9          9          9          9          9          9          9          9          9          9          9          9          9          9          9          9          9          9          9          9          9          9          9          9          9          9          9          9          9          9          9          9          9          9          9          9          9          9          9          9          9          9          9          9          9          9          9          9          9          9          9          9          9          9          9          9          9          9          9          9          9          9          9          9          9          9          9          9          9          9          9          9          9          9          9          9          9          9          9          9          9          9          9          9          9          9          9          9          9          9          9          9          9          9          9          9          9          9          9          9          9          9          9          9          9          9          9          9          9          9          9          9          9          9          9          9          9          9          9          9          9          9          9          9          9          9          9          9          9          9          9          9          9          9          9          9          9          9          9          9          9          9          9          9          9          9          9          9          9          9          9          9          9          9          9          9          9          9          9          9          9          9          9          9          9          9          9          9          9          9          9          9          9          9          9          9          9          9          9          9          9          9          9          9          9          9          9          9          9          9          9          9          9          9          9          9          9          9          9          9          9          9          9          9          9          9          9          9          9          9          9          9          9          9          9          9          9          9          9          9          9          9          9          9          9          9          9          9          9          9          9          9          9          9          9          9          9          9          9          9          9          9          9          9          9          9          9          9          9          9          9          9          9          9          9          9          9          9          9          9          9          9          9          9          9          9          9          9          9          9          9          9          9          9          9          9          9          9          9          9          9          9          9          9          9          9          9          9          9          9          9          9          9          9          9          9          9          9          9          9          9          9          9          9          9          9          9          9          9          9          9          9          9          9          9          9          9          9          9          9          9          9          9          9          9          9          9          9          9          9          9          9          9          9          9          9          9          9          9          9          9          9          9          9          9          9          9          9          9          9          9          9          9          9          9          9          9          9          9          9          9          9          9          9          9          9          9          9          9          9          9          9          9          9          9          9          9          9          9          9          9          9          9          9          9          9          9          9          9          9          9          9          9          9          9          9          9          9          9          9          9          9          9          9          9          9          9          9          9          9          9          9          9          9          9          9          9          9          9          9          9          9          9          9          9          9          9          9          9          9          9          9          9          9          9          9          9          9          9          9          9          9          9          9          9          9          9          9          9          9          9          9          9          9          9          9          9          9          9          9          9          9          9          9          9          9          9          9          9          9          9          9          9          9          9          9          9          9          9          9          9          9          9          9          9          9          9          9          9          9          9          9          9          9          9          9          9          9          9          9          9          9          9          9          9          9          9          9          9          9          9          9          9          9          9          9          9          9          9          9          9          9          9          9          9          9          9          9          9          9          9          9          9          9          9          9          9          9          9          9          9          9          9          9          9          9          9          9          9          9          9          9          9          9          9          9          9          9          9          9          9          9          9          9          9          9          9          9          9          9          9          9          9          9          9          9          9          9          9          9          9          9          9          9          9          9          9          9          9          9          9          9          9          9          9          9          9          9          9          9          9          9          9          9          9          9          9          9          9          9          9          9          9          9          9          9          9          9          9          9          9          9          9          9          9          9          9          9          9          9          9          9          9          9          9          9          9          9          9          9          9          9          9          9          9          9          9          9          9          9          9          9          9          9 </DataArray>
</Cells>
<CellData>
<DataArray type="Int32"                                    Name="material"                                                      NumberOfComponents=" 1" format="ascii">
         1          1          1          1          1          1          1          1          1          1          1          1          1          1          1          1          1          1          1          1          1          1          1          1          1          1          1          1          1          1          1          1          1          1          1          1          1          1          1          1          1          1          1          1          1          1          1          1          1          1          1          1          1          1          1          1          1          1          1          1          1          1          1          1          1          1          1          1          1          1          1          1          1          1          1          1          1          1          1          1          1          1          1          1          1          1          1          1          1          1          1          1          1          1          1          1          1          1          1          1          1          1          1          1          1          1          1          1          1          1          1          1          1          1          1          1          1          1          1          1          1          1          1          1          1          1          1          1          1          1          1          1          1          1          1          1          1          1          1          1          1          1          1          1          1          1          1          1          1          1          1          1          1          1          1          1          1          1          1          1          1          1          1          1          1          1          1          1          1          1          1          1          1          1          1          1          1          1          1          1          1          1          1          1          1          1          1          1          1          1          1          1          1          1          1          1          1          1          1          1          1          1          1          1          1          1          1          1          1          1          1          1          1          1          1          1          1          1          1          1          1          1          1          1          1          1          1          1          1          1          1          1          1          1          1          1          1          1          1          1          1          1          1          1          1          1          1          1          1          1          1          1          1          1          1          1          1          1          1          1          1          1          1          1          1          1          1          1          1          1          1          1          1          1          1          1          1          1          1          1          1          1          1          1          1          1          1          1          1          1          1          1          1          1          1          1          1          1          1          1          1          1          1          1          1          1          1          1          1          1          1          1          1          1          1          1          1          1          1          1          1          1          1          1          1          1          1          1          1          1          1          1          1          1          1          1          1          1          1          1          1          1          1          1          1          1          1          1          1          1          1          1          1          1          1          1          1          1          1          1          1          1          1          1          1          1          1          1          1          1          1          1          1          1          1          1          1          1          1          1          1          1          1          1          1          1          1          1          1          1          1          1          1          1          1          1          1          1          1          1          1          1          1          1          1          1          1          1          1          1          1          1          1          1          1          1          1          1          1          1          1          1          1          1          1          1          1          1          1          1          1          1          1          1          1          1          1          1          1          1          1          1          1          1          1          1          1          1          1          1          1          1          1          1          1          1          1          1          1          1          1          1          1          1          1          1          1          1          1          1          1          1          1          1          1          1          1          1          1          1          1          1          1          1          1          1          1          1          1          1          1          1          1          1          1          1          1          1          1          1          1          1          1          1          1          1          1          1          1          1          1          1          1          1          1          1          1          1          1          1          1          1          1          1          1          1          1          1          1          1          1          1          1          1          1          1          1          1          1          1          1          1          1          1          1          1          1          1          1          1          1          1          1          1          1          1          1          1          1          1          1          1          1          1          1          1          1          1          1          1          1          1          1          1          1          1          1          1          1          1          1          1          1          1          1          1          1          1          1          1          1          1          1          1          1          1          1          1          1          1          1          1          1          1          1          1          1          1          1          1          1          1          1          1          1          1          1          1          1          1          1          1          1          1          1          1          1          1          1          1          1          1          1          1          1          1          1          1          1          1          1          1          1          1          1          1          1          1          1          1          1          1          1          1          1          1          1          1          1          1          1          1          1          1          1          1          1          1          1          1          1          1          1          1          1          1          1          1          1          1          1          1          1          1          1          1          1          1          1          1          1          1          1          1          1          1          1          1          1          1          1          1          1          1          1          1          1          1          1          1          1          1          1          1          1          1          1          1          1          1          1          1          1          1          1          1          1          1          1          1          1          1          1          1          1          1          1          1          1          1          1          1          1          1          1          1          1          1          1          1          1          1          1          1          1          1          1          1          1          1          1          1          1          1          1          1          1          1          1          1          1          1          1          1          1          1          1          1          1          1          1          1          1          1          1          1          1          1          1          1          1          1          1          1          1          1          1          1          1          1          1          1          1          1          1          1          1          1          1          1          1          1          1          1          1          1          1          1          1          1          1          1          1          1          1          1          1          1          1          1          1          1          1          1          1          1          1          1          1          1          1          1          1          1          1          1          1          1          1          1          1          1          1          1          1          1          1          1          1          1          1          1          1          1          1          1          1          1          1          1          1          1          1          1          1          1          1          1          1          1          1          1          1          1          1          1          1          1          1          1          1          1          1          1          1          1          1          1          1          1          1          1          1          1          1          1          1          1          1          1          1          1          1          1          1          1          1          1          1          1          1          1          1          1          1          1          1          1          1          1          1          1          1          1          1          1          1          1          1          1          1          1          1          1          1          1          1          1          1          1          1          1          1          1          1          1          1          1          1          1          1          1          1          1          1          1          1          1          1          1          1          1          1          1          1          1          1          1          1          1          1          1          1          1          1          1          1          1          1          1          1          1          1          1          1          1          1          1          1          1          1          1          1          1          1          1          1          1          1          1          1          1          1          1          1          1          1          1          1          1          1          1          1          1 </DataArray>
</CellData>
<PointData>
<DataArray type="Float64"                                    Name="u"                                                      NumberOfComponents=" 3" format="ascii">
              0.000000000               0.000000000               1.000000000              -0.000000001               0.000000000               1.000000000              -0.000000000               0.000000000               1.000000000               0.000000002              -0.000000000               1.000000000               0.000000000              -0.000000000               1.000000000              -0.000000005               0.000000000               1.000000000               0.000000001               0.000000000               1.000000000               0.000000012               0.000000000               1.000000000              -0.000000000               0.000000000               1.000000000              -0.000000021               0.000000000               1.000000000              -0.000000014               0.000000000               1.000000000               0.000000014              -0.000000000               1.000000000               0.000000030               0.000000000               1.000000000               0.000000021               0.000000000               1.000000000               0.000000000              -0.000000000               1.000000000              -0.000000014              -0.000000000               1.000000000              -0.000000011              -0.000000000               1.000000000              -0.000000001               0.000000000               1.000000000               0.000000000               0.000000000               1.000000000               0.000000001              -0.000000000               1.000000000              -0.000000002               0.000000001               1.000000000              -0.000000001               0.000000001               1.000000000               0.000000007              -0.000000002               1.000000000               0.000000001              -0.000000002               1.000000000              -0.000000015               0.000000006               1.000000000              -0.000000005               0.000000004               1.000000000               0.000000023              -0.000000010               1.000000000               0.000000024              -0.000000012               1.000000000              -0.000000005               0.000000009               1.000000000              -0.000000032               0.000000026               1.000000000              -0.000000035               0.000000018               1.000000000              -0.000000016              -0.000000009               1.000000000               0.000000007              -0.000000037               1.000000000               0.000000015              -0.000000053               1.000000000               0.000000000              -0.000000000               1.000000000               0.000000000              -0.000000000               1.000000000              -0.000000002               0.000000001               1.000000000               0.000000001              -0.000000000               1.000000000               0.000000005              -0.000000002               1.000000000              -0.000000007               0.000000002               1.000000000              -0.000000010               0.000000004               1.000000000               0.000000019              -0.000000008               1.000000000               0.000000022              -0.000000010               1.000000000              -0.000000020               0.000000015               1.000000000              -0.000000049               0.000000028               1.000000000              -0.000000028              -0.000000004               1.000000000               0.000000021              -0.000000050               1.000000000               0.000000062              -0.000000063               1.000000000               0.000000067              -0.000000031               1.000000000               0.000000035               0.000000035               1.000000000              -0.000000007               0.000000105               1.000000000               0.000000001              -0.000000000               1.000000000              -0.000000001               0.000000000               1.000000000               0.000000001               0.000000000               1.000000000               0.000000003              -0.000000001               1.000000000              -0.000000009               0.000000001               1.000000000               0.000000002              -0.000000000               1.000000000               0.000000023              -0.000000005               1.000000000              -0.000000013               0.000000005               1.000000000              -0.000000046               0.000000015               1.000000000              -0.000000003              -0.000000009               1.000000000               0.000000062              -0.000000043               1.000000000               0.000000082              -0.000000026               1.000000000               0.000000045               0.000000043               1.000000000              -0.000000036               0.000000118               1.000000000              -0.000000118               0.000000162               1.000000000              -0.000000144               0.000000132               1.000000000              -0.000000086               0.000000015               1.000000000              -0.000000001              -0.000000000               1.000000000               0.000000001               0.000000000               1.000000000               0.000000002              -0.000000000               1.000000000              -0.000000007              -0.000000000               1.000000000               0.000000006               0.000000000               1.000000000               0.000000011              -0.000000001               1.000000000              -0.000000030               0.000000004               1.000000000              -0.000000010               0.000000001               1.000000000               0.000000056              -0.000000017               1.000000000               0.000000045              -0.000000008               1.000000000              -0.000000021               0.000000045               1.000000000              -0.000000093               0.000000082               1.000000000              -0.000000143               0.000000051               1.000000000              -0.000000125              -0.000000044               1.000000000              -0.000000009              -0.000000220               1.000000000               0.000000176              -0.000000448               1.000000000               0.000000312              -0.000000625               1.000000000              -0.000000001               0.000000000               1.000000000               0.000000001               0.000000000               1.000000000              -0.000000003              -0.000000001               1.000000000               0.000000003               0.000000000               1.000000000               0.000000005              -0.000000000               1.000000000              -0.000000022               0.000000002               1.000000000               0.000000016              -0.000000001               1.000000000               0.000000038              -0.000000011               1.000000000              -0.000000031               0.000000012               1.000000000              -0.000000062               0.000000046               1.000000000              -0.000000053               0.000000006               1.000000000              -0.000000020              -0.000000109               1.000000000               0.000000080              -0.000000230               1.000000000               0.000000240              -0.000000345               1.000000000               0.000000388              -0.000000400               1.000000000               0.000000367              -0.000000211               1.000000000              -0.000000015               0.000000495               1.000000000               0.000000001               0.000000001               1.000000000              -0.000000001              -0.000000000               1.000000000              -0.000000000              -0.000000001               1.000000000               0.000000003               0.000000001               1.000000000              -0.000000010               0.000000003               1.000000000               0.000000011              -0.000000004               1.000000000               0.000000011              -0.000000012               1.000000000              -0.000000040               0.000000029               1.000000000              -0.000000006               0.000000041               1.000000000               0.000000018              -0.000000081               1.000000000               0.000000037              -0.000000209               1.000000000               0.000000116              -0.000000182               1.000000000               0.000000195               0.000000012               1.000000000               0.000000189               0.000000386               1.000000000              -0.000000073               0.000001108               1.000000000              -0.000000758               0.000002424               1.000000000              -0.000001962               0.000004595               1.000000000               0.000000001               0.000000001               1.000000000              -0.000000001              -0.000000001               1.000000000               0.000000001              -0.000000000               1.000000000              -0.000000001               0.000000005               1.000000000               0.000000001              -0.000000009               1.000000000               0.000000003              -0.000000010               1.000000000              -0.000000013               0.000000050               1.000000000               0.000000018               0.000000008               1.000000000               0.000000009              -0.000000173               1.000000000               0.000000012              -0.000000157               1.000000000               0.000000086               0.000000235               1.000000000               0.000000101               0.000000976               1.000000000               0.000000010               0.000002030               1.000000000              -0.000000372               0.000003508               1.000000000              -0.000001188               0.000005625               1.000000000              -0.000002521               0.000008534               1.000000000              -0.000004344               0.000012295               1.000000000               0.000000000               0.000000001               1.000000000              -0.000000000              -0.000000002               1.000000000               0.000000001               0.000000006               1.000000000              -0.000000002              -0.000000007               1.000000000              -0.000000001              -0.000000013               1.000000000               0.000000007               0.000000061               1.000000000              -0.000000002              -0.000000032               1.000000000              -0.000000017              -0.000000201               1.000000000              -0.000000004               0.000000052               1.000000000               0.000000045               0.000000812               1.000000000               0.000000033               0.000002112               1.000000000              -0.000000059               0.000003949               1.000000000              -0.000000381               0.000006353               1.000000000              -0.000001096               0.000009506               1.000000000              -0.000002266               0.000013492               1.000000000              -0.000003888               0.000018345               1.000000000              -0.000005778               0.000023862               1.000000000               0.000000000              -0.000000000               1.000000000              -0.000000000              -0.000000002               1.000000000               0.000000001               0.000000009               1.000000000              -0.000000001              -0.000000016               1.000000000              -0.000000001               0.000000000               1.000000000               0.000000004               0.000000063               1.000000000              -0.000000001              -0.000000087               1.000000000              -0.000000001              -0.000000147               1.000000000              -0.000000008               0.000000117               1.000000000              -0.000000007               0.000000926               1.000000000               0.000000018               0.000002356               1.000000000               0.000000014               0.000004309               1.000000000              -0.000000034               0.000006833               1.000000000              -0.000000231               0.000009891               1.000000000              -0.000000666               0.000013687               1.000000000              -0.000001372               0.000018213               1.000000000              -0.000002302               0.000023594               1.000000000              -0.000000000              -0.000000002               1.000000000              -0.000000000               0.000000001               1.000000000               0.000000001               0.000000007               1.000000000              -0.000000002              -0.000000021               1.000000000              -0.000000000               0.000000016               1.000000000               0.000000005               0.000000063               1.000000000              -0.000000003              -0.000000133               1.000000000              -0.000000007              -0.000000143               1.000000000              -0.000000006               0.000000244               1.000000000               0.000000013               0.000001093               1.000000000               0.000000012               0.000002554               1.000000000               0.000000001               0.000004546               1.000000000               0.000000020               0.000007134               1.000000000               0.000000033               0.000010232               1.000000000              -0.000000016               0.000013931               1.000000000              -0.000000194               0.000018225               1.000000000              -0.000000531               0.000023239               1.000000000              -0.000000001              -0.000000006               1.000000000               0.000000000               0.000000006               1.000000000               0.000000000              -0.000000001               1.000000000              -0.000000001              -0.000000021               1.000000000               0.000000000               0.000000040               1.000000000               0.000000001               0.000000023               1.000000000              -0.000000002              -0.000000131               1.000000000               0.000000003              -0.000000114               1.000000000              -0.000000008               0.000000298               1.000000000              -0.000000018               0.000001254               1.000000000               0.000000010               0.000002712               1.000000000               0.000000015               0.000004750               1.000000000               0.000000005               0.000007340               1.000000000               0.000000028               0.000010462               1.000000000               0.000000070               0.000014129               1.000000000               0.000000099               0.000018330               1.000000000               0.000000066               0.000023128               1.000000000              -0.000000001              -0.000000008               1.000000000               0.000000001               0.000000010               1.000000000              -0.000000000              -0.000000006               1.000000000              -0.000000001              -0.000000025               1.000000000               0.000000003               0.000000065               1.000000000               0.000000001              -0.000000005               1.000000000              -0.000000004              -0.000000170               1.000000000              -0.000000006              -0.000000051               1.000000000               0.000000006               0.000000390               1.000000000               0.000000006               0.000001373               1.000000000              -0.000000010               0.000002869               1.000000000              -0.000000003               0.000004903               1.000000000              -0.000000004               0.000007471               1.000000000              -0.000000017               0.000010590               1.000000000              -0.000000013               0.000014232               1.000000000               0.000000014               0.000018397               1.000000000               0.000000043               0.000023090               1.000000000              -0.000000001              -0.000000005               1.000000000               0.000000001               0.000000010               1.000000000              -0.000000000              -0.000000011               1.000000000              -0.000000001              -0.000000015               1.000000000               0.000000003               0.000000062               1.000000000              -0.000000001              -0.000000017               1.000000000              -0.000000001              -0.000000164               1.000000000               0.000000001              -0.000000055               1.000000000              -0.000000007               0.000000462               1.000000000              -0.000000002               0.000001495               1.000000000               0.000000005               0.000003002               1.000000000               0.000000004               0.000005060               1.000000000               0.000000009               0.000007611               1.000000000               0.000000006               0.000010706               1.000000000              -0.000000010               0.000014317               1.000000000              -0.000000025               0.000018465               1.000000000              -0.000000027               0.000023118               1.000000000              -0.000000001              -0.000000002               1.000000000               0.000000000               0.000000010               1.000000000               0.000000000              -0.000000020               1.000000000              -0.000000001              -0.000000003               1.000000000               0.000000001               0.000000069               1.000000000               0.000000002              -0.000000051               1.000000000              -0.000000002              -0.000000159               1.000000000              -0.000000004              -0.000000010               1.000000000               0.000000002               0.000000507               1.000000000               0.000000003               0.000001555               1.000000000               0.000000000               0.000003086               1.000000000              -0.000000003               0.000005159               1.000000000              -0.000000005               0.000007716               1.000000000               0.000000003               0.000010804               1.000000000               0.000000011               0.000014382               1.000000000               0.000000012               0.000018496               1.000000000               0.000000006               0.000023110               1.000000000               0.000000000              -0.000000001               1.000000000              -0.000000000               0.000000010               1.000000000              -0.000000000              -0.000000022               1.000000000               0.000000001              -0.000000001               1.000000000               0.000000001               0.000000069               1.000000000              -0.000000002              -0.000000053               1.000000000               0.000000000              -0.000000166               1.000000000               0.000000001              -0.000000008               1.000000000              -0.000000002               0.000000553               1.000000000              -0.000000002               0.000001616               1.000000000               0.000000001               0.000003144               1.000000000               0.000000004               0.000005211               1.000000000               0.000000003               0.000007764               1.000000000              -0.000000002               0.000010853               1.000000000              -0.000000005               0.000014426               1.000000000              -0.000000004               0.000018523               1.000000000              -0.000000001               0.000023108               1.000000000               0.000000000               0.000000000               1.000000000              -0.000000000               0.000000008               1.000000000              -0.000000000              -0.000000023               1.000000000               0.000000000               0.000000005               1.000000000               0.000000000               0.000000066               1.000000000              -0.000000000              -0.000000062               1.000000000               0.000000000              -0.000000156               1.000000000              -0.000000000               0.000000003               1.000000000              -0.000000000               0.000000554               1.000000000              -0.000000000               0.000001621               1.000000000              -0.000000000               0.000003167               1.000000000              -0.000000000               0.000005242               1.000000000               0.000000000               0.000007791               1.000000000               0.000000000               0.000010869               1.000000000               0.000000000               0.000014433               1.000000000               0.000000000               0.000018529               1.000000000              -0.000000000               0.000023110               1.000000000               0.000000000               0.000000000               1.000000000              -0.000000001               0.000000000               1.000000000              -0.000000000               0.000000000               1.000000000               0.000000002              -0.000000000               1.000000000               0.000000000              -0.000000000               1.000000000              -0.000000005               0.000000000               1.000000000               0.000000001               0.000000000               1.000000000               0.000000012               0.000000000               1.000000000              -0.000000000               0.000000000               1.000000000              -0.000000021               0.000000000               1.000000000              -0.000000014               0.000000000               1.000000000               0.000000014              -0.000000000               1.000000000               0.000000030               0.000000000               1.000000000               0.000000021               0.000000000               1.000000000               0.000000000              -0.000000000               1.000000000              -0.000000014              -0.000000000               1.000000000              -0.000000011              -0.000000000               1.000000000              -0.000000001              -0.000000000               1.000000000               0.000000000              -0.000000000               1.000000000               0.000000001               0.000000000               1.000000000              -0.000000002              -0.000000001               1.000000000              -0.000000001              -0.000000001               1.000000000               0.000000007               0.000000002               1.000000000               0.000000001               0.000000002               1.000000000              -0.000000015              -0.000000006               1.000000000              -0.000000005              -0.000000004               1.000000000               0.000000023               0.000000010               1.000000000               0.000000024               0.000000012               1.000000000              -0.000000005              -0.000000009               1.000000000              -0.000000032              -0.000000026               1.000000000              -0.000000035              -0.000000018               1.000000000              -0.000000016               0.000000009               1.000000000               0.000000007               0.000000037               1.000000000               0.000000015               0.000000053               1.000000000               0.000000000               0.000000000               1.000000000               0.000000000               0.000000000               1.000000000              -0.000000002              -0.000000001               1.000000000               0.000000001               0.000000000               1.000000000               0.000000005               0.000000002               1.000000000              -0.000000007              -0.000000002               1.000000000              -0.000000010              -0.000000004               1.000000000               0.000000019               0.000000008               1.000000000               0.000000022               0.000000010               1.000000000              -0.000000020              -0.000000015               1.000000000              -0.000000049              -0.000000028               1.000000000              -0.000000028               0.000000004               1.000000000               0.000000021               0.000000050               1.000000000               0.000000062               0.000000063               1.000000000               0.000000067               0.000000031               1.000000000               0.000000035              -0.000000035               1.000000000              -0.000000007              -0.000000105               1.000000000               0.000000001               0.000000000               1.000000000              -0.000000001              -0.000000000               1.000000000               0.000000001              -0.000000000               1.000000000               0.000000003               0.000000001               1.000000000              -0.000000009              -0.000000001               1.000000000               0.000000002               0.000000000               1.000000000               0.000000023               0.000000005               1.000000000              -0.000000013              -0.000000005               1.000000000              -0.000000046              -0.000000015               1.000000000              -0.000000003               0.000000009               1.000000000               0.000000062               0.000000043               1.000000000               0.000000082               0.000000026               1.000000000               0.000000045              -0.000000043               1.000000000              -0.000000036              -0.000000118               1.000000000              -0.000000118              -0.000000162               1.000000000              -0.000000144              -0.000000132               1.000000000              -0.000000086              -0.000000015               1.000000000              -0.000000001               0.000000000               1.000000000               0.000000001              -0.000000000               1.000000000               0.000000002               0.000000000               1.000000000              -0.000000007               0.000000000               1.000000000               0.000000006              -0.000000000               1.000000000               0.000000011               0.000000001               1.000000000              -0.000000030              -0.000000004               1.000000000              -0.000000010              -0.000000001               1.000000000               0.000000056               0.000000017               1.000000000               0.000000045               0.000000008               1.000000000              -0.000000021              -0.000000045               1.000000000              -0.000000093              -0.000000082               1.000000000              -0.000000143              -0.000000051               1.000000000              -0.000000125               0.000000044               1.000000000              -0.000000009               0.000000220               1.000000000               0.000000176               0.000000448               1.000000000               0.000000312               0.000000625               1.000000000              -0.000000001              -0.000000000               1.000000000               0.000000001              -0.000000000               1.000000000              -0.000000003               0.000000001               1.000000000               0.000000003              -0.000000000               1.000000000               0.000000005               0.000000000               1.000000000              -0.000000022              -0.000000002               1.000000000               0.000000016               0.000000001               1.000000000               0.000000038               0.000000011               1.000000000              -0.000000031              -0.000000012               1.000000000              -0.000000062              -0.000000046               1.000000000              -0.000000053              -0.000000006               1.000000000              -0.000000020               0.000000109               1.000000000               0.000000080               0.000000230               1.000000000               0.000000240               0.000000345               1.000000000               0.000000388               0.000000400               1.000000000               0.000000367               0.000000211               1.000000000              -0.000000015              -0.000000495               1.000000000               0.000000001              -0.000000001               1.000000000              -0.000000001               0.000000000               1.000000000              -0.000000000               0.000000001               1.000000000               0.000000003              -0.000000001               1.000000000              -0.000000010              -0.000000003               1.000000000               0.000000011               0.000000004               1.000000000               0.000000011               0.000000012               1.000000000              -0.000000040              -0.000000029               1.000000000              -0.000000006              -0.000000041               1.000000000               0.000000018               0.000000081               1.000000000               0.000000037               0.000000209               1.000000000               0.000000116               0.000000182               1.000000000               0.000000195              -0.000000012               1.000000000               0.000000189              -0.000000386               1.000000000              -0.000000073              -0.000001108               1.000000000              -0.000000758              -0.000002424               1.000000000              -0.000001962              -0.000004595               1.000000000               0.000000001              -0.000000001               1.000000000              -0.000000001               0.000000001               1.000000000               0.000000001               0.000000000               1.000000000              -0.000000001              -0.000000005               1.000000000               0.000000001               0.000000009               1.000000000               0.000000003               0.000000010               1.000000000              -0.000000013              -0.000000050               1.000000000               0.000000018              -0.000000008               1.000000000               0.000000009               0.000000173               1.000000000               0.000000012               0.000000157               1.000000000               0.000000086              -0.000000235               1.000000000               0.000000101              -0.000000976               1.000000000               0.000000010              -0.000002030               1.000000000              -0.000000372              -0.000003508               1.000000000              -0.000001188              -0.000005625               1.000000000              -0.000002521              -0.000008534               1.000000000              -0.000004344              -0.000012295               1.000000000               0.000000000              -0.000000001               1.000000000              -0.000000000               0.000000002               1.000000000               0.000000001              -0.000000006               1.000000000              -0.000000002               0.000000007               1.000000000              -0.000000001               0.000000013               1.000000000               0.000000007              -0.000000061               1.000000000              -0.000000002               0.000000032               1.000000000              -0.000000017               0.000000201               1.000000000              -0.000000004              -0.000000052               1.000000000               0.000000045              -0.000000812               1.000000000               0.000000033              -0.000002112               1.000000000              -0.000000059              -0.000003949               1.000000000              -0.000000381              -0.000006353               1.000000000              -0.000001096              -0.000009506               1.000000000              -0.000002266              -0.000013492               1.000000000              -0.000003888              -0.000018345               1.000000000              -0.000005778              -0.000023862               1.000000000               0.000000000               0.000000000               1.000000000              -0.000000000               0.000000002               1.000000000               0.000000001              -0.000000009               1.000000000              -0.000000001               0.000000016               1.000000000              -0.000000001              -0.000000000               1.000000000               0.000000004              -0.000000063               1.000000000              -0.000000001               0.000000087               1.000000000              -0.000000001               0.000000147               1.000000000              -0.000000008              -0.000000117               1.000000000              -0.000000007              -0.000000926               1.000000000               0.000000018              -0.000002356               1.000000000               0.000000014              -0.000004309               1.000000000              -0.000000034              -0.000006833               1.000000000              -0.000000231              -0.000009891               1.000000000              -0.000000666              -0.000013687               1.000000000              -0.000001372              -0.000018213               1.000000000              -0.000002302              -0.000023594               1.000000000              -0.000000000               0.000000002               1.000000000              -0.000000000              -0.000000001               1.000000000               0.000000001              -0.000000007               1.000000000              -0.000000002               0.000000021               1.000000000              -0.000000000              -0.000000016               1.000000000               0.000000005              -0.000000063               1.000000000              -0.000000003               0.000000133               1.000000000              -0.000000007               0.000000143               1.000000000              -0.000000006              -0.000000244               1.000000000               0.000000013              -0.000001093               1.000000000               0.000000012              -0.000002554               1.000000000               0.000000001              -0.000004546               1.000000000               0.000000020              -0.000007134               1.000000000               0.000000033              -0.000010232               1.000000000              -0.000000016              -0.000013931               1.000000000              -0.000000194              -0.000018225               1.000000000              -0.000000531              -0.000023239               1.000000000              -0.000000001               0.000000006               1.000000000               0.000000000              -0.000000006               1.000000000               0.000000000               0.000000001               1.000000000              -0.000000001               0.000000021               1.000000000               0.000000000              -0.000000040               1.000000000               0.000000001              -0.000000023               1.000000000              -0.000000002               0.000000131               1.000000000               0.000000003               0.000000114               1.000000000              -0.000000008              -0.000000298               1.000000000              -0.000000018              -0.000001254               1.000000000               0.000000010              -0.000002712               1.000000000               0.000000015              -0.000004750               1.000000000               0.000000005              -0.000007340               1.000000000               0.000000028              -0.000010462               1.000000000               0.000000070              -0.000014129               1.000000000               0.000000099              -0.000018330               1.000000000               0.000000066              -0.000023128               1.000000000              -0.000000001               0.000000008               1.000000000               0.000000001              -0.000000010               1.000000000              -0.000000000               0.000000006               1.000000000              -0.000000001               0.000000025               1.000000000               0.000000003              -0.000000065               1.000000000               0.000000001               0.000000005               1.000000000              -0.000000004               0.000000170               1.000000000              -0.000000006               0.000000051               1.000000000               0.000000006              -0.000000390               1.000000000               0.000000006              -0.000001373               1.000000000              -0.000000010              -0.000002869               1.000000000              -0.000000003              -0.000004903               1.000000000              -0.000000004              -0.000007471               1.000000000              -0.000000017              -0.000010590               1.000000000              -0.000000013              -0.000014232               1.000000000               0.000000014              -0.000018397               1.000000000               0.000000043              -0.000023090               1.000000000              -0.000000001               0.000000005               1.000000000               0.000000001              -0.000000010               1.000000000              -0.000000000               0.000000011               1.000000000              -0.000000001               0.000000015               1.000000000               0.000000003              -0.000000062               1.000000000              -0.000000001               0.000000017               1.000000000              -0.000000001               0.000000164               1.000000000               0.000000001               0.000000055               1.000000000              -0.000000007              -0.000000462               1.000000000              -0.000000002              -0.000001495               1.000000000               0.000000005              -0.000003002               1.000000000               0.000000004              -0.000005060               1.000000000               0.000000009              -0.000007611               1.000000000               0.000000006              -0.000010706               1.000000000              -0.000000010              -0.000014317               1.000000000              -0.000000025              -0.000018465               1.000000000              -0.000000027              -0.000023118               1.000000000              -0.000000001               0.000000002               1.000000000               0.000000000              -0.000000010               1.000000000               0.000000000               0.000000020               1.000000000              -0.000000001               0.000000003               1.000000000               0.000000001              -0.000000069               1.000000000               0.000000002               0.000000051               1.000000000              -0.000000002               0.000000159               1.000000000              -0.000000004               0.000000010               1.000000000               0.000000002              -0.000000507               1.000000000               0.000000003              -0.000001555               1.000000000               0.000000000              -0.000003086               1.000000000              -0.000000003              -0.000005159               1.000000000              -0.000000005              -0.000007716               1.000000000               0.000000003              -0.000010804               1.000000000               0.000000011              -0.000014382               1.000000000               0.000000012              -0.000018496               1.000000000               0.000000006              -0.000023110               1.000000000               0.000000000               0.000000001               1.000000000              -0.000000000              -0.000000010               1.000000000              -0.000000000               0.000000022               1.000000000               0.000000001               0.000000001               1.000000000               0.000000001              -0.000000069               1.000000000              -0.000000002               0.000000053               1.000000000               0.000000000               0.000000166               1.000000000               0.000000001               0.000000008               1.000000000              -0.000000002              -0.000000553               1.000000000              -0.000000002              -0.000001616               1.000000000               0.000000001              -0.000003144               1.000000000               0.000000004              -0.000005211               1.000000000               0.000000003              -0.000007764               1.000000000              -0.000000002              -0.000010853               1.000000000              -0.000000005              -0.000014426               1.000000000              -0.000000004              -0.000018523               1.000000000              -0.000000001              -0.000023108               1.000000000               0.000000000              -0.000000000               1.000000000              -0.000000000              -0.000000008               1.000000000               0.000000000               0.000000023               1.000000000              -0.000000000              -0.000000005               1.000000000              -0.000000000              -0.000000066               1.000000000               0.000000000               0.000000062               1.000000000              -0.000000000               0.000000156               1.000000000              -0.000000000              -0.000000003               1.000000000               0.000000000              -0.000000554               1.000000000              -0.000000000              -0.000001621               1.000000000              -0.000000000              -0.000003167               1.000000000               0.000000000              -0.000005242               1.000000000               0.000000000              -0.000007791               1.000000000               0.000000000              -0.000010869               1.000000000               0.000000000              -0.000014433               1.000000000               0.000000000              -0.000018529               1.000000000              -0.000000000              -0.000023110               1.000000000              -0.000000000               0.000000000               1.000000000               0.000000001               0.000000000               1.000000000               0.000000000               0.000000000               1.000000000              -0.000000002              -0.000000000               1.000000000              -0.000000000               0.000000000               1.000000000               0.000000005               0.000000000               1.000000000              -0.000000001              -0.000000000               1.000000000              -0.000000012              -0.000000000               1.000000000               0.000000000              -0.000000000               1.000000000               0.000000021              -0.000000000               1.000000000               0.000000014              -0.000000000               1.000000000              -0.000000014              -0.000000000               1.000000000              -0.000000030              -0.000000000               1.000000000              -0.000000021              -0.000000000               1.000000000              -0.000000000               0.000000000               1.000000000               0.000000014               0.000000000               1.000000000               0.000000011               0.000000000               1.000000000               0.000000001              -0.000000000               1.000000000              -0.000000000              -0.000000000               1.000000000              -0.000000001               0.000000000               1.000000000               0.000000002              -0.000000001               1.000000000               0.000000001              -0.000000001               1.000000000              -0.000000007               0.000000002               1.000000000              -0.000000001               0.000000002               1.000000000               0.000000015              -0.000000006               1.000000000               0.000000005              -0.000000004               1.000000000              -0.000000023               0.000000010               1.000000000              -0.000000024               0.000000012               1.000000000               0.000000005              -0.000000009               1.000000000               0.000000032              -0.000000026               1.000000000               0.000000035              -0.000000018               1.000000000               0.000000016               0.000000009               1.000000000              -0.000000007               0.000000037               1.000000000              -0.000000015               0.000000053               1.000000000              -0.000000000               0.000000000               1.000000000              -0.000000000               0.000000000               1.000000000               0.000000002              -0.000000001               1.000000000              -0.000000001               0.000000000               1.000000000              -0.000000005               0.000000002               1.000000000               0.000000007              -0.000000002               1.000000000               0.000000010              -0.000000004               1.000000000              -0.000000019               0.000000008               1.000000000              -0.000000022               0.000000010               1.000000000               0.000000020              -0.000000015               1.000000000               0.000000049              -0.000000028               1.000000000               0.000000028               0.000000004               1.000000000              -0.000000021               0.000000050               1.000000000              -0.000000062               0.000000063               1.000000000              -0.000000067               0.000000031               1.000000000              -0.000000035              -0.000000035               1.000000000               0.000000007              -0.000000105               1.000000000              -0.000000001               0.000000000               1.000000000               0.000000001              -0.000000000               1.000000000              -0.000000001              -0.000000000               1.000000000              -0.000000003               0.000000001               1.000000000               0.000000009              -0.000000001               1.000000000              -0.000000002               0.000000000               1.000000000              -0.000000023               0.000000005               1.000000000               0.000000013              -0.000000005               1.000000000               0.000000046              -0.000000015               1.000000000               0.000000003               0.000000009               1.000000000              -0.000000062               0.000000043               1.000000000              -0.000000082               0.000000026               1.000000000              -0.000000045              -0.000000043               1.000000000               0.000000036              -0.000000118               1.000000000               0.000000118              -0.000000162               1.000000000               0.000000144              -0.000000132               1.000000000               0.000000086              -0.000000015               1.000000000               0.000000001               0.000000000               1.000000000              -0.000000001              -0.000000000               1.000000000              -0.000000002               0.000000000               1.000000000               0.000000007               0.000000000               1.000000000              -0.000000006              -0.000000000               1.000000000              -0.000000011               0.000000001               1.000000000               0.000000030              -0.000000004               1.000000000               0.000000010              -0.000000001               1.000000000              -0.000000056               0.000000017               1.000000000              -0.000000045               0.000000008               1.000000000               0.000000021              -0.000000045               1.000000000               0.000000093              -0.000000082               1.000000000               0.000000143              -0.000000051               1.000000000               0.000000125               0.000000044               1.000000000               0.000000009               0.000000220               1.000000000              -0.000000176               0.000000448               1.000000000              -0.000000312               0.000000625               1.000000000               0.000000001              -0.000000000               1.000000000              -0.000000001              -0.000000000               1.000000000               0.000000003               0.000000001               1.000000000              -0.000000003              -0.000000000               1.000000000              -0.000000005               0.000000000               1.000000000               0.000000022              -0.000000002               1.000000000              -0.000000016               0.000000001               1.000000000              -0.000000038               0.000000011               1.000000000               0.000000031              -0.000000012               1.000000000               0.000000062              -0.000000046               1.000000000               0.000000053              -0.000000006               1.000000000               0.000000020               0.000000109               1.000000000              -0.000000080               0.000000230               1.000000000              -0.000000240               0.000000345               1.000000000              -0.000000388               0.000000400               1.000000000              -0.000000367               0.000000211               1.000000000               0.000000015              -0.000000495               1.000000000              -0.000000001              -0.000000001               1.000000000               0.000000001               0.000000000               1.000000000               0.000000000               0.000000001               1.000000000              -0.000000003              -0.000000001               1.000000000               0.000000010              -0.000000003               1.000000000              -0.000000011               0.000000004               1.000000000              -0.000000011               0.000000012               1.000000000               0.000000040              -0.000000029               1.000000000               0.000000006              -0.000000041               1.000000000              -0.000000018               0.000000081               1.000000000              -0.000000037               0.000000209               1.000000000              -0.000000116               0.000000182               1.000000000              -0.000000195              -0.000000012               1.000000000              -0.000000189              -0.000000386               1.000000000               0.000000073              -0.000001108               1.000000000               0.000000758              -0.000002424               1.000000000               0.000001962              -0.000004595               1.000000000              -0.000000001              -0.000000001               1.000000000               0.000000001               0.000000001               1.000000000              -0.000000001               0.000000000               1.000000000               0.000000001              -0.000000005               1.000000000              -0.000000001               0.000000009               1.000000000              -0.000000003               0.000000010               1.000000000               0.000000013              -0.000000050               1.000000000              -0.000000018              -0.000000008               1.000000000              -0.000000009               0.000000173               1.000000000              -0.000000012               0.000000157               1.000000000              -0.000000086              -0.000000235               1.000000000              -0.000000101              -0.000000976               1.000000000              -0.000000010              -0.000002030               1.000000000               0.000000372              -0.000003508               1.000000000               0.000001188              -0.000005625               1.000000000               0.000002521              -0.000008534               1.000000000               0.000004344              -0.000012295               1.000000000              -0.000000000              -0.000000001               1.000000000               0.000000000               0.000000002               1.000000000              -0.000000001              -0.000000006               1.000000000               0.000000002               0.000000007               1.000000000               0.000000001               0.000000013               1.000000000              -0.000000007              -0.000000061               1.000000000               0.000000002               0.000000032               1.000000000               0.000000017               0.000000201               1.000000000               0.000000004              -0.000000052               1.000000000              -0.000000045              -0.000000812               1.000000000              -0.000000033              -0.000002112               1.000000000               0.000000059              -0.000003949               1.000000000               0.000000381              -0.000006353               1.000000000               0.000001096              -0.000009506               1.000000000               0.000002266              -0.000013492               1.000000000               0.000003888              -0.000018345               1.000000000               0.000005778              -0.000023862               1.000000000              -0.000000000               0.000000000               1.000000000               0.000000000               0.000000002               1.000000000              -0.000000001              -0.000000009               1.000000000               0.000000001               0.000000016               1.000000000               0.000000001              -0.000000000               1.000000000              -0.000000004              -0.000000063               1.000000000               0.000000001               0.000000087               1.000000000               0.000000001               0.000000147               1.000000000               0.000000008              -0.000000117               1.000000000               0.000000007              -0.000000926               1.000000000              -0.000000018              -0.000002356               1.000000000              -0.000000014              -0.000004309               1.000000000               0.000000034              -0.000006833               1.000000000               0.000000231              -0.000009891               1.000000000               0.000000666              -0.000013687               1.000000000               0.000001372              -0.000018213               1.000000000               0.000002302              -0.000023594               1.000000000               0.000000000               0.000000002               1.000000000               0.000000000              -0.000000001               1.000000000              -0.000000001              -0.000000007               1.000000000               0.000000002               0.000000021               1.000000000               0.000000000              -0.000000016               1.000000000              -0.000000005              -0.000000063               1.000000000               0.000000003               0.000000133               1.000000000               0.000000007               0.000000143               1.000000000               0.000000006              -0.000000244               1.000000000              -0.000000013              -0.000001093               1.000000000              -0.000000012              -0.000002554               1.000000000              -0.000000001              -0.000004546               1.000000000              -0.000000020              -0.000007134               1.000000000              -0.000000033              -0.000010232               1.000000000               0.000000016              -0.000013931               1.000000000               0.000000194              -0.000018225               1.000000000               0.000000531              -0.000023239               1.000000000               0.000000001               0.000000006               1.000000000              -0.000000000              -0.000000006               1.000000000              -0.000000000               0.000000001               1.000000000               0.000000001               0.000000021               1.000000000              -0.000000000              -0.000000040               1.000000000              -0.000000001              -0.000000023               1.000000000               0.000000002               0.000000131               1.000000000              -0.000000003               0.000000114               1.000000000               0.000000008              -0.000000298               1.000000000               0.000000018              -0.000001254               1.000000000              -0.000000010              -0.000002712               1.000000000              -0.000000015              -0.000004750               1.000000000              -0.000000005              -0.000007340               1.000000000              -0.000000028              -0.000010462               1.000000000              -0.000000070              -0.000014129               1.000000000              -0.000000099              -0.000018330               1.000000000              -0.000000066              -0.000023128               1.000000000               0.000000001               0.000000008               1.000000000              -0.000000001              -0.000000010               1.000000000               0.000000000               0.000000006               1.000000000               0.000000001               0.000000025               1.000000000              -0.000000003              -0.000000065               1.000000000              -0.000000001               0.000000005               1.000000000               0.000000004               0.000000170               1.000000000               0.000000006               0.000000051               1.000000000              -0.000000006              -0.000000390               1.000000000              -0.000000006              -0.000001373               1.000000000               0.000000010              -0.000002869               1.000000000               0.000000003              -0.000004903               1.000000000               0.000000004              -0.000007471               1.000000000               0.000000017              -0.000010590               1.000000000               0.000000013              -0.000014232               1.000000000              -0.000000014              -0.000018397               1.000000000              -0.000000043              -0.000023090               1.000000000               0.000000001               0.000000005               1.000000000              -0.000000001              -0.000000010               1.000000000               0.000000000               0.000000011               1.000000000               0.000000001               0.000000015               1.000000000              -0.000000003              -0.000000062               1.000000000               0.000000001               0.000000017               1.000000000               0.000000001               0.000000164               1.000000000              -0.000000001               0.000000055               1.000000000               0.000000007              -0.000000462               1.000000000               0.000000002              -0.000001495               1.000000000              -0.000000005              -0.000003002               1.000000000              -0.000000004              -0.000005060               1.000000000              -0.000000009              -0.000007611               1.000000000              -0.000000006              -0.000010706               1.000000000               0.000000010              -0.000014317               1.000000000               0.000000025              -0.000018465               1.000000000               0.000000027              -0.000023118               1.000000000               0.000000001               0.000000002               1.000000000              -0.000000000              -0.000000010               1.000000000              -0.000000000               0.000000020               1.000000000               0.000000001               0.000000003               1.000000000              -0.000000001              -0.000000069               1.000000000              -0.000000002               0.000000051               1.000000000               0.000000002               0.000000159               1.000000000               0.000000004               0.000000010               1.000000000              -0.000000002              -0.000000507               1.000000000              -0.000000003              -0.000001555               1.000000000              -0.000000000              -0.000003086               1.000000000               0.000000003              -0.000005159               1.000000000               0.000000005              -0.000007716               1.000000000              -0.000000003              -0.000010804               1.000000000              -0.000000011              -0.000014382               1.000000000              -0.000000012              -0.000018496               1.000000000              -0.000000006              -0.000023110               1.000000000              -0.000000000               0.000000001               1.000000000               0.000000000              -0.000000010               1.000000000               0.000000000               0.000000022               1.000000000              -0.000000001               0.000000001               1.000000000              -0.000000001              -0.000000069               1.000000000               0.000000002               0.000000053               1.000000000              -0.000000000               0.000000166               1.000000000              -0.000000001               0.000000008               1.000000000               0.000000002              -0.000000553               1.000000000               0.000000002              -0.000001616               1.000000000              -0.000000001              -0.000003144               1.000000000              -0.000000004              -0.000005211               1.000000000              -0.000000003              -0.000007764               1.000000000               0.000000002              -0.000010853               1.000000000               0.000000005              -0.000014426               1.000000000               0.000000004              -0.000018523               1.000000000               0.000000001              -0.000023108               1.000000000               0.000000000              -0.000000000               1.000000000              -0.000000000              -0.000000008               1.000000000               0.000000000               0.000000023               1.000000000              -0.000000000              -0.000000005               1.000000000              -0.000000000              -0.000000066               1.000000000               0.000000000               0.000000062               1.000000000              -0.000000000               0.000000156               1.000000000              -0.000000000              -0.000000003               1.000000000               0.000000000              -0.000000554               1.000000000              -0.000000000              -0.000001621               1.000000000              -0.000000000              -0.000003167               1.000000000               0.000000000              -0.000005242               1.000000000               0.000000000              -0.000007791               1.000000000               0.000000000              -0.000010869               1.000000000               0.000000000              -0.000014433               1.000000000               0.000000000              -0.000018529               1.000000000              -0.000000000              -0.000023110               1.000000000              -0.000000000               0.000000000               1.000000000               0.000000001               0.000000000               1.000000000               0.000000000               0.000000000               1.000000000              -0.000000002              -0.000000000               1.000000000              -0.000000000               0.000000000               1.000000000               0.000000005               0.000000000               1.000000000              -0.000000001              -0.000000000               1.000000000              -0.000000012              -0.000000000               1.000000000               0.000000000              -0.000000000               1.000000000               0.000000021              -0.000000000               1.000000000               0.000000014              -0.000000000               1.000000000              -0.000000014              -0.000000000               1.000000000              -0.000000030              -0.000000000               1.000000000              -0.000000021              -0.000000000               1.000000000              -0.000000000               0.000000000               1.000000000               0.000000014               0.000000000               1.000000000               0.000000011               0.000000000               1.000000000               0.000000001               0.000000000               1.000000000              -0.000000000               0.000000000               1.000000000              -0.000000001              -0.000000000               1.000000000               0.000000002               0.000000001               1.000000000               0.000000001               0.000000001               1.000000000              -0.000000007              -0.000000002               1.000000000              -0.000000001              -0.000000002               1.000000000               0.000000015               0.000000006               1.000000000               0.000000005               0.000000004               1.000000000              -0.000000023              -0.000000010               1.000000000              -0.000000024              -0.000000012               1.000000000               0.000000005               0.000000009               1.000000000               0.000000032               0.000000026               1.000000000               0.000000035               0.000000018               1.000000000               0.000000016              -0.000000009               1.000000000              -0.000000007              -0.000000037               1.000000000              -0.000000015              -0.000000053               1.000000000              -0.000000000              -0.000000000               1.000000000              -0.000000000              -0.000000000               1.000000000               0.000000002               0.000000001               1.000000000              -0.000000001              -0.000000000               1.000000000              -0.000000005              -0.000000002               1.000000000               0.000000007               0.000000002               1.000000000               0.000000010               0.000000004               1.000000000              -0.000000019              -0.000000008               1.000000000              -0.000000022              -0.000000010               1.000000000               0.000000020               0.000000015               1.000000000               0.000000049               0.000000028               1.000000000               0.000000028              -0.000000004               1.000000000              -0.000000021              -0.000000050               1.000000000              -0.000000062              -0.000000063               1.000000000              -0.000000067              -0.000000031               1.000000000              -0.000000035               0.000000035               1.000000000               0.000000007               0.000000105               1.000000000              -0.000000001              -0.000000000               1.000000000               0.000000001               0.000000000               1.000000000              -0.000000001               0.000000000               1.000000000              -0.000000003              -0.000000001               1.000000000               0.000000009               0.000000001               1.000000000              -0.000000002              -0.000000000               1.000000000              -0.000000023              -0.000000005               1.000000000               0.000000013               0.000000005               1.000000000               0.000000046               0.000000015               1.000000000               0.000000003              -0.000000009               1.000000000              -0.000000062              -0.000000043               1.000000000              -0.000000082              -0.000000026               1.000000000              -0.000000045               0.000000043               1.000000000               0.000000036               0.000000118               1.000000000               0.000000118               0.000000162               1.000000000               0.000000144               0.000000132               1.000000000               0.000000086               0.000000015               1.000000000               0.000000001              -0.000000000               1.000000000              -0.000000001               0.000000000               1.000000000              -0.000000002              -0.000000000               1.000000000               0.000000007              -0.000000000               1.000000000              -0.000000006               0.000000000               1.000000000              -0.000000011              -0.000000001               1.000000000               0.000000030               0.000000004               1.000000000               0.000000010               0.000000001               1.000000000              -0.000000056              -0.000000017               1.000000000              -0.000000045              -0.000000008               1.000000000               0.000000021               0.000000045               1.000000000               0.000000093               0.000000082               1.000000000               0.000000143               0.000000051               1.000000000               0.000000125              -0.000000044               1.000000000               0.000000009              -0.000000220               1.000000000              -0.000000176              -0.000000448               1.000000000              -0.000000312              -0.000000625               1.000000000               0.000000001               0.000000000               1.000000000              -0.000000001               0.000000000               1.000000000               0.000000003              -0.000000001               1.000000000              -0.000000003               0.000000000               1.000000000              -0.000000005              -0.000000000               1.000000000               0.000000022               0.000000002               1.000000000              -0.000000016              -0.000000001               1.000000000              -0.000000038              -0.000000011               1.000000000               0.000000031               0.000000012               1.000000000               0.000000062               0.000000046               1.000000000               0.000000053               0.000000006               1.000000000               0.000000020              -0.000000109               1.000000000              -0.000000080              -0.000000230               1.000000000              -0.000000240              -0.000000345               1.000000000              -0.000000388              -0.000000400               1.000000000              -0.000000367              -0.000000211               1.000000000               0.000000015               0.000000495               1.000000000              -0.000000001               0.000000001               1.000000000               0.000000001              -0.000000000               1.000000000               0.000000000              -0.000000001               1.000000000              -0.000000003               0.000000001               1.000000000               0.000000010               0.000000003               1.000000000              -0.000000011              -0.000000004               1.000000000              -0.000000011              -0.000000012               1.000000000               0.000000040               0.000000029               1.000000000               0.000000006               0.000000041               1.000000000              -0.000000018              -0.000000081               1.000000000              -0.000000037              -0.000000209               1.000000000              -0.000000116              -0.000000182               1.000000000              -0.000000195               0.000000012               1.000000000              -0.000000189               0.000000386               1.000000000               0.000000073               0.000001108               1.000000000               0.000000758               0.000002424               1.000000000               0.000001962               0.000004595               1.000000000              -0.000000001               0.000000001               1.000000000               0.000000001              -0.000000001               1.000000000              -0.000000001              -0.000000000               1.000000000               0.000000001               0.000000005               1.000000000              -0.000000001              -0.000000009               1.000000000              -0.000000003              -0.000000010               1.000000000               0.000000013               0.000000050               1.000000000              -0.000000018               0.000000008               1.000000000              -0.000000009              -0.000000173               1.000000000              -0.000000012              -0.000000157               1.000000000              -0.000000086               0.000000235               1.000000000              -0.000000101               0.000000976               1.000000000              -0.000000010               0.000002030               1.000000000               0.000000372               0.000003508               1.000000000               0.000001188               0.000005625               1.000000000               0.000002521               0.000008534               1.000000000               0.000004344               0.000012295               1.000000000              -0.000000000               0.000000001               1.000000000               0.000000000              -0.000000002               1.000000000              -0.000000001               0.000000006               1.000000000               0.000000002              -0.000000007               1.000000000               0.000000001              -0.000000013               1.000000000              -0.000000007               0.000000061               1.000000000               0.000000002              -0.000000032               1.000000000               0.000000017              -0.000000201               1.000000000               0.000000004               0.000000052               1.000000000              -0.000000045               0.000000812               1.000000000              -0.000000033               0.000002112               1.000000000               0.000000059               0.000003949               1.000000000               0.000000381               0.000006353               1.000000000               0.000001096               0.000009506               1.000000000               0.000002266               0.000013492               1.000000000               0.000003888               0.000018345               1.000000000               0.000005778               0.000023862               1.000000000              -0.000000000              -0.000000000               1.000000000               0.000000000              -0.000000002               1.000000000              -0.000000001               0.000000009               1.000000000               0.000000001              -0.000000016               1.000000000               0.000000001               0.000000000               1.000000000              -0.000000004               0.000000063               1.000000000               0.000000001              -0.000000087               1.000000000               0.000000001              -0.000000147               1.000000000               0.000000008               0.000000117               1.000000000               0.000000007               0.000000926               1.000000000              -0.000000018               0.000002356               1.000000000              -0.000000014               0.000004309               1.000000000               0.000000034               0.000006833               1.000000000               0.000000231               0.000009891               1.000000000               0.000000666               0.000013687               1.000000000               0.000001372               0.000018213               1.000000000               0.000002302               0.000023594               1.000000000               0.000000000              -0.000000002               1.000000000               0.000000000               0.000000001               1.000000000              -0.000000001               0.000000007               1.000000000               0.000000002              -0.000000021               1.000000000               0.000000000               0.000000016               1.000000000              -0.000000005               0.000000063               1.000000000               0.000000003              -0.000000133               1.000000000               0.000000007              -0.000000143               1.000000000               0.000000006               0.000000244               1.000000000              -0.000000013               0.000001093               1.000000000              -0.000000012               0.000002554               1.000000000              -0.000000001               0.000004546               1.000000000              -0.000000020               0.000007134               1.000000000              -0.000000033               0.000010232               1.000000000               0.000000016               0.000013931               1.000000000               0.000000194               0.000018225               1.000000000               0.000000531               0.000023239               1.000000000               0.000000001              -0.000000006               1.000000000              -0.000000000               0.000000006               1.000000000              -0.000000000              -0.000000001               1.000000000               0.000000001              -0.000000021               1.000000000              -0.000000000               0.000000040               1.000000000              -0.000000001               0.000000023               1.000000000               0.000000002              -0.000000131               1.000000000              -0.000000003              -0.000000114               1.000000000               0.000000008               0.000000298               1.000000000               0.000000018               0.000001254               1.000000000              -0.000000010               0.000002712               1.000000000              -0.000000015               0.000004750               1.000000000              -0.000000005               0.000007340               1.000000000              -0.000000028               0.000010462               1.000000000              -0.000000070               0.000014129               1.000000000              -0.000000099               0.000018330               1.000000000              -0.000000066               0.000023128               1.000000000               0.000000001              -0.000000008               1.000000000              -0.000000001               0.000000010               1.000000000               0.000000000              -0.000000006               1.000000000               0.000000001              -0.000000025               1.000000000              -0.000000003               0.000000065               1.000000000              -0.000000001              -0.000000005               1.000000000               0.000000004              -0.000000170               1.000000000               0.000000006              -0.000000051               1.000000000              -0.000000006               0.000000390               1.000000000              -0.000000006               0.000001373               1.000000000               0.000000010               0.000002869               1.000000000               0.000000003               0.000004903               1.000000000               0.000000004               0.000007471               1.000000000               0.000000017               0.000010590               1.000000000               0.000000013               0.000014232               1.000000000              -0.000000014               0.000018397               1.000000000              -0.000000043               0.000023090               1.000000000               0.000000001              -0.000000005               1.000000000              -0.000000001               0.000000010               1.000000000               0.000000000              -0.000000011               1.000000000               0.000000001              -0.000000015               1.000000000              -0.000000003               0.000000062               1.000000000               0.000000001              -0.000000017               1.000000000               0.000000001              -0.000000164               1.000000000              -0.000000001              -0.000000055               1.000000000               0.000000007               0.000000462               1.000000000               0.000000002               0.000001495               1.000000000              -0.000000005               0.000003002               1.000000000              -0.000000004               0.000005060               1.000000000              -0.000000009               0.000007611               1.000000000              -0.000000006               0.000010706               1.000000000               0.000000010               0.000014317               1.000000000               0.000000025               0.000018465               1.000000000               0.000000027               0.000023118               1.000000000               0.000000001              -0.000000002               1.000000000              -0.000000000               0.000000010               1.000000000              -0.000000000              -0.000000020               1.000000000               0.000000001              -0.000000003               1.000000000              -0.000000001               0.000000069               1.000000000              -0.000000002              -0.000000051               1.000000000               0.000000002              -0.000000159               1.000000000               0.000000004              -0.000000010               1.000000000              -0.000000002               0.000000507               1.000000000              -0.000000003               0.000001555               1.000000000              -0.000000000               0.000003086               1.000000000               0.000000003               0.000005159               1.000000000               0.000000005               0.000007716               1.000000000              -0.000000003               0.000010804               1.000000000              -0.000000011               0.000014382               1.000000000              -0.000000012               0.000018496               1.000000000              -0.000000006               0.000023110               1.000000000              -0.000000000              -0.000000001               1.000000000               0.000000000               0.000000010               1.000000000               0.000000000              -0.000000022               1.000000000              -0.000000001              -0.000000001               1.000000000              -0.000000001               0.000000069               1.000000000               0.000000002              -0.000000053               1.000000000              -0.000000000              -0.000000166               1.000000000              -0.000000001              -0.000000008               1.000000000               0.000000002               0.000000553               1.000000000               0.000000002               0.000001616               1.000000000              -0.000000001               0.000003144               1.000000000              -0.000000004               0.000005211               1.000000000              -0.000000003               0.000007764               1.000000000               0.000000002               0.000010853               1.000000000               0.000000005               0.000014426               1.000000000               0.000000004               0.000018523               1.000000000               0.000000001               0.000023108               1.000000000               0.000000000               0.000000000               1.000000000              -0.000000000               0.000000008               1.000000000              -0.000000000              -0.000000023               1.000000000               0.000000000               0.000000005               1.000000000               0.000000000               0.000000066               1.000000000              -0.000000000              -0.000000062               1.000000000               0.000000000              -0.000000156               1.000000000              -0.000000000               0.000000003               1.000000000              -0.000000000               0.000000554               1.000000000              -0.000000000               0.000001621               1.000000000              -0.000000000               0.000003167               1.000000000              -0.000000000               0.000005242               1.000000000               0.000000000               0.000007791               1.000000000               0.000000000               0.000010869               1.000000000               0.000000000               0.000014433               1.000000000               0.000000000               0.000018529               1.000000000              -0.000000000               0.000023110               1.000000000 </DataArray>
<DataArray type="Float64"                                    Name="defo"                                                      NumberOfComponents=" 3" format="ascii">
              0.000000000               0.000000000               1.000000000              -0.000000001               0.000000000               1.000000000              -0.000000000               0.000000000               1.000000000               0.000000002              -0.000000000               1.000000000               0.000000000              -0.000000000               1.000000000              -0.000000005               0.000000000               1.000000000               0.000000001               0.000000000               1.000000000               0.000000012               0.000000000               1.000000000              -0.000000000               0.000000000               1.000000000              -0.000000021               0.000000000               1.000000000              -0.000000014               0.000000000               1.000000000               0.000000014              -0.000000000               1.000000000               0.000000030               0.000000000               1.000000000               0.000000021               0.000000000               1.000000000               0.000000000              -0.000000000               1.000000000              -0.000000014              -0.000000000               1.000000000              -0.000000011              -0.000000000               1.000000000              -0.000000001               0.000000000               1.000000000               0.000000000               0.000000000               1.000000000               0.000000001              -0.000000000               1.000000000              -0.000000002               0.000000001               1.000000000              -0.000000001               0.000000001               1.000000000               0.000000007              -0.000000002               1.000000000               0.000000001              -0.000000002               1.000000000              -0.000000015               0.000000006               1.000000000              -0.000000005               0.000000004               1.000000000               0.000000023              -0.000000010               1.000000000               0.000000024              -0.000000012               1.000000000              -0.000000005               0.000000009               1.000000000              -0.000000032               0.000000026               1.000000000              -0.000000035               0.000000018               1.000000000              -0.000000016              -0.000000009               1.000000000               0.000000007              -0.000000037               1.000000000               0.000000015              -0.000000053               1.000000000               0.000000000              -0.000000000               1.000000000               0.000000000              -0.000000000               1.000000000              -0.000000002               0.000000001               1.000000000               0.000000001              -0.000000000               1.000000000               0.000000005              -0.000000002               1.000000000              -0.000000007               0.000000002               1.000000000              -0.000000010               0.000000004               1.000000000               0.000000019              -0.000000008               1.000000000               0.000000022              -0.000000010               1.000000000              -0.000000020               0.000000015               1.000000000              -0.000000049               0.000000028               1.000000000              -0.000000028              -0.000000004               1.000000000               0.000000021              -0.000000050               1.000000000               0.000000062              -0.000000063               1.000000000               0.000000067              -0.000000031               1.000000000               0.000000035               0.000000035               1.000000000              -0.000000007               0.000000105               1.000000000               0.000000001              -0.000000000               1.000000000              -0.000000001               0.000000000               1.000000000               0.000000001               0.000000000               1.000000000               0.000000003              -0.000000001               1.000000000              -0.000000009               0.000000001               1.000000000               0.000000002              -0.000000000               1.000000000               0.000000023              -0.000000005               1.000000000              -0.000000013               0.000000005               1.000000000              -0.000000046               0.000000015               1.000000000              -0.000000003              -0.000000009               1.000000000               0.000000062              -0.000000043               1.000000000               0.000000082              -0.000000026               1.000000000               0.000000045               0.000000043               1.000000000              -0.000000036               0.000000118               1.000000000              -0.000000118               0.000000162               1.000000000              -0.000000144               0.000000132               1.000000000              -0.000000086               0.000000015               1.000000000              -0.000000001              -0.000000000               1.000000000               0.000000001               0.000000000               1.000000000               0.000000002              -0.000000000               1.000000000              -0.000000007              -0.000000000               1.000000000               0.000000006               0.000000000               1.000000000               0.000000011              -0.000000001               1.000000000              -0.000000030               0.000000004               1.000000000              -0.000000010               0.000000001               1.000000000               0.000000056              -0.000000017               1.000000000               0.000000045              -0.000000008               1.000000000              -0.000000021               0.000000045               1.000000000              -0.000000093               0.000000082               1.000000000              -0.000000143               0.000000051               1.000000000              -0.000000125              -0.000000044               1.000000000              -0.000000009              -0.000000220               1.000000000               0.000000176              -0.000000448               1.000000000               0.000000312              -0.000000625               1.000000000              -0.000000001               0.000000000               1.000000000               0.000000001               0.000000000               1.000000000              -0.000000003              -0.000000001               1.000000000               0.000000003               0.000000000               1.000000000               0.000000005              -0.000000000               1.000000000              -0.000000022               0.000000002               1.000000000               0.000000016              -0.000000001               1.000000000               0.000000038              -0.000000011               1.000000000              -0.000000031               0.000000012               1.000000000              -0.000000062               0.000000046               1.000000000              -0.000000053               0.000000006               1.000000000              -0.000000020              -0.000000109               1.000000000               0.000000080              -0.000000230               1.000000000               0.000000240              -0.000000345               1.000000000               0.000000388              -0.000000400               1.000000000               0.000000367              -0.000000211               1.000000000              -0.000000015               0.000000495               1.000000000               0.000000001               0.000000001               1.000000000              -0.000000001              -0.000000000               1.000000000              -0.000000000              -0.000000001               1.000000000               0.000000003               0.000000001               1.000000000              -0.000000010               0.000000003               1.000000000               0.000000011              -0.000000004               1.000000000               0.000000011              -0.000000012               1.000000000              -0.000000040               0.000000029               1.000000000              -0.000000006               0.000000041               1.000000000               0.000000018              -0.000000081               1.000000000               0.000000037              -0.000000209               1.000000000               0.000000116              -0.000000182               1.000000000               0.000000195               0.000000012               1.000000000               0.000000189               0.000000386               1.000000000              -0.000000073               0.000001108               1.000000000              -0.000000758               0.000002424               1.000000000              -0.000001962               0.000004595               1.000000000               0.000000001               0.000000001               1.000000000              -0.000000001              -0.000000001               1.000000000               0.000000001              -0.000000000               1.000000000              -0.000000001               0.000000005               1.000000000               0.000000001              -0.000000009               1.000000000               0.000000003              -0.000000010               1.000000000              -0.000000013               0.000000050               1.000000000               0.000000018               0.000000008               1.000000000               0.000000009              -0.000000173               1.000000000               0.000000012              -0.000000157               1.000000000               0.000000086               0.000000235               1.000000000               0.000000101               0.000000976               1.000000000               0.000000010               0.000002030               1.000000000              -0.000000372               0.000003508               1.000000000              -0.000001188               0.000005625               1.000000000              -0.000002521               0.000008534               1.000000000              -0.000004344               0.000012295               1.000000000               0.000000000               0.000000001               1.000000000              -0.000000000              -0.000000002               1.000000000               0.000000001               0.000000006               1.000000000              -0.000000002              -0.000000007               1.000000000              -0.000000001              -0.000000013               1.000000000               0.000000007               0.000000061               1.000000000              -0.000000002              -0.000000032               1.000000000              -0.000000017              -0.000000201               1.000000000              -0.000000004               0.000000052               1.000000000               0.000000045               0.000000812               1.000000000               0.000000033               0.000002112               1.000000000              -0.000000059               0.000003949               1.000000000              -0.000000381               0.000006353               1.000000000              -0.000001096               0.000009506               1.000000000              -0.000002266               0.000013492               1.000000000              -0.000003888               0.000018345               1.000000000              -0.000005778               0.000023862               1.000000000               0.000000000              -0.000000000               1.000000000              -0.000000000              -0.000000002               1.000000000               0.000000001               0.000000009               1.000000000              -0.000000001              -0.000000016               1.000000000              -0.000000001               0.000000000               1.000000000               0.000000004               0.000000063               1.000000000              -0.000000001              -0.000000087               1.000000000              -0.000000001              -0.000000147               1.000000000              -0.000000008               0.000000117               1.000000000              -0.000000007               0.000000926               1.000000000               0.000000018               0.000002356               1.000000000               0.000000014               0.000004309               1.000000000              -0.000000034               0.000006833               1.000000000              -0.000000231               0.000009891               1.000000000              -0.000000666               0.000013687               1.000000000              -0.000001372               0.000018213               1.000000000              -0.000002302               0.000023594               1.000000000              -0.000000000              -0.000000002               1.000000000              -0.000000000               0.000000001               1.000000000               0.000000001               0.000000007               1.000000000              -0.000000002              -0.000000021               1.000000000              -0.000000000               0.000000016               1.000000000               0.000000005               0.000000063               1.000000000              -0.000000003              -0.000000133               1.000000000              -0.000000007              -0.000000143               1.000000000              -0.000000006               0.000000244               1.000000000               0.000000013               0.000001093               1.000000000               0.000000012               0.000002554               1.000000000               0.000000001               0.000004546               1.000000000               0.000000020               0.000007134               1.000000000               0.000000033               0.000010232               1.000000000              -0.000000016               0.000013931               1.000000000              -0.000000194               0.000018225               1.000000000              -0.000000531               0.000023239               1.000000000              -0.000000001              -0.000000006               1.000000000               0.000000000               0.000000006               1.000000000               0.000000000              -0.000000001               1.000000000              -0.000000001              -0.000000021               1.000000000               0.000000000               0.000000040               1.000000000               0.000000001               0.000000023               1.000000000              -0.000000002              -0.000000131               1.000000000               0.000000003              -0.000000114               1.000000000              -0.000000008               0.000000298               1.000000000              -0.000000018               0.000001254               1.000000000               0.000000010               0.000002712               1.000000000               0.000000015               0.000004750               1.000000000               0.000000005               0.000007340               1.000000000               0.000000028               0.000010462               1.000000000               0.000000070               0.000014129               1.000000000               0.000000099               0.000018330               1.000000000               0.000000066               0.000023128               1.000000000              -0.000000001              -0.000000008               1.000000000               0.000000001               0.000000010               1.000000000              -0.000000000              -0.000000006               1.000000000              -0.000000001              -0.000000025               1.000000000               0.000000003               0.000000065               1.000000000               0.000000001              -0.000000005               1.000000000              -0.000000004              -0.000000170               1.000000000              -0.000000006              -0.000000051               1.000000000               0.000000006               0.000000390               1.000000000               0.000000006               0.000001373               1.000000000              -0.000000010               0.000002869               1.000000000              -0.000000003               0.000004903               1.000000000              -0.000000004               0.000007471               1.000000000              -0.000000017               0.000010590               1.000000000              -0.000000013               0.000014232               1.000000000               0.000000014               0.000018397               1.000000000               0.000000043               0.000023090               1.000000000              -0.000000001              -0.000000005               1.000000000               0.000000001               0.000000010               1.000000000              -0.000000000              -0.000000011               1.000000000              -0.000000001              -0.000000015               1.000000000               0.000000003               0.000000062               1.000000000              -0.000000001              -0.000000017               1.000000000              -0.000000001              -0.000000164               1.000000000               0.000000001              -0.000000055               1.000000000              -0.000000007               0.000000462               1.000000000              -0.000000002               0.000001495               1.000000000               0.000000005               0.000003002               1.000000000               0.000000004               0.000005060               1.000000000               0.000000009               0.000007611               1.000000000               0.000000006               0.000010706               1.000000000              -0.000000010               0.000014317               1.000000000              -0.000000025               0.000018465               1.000000000              -0.000000027               0.000023118               1.000000000              -0.000000001              -0.000000002               1.000000000               0.000000000               0.000000010               1.000000000               0.000000000              -0.000000020               1.000000000              -0.000000001              -0.000000003               1.000000000               0.000000001               0.000000069               1.000000000               0.000000002              -0.000000051               1.000000000              -0.000000002              -0.000000159               1.000000000              -0.000000004              -0.000000010               1.000000000               0.000000002               0.000000507               1.000000000               0.000000003               0.000001555               1.000000000               0.000000000               0.000003086               1.000000000              -0.000000003               0.000005159               1.000000000              -0.000000005               0.000007716               1.000000000               0.000000003               0.000010804               1.000000000               0.000000011               0.000014382               1.000000000               0.000000012               0.000018496               1.000000000               0.000000006               0.000023110               1.000000000               0.000000000              -0.000000001               1.000000000              -0.000000000               0.000000010               1.000000000              -0.000000000              -0.000000022               1.000000000               0.000000001              -0.000000001               1.000000000               0.000000001               0.000000069               1.000000000              -0.000000002              -0.000000053               1.000000000               0.000000000              -0.000000166               1.000000000               0.000000001              -0.000000008               1.000000000              -0.000000002               0.000000553               1.000000000              -0.000000002               0.000001616               1.000000000               0.000000001               0.000003144               1.000000000               0.000000004               0.000005211               1.000000000               0.000000003               0.000007764               1.000000000              -0.000000002               0.000010853               1.000000000              -0.000000005               0.000014426               1.000000000              -0.000000004               0.000018523               1.000000000              -0.000000001               0.000023108               1.000000000               0.000000000               0.000000000               1.000000000              -0.000000000               0.000000008               1.000000000              -0.000000000              -0.000000023               1.000000000               0.000000000               0.000000005               1.000000000               0.000000000               0.000000066               1.000000000              -0.000000000              -0.000000062               1.000000000               0.000000000              -0.000000156               1.000000000              -0.000000000               0.000000003               1.000000000              -0.000000000               0.000000554               1.000000000              -0.000000000               0.000001621               1.000000000              -0.000000000               0.000003167               1.000000000              -0.000000000               0.000005242               1.000000000               0.000000000               0.000007791               1.000000000               0.000000000               0.000010869               1.000000000               0.000000000               0.000014433               1.000000000               0.000000000               0.000018529               1.000000000              -0.000000000               0.000023110               1.000000000               0.000000000               0.000000000               1.000000000              -0.000000001               0.000000000               1.000000000              -0.000000000               0.000000000               1.000000000               0.000000002              -0.000000000               1.000000000               0.000000000              -0.000000000               1.000000000              -0.000000005               0.000000000               1.000000000               0.000000001               0.000000000               1.000000000               0.000000012               0.000000000               1.000000000              -0.000000000               0.000000000               1.000000000              -0.000000021               0.000000000               1.000000000              -0.000000014               0.000000000               1.000000000               0.000000014              -0.000000000               1.000000000               0.000000030               0.000000000               1.000000000               0.000000021               0.000000000               1.000000000               0.000000000              -0.000000000               1.000000000              -0.000000014              -0.000000000               1.000000000              -0.000000011              -0.000000000               1.000000000              -0.000000001              -0.000000000               1.000000000               0.000000000              -0.000000000               1.000000000               0.000000001               0.000000000               1.000000000              -0.000000002              -0.000000001               1.000000000              -0.000000001              -0.000000001               1.000000000               0.000000007               0.000000002               1.000000000               0.000000001               0.000000002               1.000000000              -0.000000015              -0.000000006               1.000000000              -0.000000005              -0.000000004               1.000000000               0.000000023               0.000000010               1.000000000               0.000000024               0.000000012               1.000000000              -0.000000005              -0.000000009               1.000000000              -0.000000032              -0.000000026               1.000000000              -0.000000035              -0.000000018               1.000000000              -0.000000016               0.000000009               1.000000000               0.000000007               0.000000037               1.000000000               0.000000015               0.000000053               1.000000000               0.000000000               0.000000000               1.000000000               0.000000000               0.000000000               1.000000000              -0.000000002              -0.000000001               1.000000000               0.000000001               0.000000000               1.000000000               0.000000005               0.000000002               1.000000000              -0.000000007              -0.000000002               1.000000000              -0.000000010              -0.000000004               1.000000000               0.000000019               0.000000008               1.000000000               0.000000022               0.000000010               1.000000000              -0.000000020              -0.000000015               1.000000000              -0.000000049              -0.000000028               1.000000000              -0.000000028               0.000000004               1.000000000               0.000000021               0.000000050               1.000000000               0.000000062               0.000000063               1.000000000               0.000000067               0.000000031               1.000000000               0.000000035              -0.000000035               1.000000000              -0.000000007              -0.000000105               1.000000000               0.000000001               0.000000000               1.000000000              -0.000000001              -0.000000000               1.000000000               0.000000001              -0.000000000               1.000000000               0.000000003               0.000000001               1.000000000              -0.000000009              -0.000000001               1.000000000               0.000000002               0.000000000               1.000000000               0.000000023               0.000000005               1.000000000              -0.000000013              -0.000000005               1.000000000              -0.000000046              -0.000000015               1.000000000              -0.000000003               0.000000009               1.000000000               0.000000062               0.000000043               1.000000000               0.000000082               0.000000026               1.000000000               0.000000045              -0.000000043               1.000000000              -0.000000036              -0.000000118               1.000000000              -0.000000118              -0.000000162               1.000000000              -0.000000144              -0.000000132               1.000000000              -0.000000086              -0.000000015               1.000000000              -0.000000001               0.000000000               1.000000000               0.000000001              -0.000000000               1.000000000               0.000000002               0.000000000               1.000000000              -0.000000007               0.000000000               1.000000000               0.000000006              -0.000000000               1.000000000               0.000000011               0.000000001               1.000000000              -0.000000030              -0.000000004               1.000000000              -0.000000010              -0.000000001               1.000000000               0.000000056               0.000000017               1.000000000               0.000000045               0.000000008               1.000000000              -0.000000021              -0.000000045               1.000000000              -0.000000093              -0.000000082               1.000000000              -0.000000143              -0.000000051               1.000000000              -0.000000125               0.000000044               1.000000000              -0.000000009               0.000000220               1.000000000               0.000000176               0.000000448               1.000000000               0.000000312               0.000000625               1.000000000              -0.000000001              -0.000000000               1.000000000               0.000000001              -0.000000000               1.000000000              -0.000000003               0.000000001               1.000000000               0.000000003              -0.000000000               1.000000000               0.000000005               0.000000000               1.000000000              -0.000000022              -0.000000002               1.000000000               0.000000016               0.000000001               1.000000000               0.000000038               0.000000011               1.000000000              -0.000000031              -0.000000012               1.000000000              -0.000000062              -0.000000046               1.000000000              -0.000000053              -0.000000006               1.000000000              -0.000000020               0.000000109               1.000000000               0.000000080               0.000000230               1.000000000               0.000000240               0.000000345               1.000000000               0.000000388               0.000000400               1.000000000               0.000000367               0.000000211               1.000000000              -0.000000015              -0.000000495               1.000000000               0.000000001              -0.000000001               1.000000000              -0.000000001               0.000000000               1.000000000              -0.000000000               0.000000001               1.000000000               0.000000003              -0.000000001               1.000000000              -0.000000010              -0.000000003               1.000000000               0.000000011               0.000000004               1.000000000               0.000000011               0.000000012               1.000000000              -0.000000040              -0.000000029               1.000000000              -0.000000006              -0.000000041               1.000000000               0.000000018               0.000000081               1.000000000               0.000000037               0.000000209               1.000000000               0.000000116               0.000000182               1.000000000               0.000000195              -0.000000012               1.000000000               0.000000189              -0.000000386               1.000000000              -0.000000073              -0.000001108               1.000000000              -0.000000758              -0.000002424               1.000000000              -0.000001962              -0.000004595               1.000000000               0.000000001              -0.000000001               1.000000000              -0.000000001               0.000000001               1.000000000               0.000000001               0.000000000               1.000000000              -0.000000001              -0.000000005               1.000000000               0.000000001               0.000000009               1.000000000               0.000000003               0.000000010               1.000000000              -0.000000013              -0.000000050               1.000000000               0.000000018              -0.000000008               1.000000000               0.000000009               0.000000173               1.000000000               0.000000012               0.000000157               1.000000000               0.000000086              -0.000000235               1.000000000               0.000000101              -0.000000976               1.000000000               0.000000010              -0.000002030               1.000000000              -0.000000372              -0.000003508               1.000000000              -0.000001188              -0.000005625               1.000000000              -0.000002521              -0.000008534               1.000000000              -0.000004344              -0.000012295               1.000000000               0.000000000              -0.000000001               1.000000000              -0.000000000               0.000000002               1.000000000               0.000000001              -0.000000006               1.000000000              -0.000000002               0.000000007               1.000000000              -0.000000001               0.000000013               1.000000000               0.000000007              -0.000000061               1.000000000              -0.000000002               0.000000032               1.000000000              -0.000000017               0.000000201               1.000000000              -0.000000004              -0.000000052               1.000000000               0.000000045              -0.000000812               1.000000000               0.000000033              -0.000002112               1.000000000              -0.000000059              -0.000003949               1.000000000              -0.000000381              -0.000006353               1.000000000              -0.000001096              -0.000009506               1.000000000              -0.000002266              -0.000013492               1.000000000              -0.000003888              -0.000018345               1.000000000              -0.000005778              -0.000023862               1.000000000               0.000000000               0.000000000               1.000000000              -0.000000000               0.000000002               1.000000000               0.000000001              -0.000000009               1.000000000              -0.000000001               0.000000016               1.000000000              -0.000000001              -0.000000000               1.000000000               0.000000004              -0.000000063               1.000000000              -0.000000001               0.000000087               1.000000000              -0.000000001               0.000000147               1.000000000              -0.000000008              -0.000000117               1.000000000              -0.000000007              -0.000000926               1.000000000               0.000000018              -0.000002356               1.000000000               0.000000014              -0.000004309               1.000000000              -0.000000034              -0.000006833               1.000000000              -0.000000231              -0.000009891               1.000000000              -0.000000666              -0.000013687               1.000000000              -0.000001372              -0.000018213               1.000000000              -0.000002302              -0.000023594               1.000000000              -0.000000000               0.000000002               1.000000000              -0.000000000              -0.000000001               1.000000000               0.000000001              -0.000000007               1.000000000              -0.000000002               0.000000021               1.000000000              -0.000000000              -0.000000016               1.000000000               0.000000005              -0.000000063               1.000000000              -0.000000003               0.000000133               1.000000000              -0.000000007               0.000000143               1.000000000              -0.000000006              -0.000000244               1.000000000               0.000000013              -0.000001093               1.000000000               0.000000012              -0.000002554               1.000000000               0.000000001              -0.000004546               1.000000000               0.000000020              -0.000007134               1.000000000               0.000000033              -0.000010232               1.000000000              -0.000000016              -0.000013931               1.000000000              -0.000000194              -0.000018225               1.000000000              -0.000000531              -0.000023239               1.000000000              -0.000000001               0.000000006               1.000000000               0.000000000              -0.000000006               1.000000000               0.000000000               0.000000001               1.000000000              -0.000000001               0.000000021               1.000000000               0.000000000              -0.000000040               1.000000000               0.000000001              -0.000000023               1.000000000              -0.000000002               0.000000131               1.000000000               0.000000003               0.000000114               1.000000000              -0.000000008              -0.000000298               1.000000000              -0.000000018              -0.000001254               1.000000000               0.000000010              -0.000002712               1.000000000               0.000000015              -0.000004750               1.000000000               0.000000005              -0.000007340               1.000000000               0.000000028              -0.000010462               1.000000000               0.000000070              -0.000014129               1.000000000               0.000000099              -0.000018330               1.000000000               0.000000066              -0.000023128               1.000000000              -0.000000001               0.000000008               1.000000000               0.000000001              -0.000000010               1.000000000              -0.000000000               0.000000006               1.000000000              -0.000000001               0.000000025               1.000000000               0.000000003              -0.000000065               1.000000000               0.000000001               0.000000005               1.000000000              -0.000000004               0.000000170               1.000000000              -0.000000006               0.000000051               1.000000000               0.000000006              -0.000000390               1.000000000               0.000000006              -0.000001373               1.000000000              -0.000000010              -0.000002869               1.000000000              -0.000000003              -0.000004903               1.000000000              -0.000000004              -0.000007471               1.000000000              -0.000000017              -0.000010590               1.000000000              -0.000000013              -0.000014232               1.000000000               0.000000014              -0.000018397               1.000000000               0.000000043              -0.000023090               1.000000000              -0.000000001               0.000000005               1.000000000               0.000000001              -0.000000010               1.000000000              -0.000000000               0.000000011               1.000000000              -0.000000001               0.000000015               1.000000000               0.000000003              -0.000000062               1.000000000              -0.000000001               0.000000017               1.000000000              -0.000000001               0.000000164               1.000000000               0.000000001               0.000000055               1.000000000              -0.000000007              -0.000000462               1.000000000              -0.000000002              -0.000001495               1.000000000               0.000000005              -0.000003002               1.000000000               0.000000004              -0.000005060               1.000000000               0.000000009              -0.000007611               1.000000000               0.000000006              -0.000010706               1.000000000              -0.000000010              -0.000014317               1.000000000              -0.000000025              -0.000018465               1.000000000              -0.000000027              -0.000023118               1.000000000              -0.000000001               0.000000002               1.000000000               0.000000000              -0.000000010               1.000000000               0.000000000               0.000000020               1.000000000              -0.000000001               0.000000003               1.000000000               0.000000001              -0.000000069               1.000000000               0.000000002               0.000000051               1.000000000              -0.000000002               0.000000159               1.000000000              -0.000000004               0.000000010               1.000000000               0.000000002              -0.000000507               1.000000000               0.000000003              -0.000001555               1.000000000               0.000000000              -0.000003086               1.000000000              -0.000000003              -0.000005159               1.000000000              -0.000000005              -0.000007716               1.000000000               0.000000003              -0.000010804               1.000000000               0.000000011              -0.000014382               1.000000000               0.000000012              -0.000018496               1.000000000               0.000000006              -0.000023110               1.000000000               0.000000000               0.000000001               1.000000000              -0.000000000              -0.000000010               1.000000000              -0.000000000               0.000000022               1.000000000               0.000000001               0.000000001               1.000000000               0.000000001              -0.000000069               1.000000000              -0.000000002               0.000000053               1.000000000               0.000000000               0.000000166               1.000000000               0.000000001               0.000000008               1.000000000              -0.000000002              -0.000000553               1.000000000              -0.000000002              -0.000001616               1.000000000               0.000000001              -0.000003144               1.000000000               0.000000004              -0.000005211               1.000000000               0.000000003              -0.000007764               1.000000000              -0.000000002              -0.000010853               1.000000000              -0.000000005              -0.000014426               1.000000000              -0.000000004              -0.000018523               1.000000000              -0.000000001              -0.000023108               1.000000000               0.000000000              -0.000000000               1.000000000              -0.000000000              -0.000000008               1.000000000               0.000000000               0.000000023               1.000000000              -0.000000000              -0.000000005               1.000000000              -0.000000000              -0.000000066               1.000000000               0.000000000               0.000000062               1.000000000              -0.000000000               0.000000156               1.000000000              -0.000000000              -0.000000003               1.000000000               0.000000000              -0.000000554               1.000000000              -0.000000000              -0.000001621               1.000000000              -0.000000000              -0.000003167               1.000000000               0.000000000              -0.000005242               1.000000000               0.000000000              -0.000007791               1.000000000               0.000000000              -0.000010869               1.000000000               0.000000000              -0.000014433               1.000000000               0.000000000              -0.000018529               1.000000000              -0.000000000              -0.000023110               1.000000000              -0.000000000               0.000000000               1.000000000               0.000000001               0.000000000               1.000000000               0.000000000               0.000000000               1.000000000              -0.000000002              -0.000000000               1.000000000              -0.000000000               0.000000000               1.000000000               0.000000005               0.000000000               1.000000000              -0.000000001              -0.000000000               1.000000000              -0.000000012              -0.000000000               1.000000000               0.000000000              -0.000000000               1.000000000               0.000000021              -0.000000000               1.000000000               0.000000014              -0.000000000               1.000000000              -0.000000014              -0.000000000               1.000000000              -0.000000030              -0.000000000               1.000000000              -0.000000021              -0.000000000               1.000000000              -0.000000000               0.000000000               1.000000000               0.000000014               0.000000000               1.000000000               0.000000011               0.000000000               1.000000000               0.000000001              -0.000000000               1.000000000              -0.000000000              -0.000000000               1.000000000              -0.000000001               0.000000000               1.000000000               0.000000002              -0.000000001               1.000000000               0.000000001              -0.000000001               1.000000000              -0.000000007               0.000000002               1.000000000              -0.000000001               0.000000002               1.000000000               0.000000015              -0.000000006               1.000000000               0.000000005              -0.000000004               1.000000000              -0.000000023               0.000000010               1.000000000              -0.000000024               0.000000012               1.000000000               0.000000005              -0.000000009               1.000000000               0.000000032              -0.000000026               1.000000000               0.000000035              -0.000000018               1.000000000               0.000000016               0.000000009               1.000000000              -0.000000007               0.000000037               1.000000000              -0.000000015               0.000000053               1.000000000              -0.000000000               0.000000000               1.000000000              -0.000000000               0.000000000               1.000000000               0.000000002              -0.000000001               1.000000000              -0.000000001               0.000000000               1.000000000              -0.000000005               0.000000002               1.000000000               0.000000007              -0.000000002               1.000000000               0.000000010              -0.000000004               1.000000000              -0.000000019               0.000000008               1.000000000              -0.000000022               0.000000010               1.000000000               0.000000020              -0.000000015               1.000000000               0.000000049              -0.000000028               1.000000000               0.000000028               0.000000004               1.000000000              -0.000000021               0.000000050               1.000000000              -0.000000062               0.000000063               1.000000000              -0.000000067               0.000000031               1.000000000              -0.000000035              -0.000000035               1.000000000               0.000000007              -0.000000105               1.000000000              -0.000000001               0.000000000               1.000000000               0.000000001              -0.000000000               1.000000000              -0.000000001              -0.000000000               1.000000000              -0.000000003               0.000000001               1.000000000               0.000000009              -0.000000001               1.000000000              -0.000000002               0.000000000               1.000000000              -0.000000023               0.000000005               1.000000000               0.000000013              -0.000000005               1.000000000               0.000000046              -0.000000015               1.000000000               0.000000003               0.000000009               1.000000000              -0.000000062               0.000000043               1.000000000              -0.000000082               0.000000026               1.000000000              -0.000000045              -0.000000043               1.000000000               0.000000036              -0.000000118               1.000000000               0.000000118              -0.000000162               1.000000000               0.000000144              -0.000000132               1.000000000               0.000000086              -0.000000015               1.000000000               0.000000001               0.000000000               1.000000000              -0.000000001              -0.000000000               1.000000000              -0.000000002               0.000000000               1.000000000               0.000000007               0.000000000               1.000000000              -0.000000006              -0.000000000               1.000000000              -0.000000011               0.000000001               1.000000000               0.000000030              -0.000000004               1.000000000               0.000000010              -0.000000001               1.000000000              -0.000000056               0.000000017               1.000000000              -0.000000045               0.000000008               1.000000000               0.000000021              -0.000000045               1.000000000               0.000000093              -0.000000082               1.000000000               0.000000143              -0.000000051               1.000000000               0.000000125               0.000000044               1.000000000               0.000000009               0.000000220               1.000000000              -0.000000176               0.000000448               1.000000000              -0.000000312               0.000000625               1.000000000               0.000000001              -0.000000000               1.000000000              -0.000000001              -0.000000000               1.000000000               0.000000003               0.000000001               1.000000000              -0.000000003              -0.000000000               1.000000000              -0.000000005               0.000000000               1.000000000               0.000000022              -0.000000002               1.000000000              -0.000000016               0.000000001               1.000000000              -0.000000038               0.000000011               1.000000000               0.000000031              -0.000000012               1.000000000               0.000000062              -0.000000046               1.000000000               0.000000053              -0.000000006               1.000000000               0.000000020               0.000000109               1.000000000              -0.000000080               0.000000230               1.000000000              -0.000000240               0.000000345               1.000000000              -0.000000388               0.000000400               1.000000000              -0.000000367               0.000000211               1.000000000               0.000000015              -0.000000495               1.000000000              -0.000000001              -0.000000001               1.000000000               0.000000001               0.000000000               1.000000000               0.000000000               0.000000001               1.000000000              -0.000000003              -0.000000001               1.000000000               0.000000010              -0.000000003               1.000000000              -0.000000011               0.000000004               1.000000000              -0.000000011               0.000000012               1.000000000               0.000000040              -0.000000029               1.000000000               0.000000006              -0.000000041               1.000000000              -0.000000018               0.000000081               1.000000000              -0.000000037               0.000000209               1.000000000              -0.000000116               0.000000182               1.000000000              -0.000000195              -0.000000012               1.000000000              -0.000000189              -0.000000386               1.000000000               0.000000073              -0.000001108               1.000000000               0.000000758              -0.000002424               1.000000000               0.000001962              -0.000004595               1.000000000              -0.000000001              -0.000000001               1.000000000               0.000000001               0.000000001               1.000000000              -0.000000001               0.000000000               1.000000000               0.000000001              -0.000000005               1.000000000              -0.000000001               0.000000009               1.000000000              -0.000000003               0.000000010               1.000000000               0.000000013              -0.000000050               1.000000000              -0.000000018              -0.000000008               1.000000000              -0.000000009               0.000000173               1.000000000              -0.000000012               0.000000157               1.000000000              -0.000000086              -0.000000235               1.000000000              -0.000000101              -0.000000976               1.000000000              -0.000000010              -0.000002030               1.000000000               0.000000372              -0.000003508               1.000000000               0.000001188              -0.000005625               1.000000000               0.000002521              -0.000008534               1.000000000               0.000004344              -0.000012295               1.000000000              -0.000000000              -0.000000001               1.000000000               0.000000000               0.000000002               1.000000000              -0.000000001              -0.000000006               1.000000000               0.000000002               0.000000007               1.000000000               0.000000001               0.000000013               1.000000000              -0.000000007              -0.000000061               1.000000000               0.000000002               0.000000032               1.000000000               0.000000017               0.000000201               1.000000000               0.000000004              -0.000000052               1.000000000              -0.000000045              -0.000000812               1.000000000              -0.000000033              -0.000002112               1.000000000               0.000000059              -0.000003949               1.000000000               0.000000381              -0.000006353               1.000000000               0.000001096              -0.000009506               1.000000000               0.000002266              -0.000013492               1.000000000               0.000003888              -0.000018345               1.000000000               0.000005778              -0.000023862               1.000000000              -0.000000000               0.000000000               1.000000000               0.000000000               0.000000002               1.000000000              -0.000000001              -0.000000009               1.000000000               0.000000001               0.000000016               1.000000000               0.000000001              -0.000000000               1.000000000              -0.000000004              -0.000000063               1.000000000               0.000000001               0.000000087               1.000000000               0.000000001               0.000000147               1.000000000               0.000000008              -0.000000117               1.000000000               0.000000007              -0.000000926               1.000000000              -0.000000018              -0.000002356               1.000000000              -0.000000014              -0.000004309               1.000000000               0.000000034              -0.000006833               1.000000000               0.000000231              -0.000009891               1.000000000               0.000000666              -0.000013687               1.000000000               0.000001372              -0.000018213               1.000000000               0.000002302              -0.000023594               1.000000000               0.000000000               0.000000002               1.000000000               0.000000000              -0.000000001               1.000000000              -0.000000001              -0.000000007               1.000000000               0.000000002               0.000000021               1.000000000               0.000000000              -0.000000016               1.000000000              -0.000000005              -0.000000063               1.000000000               0.000000003               0.000000133               1.000000000               0.000000007               0.000000143               1.000000000               0.000000006              -0.000000244               1.000000000              -0.000000013              -0.000001093               1.000000000              -0.000000012              -0.000002554               1.000000000              -0.000000001              -0.000004546               1.000000000              -0.000000020              -0.000007134               1.000000000              -0.000000033              -0.000010232               1.000000000               0.000000016              -0.000013931               1.000000000               0.000000194              -0.000018225               1.000000000               0.000000531              -0.000023239               1.000000000               0.000000001               0.000000006               1.000000000              -0.000000000              -0.000000006               1.000000000              -0.000000000               0.000000001               1.000000000               0.000000001               0.000000021               1.000000000              -0.000000000              -0.000000040               1.000000000              -0.000000001              -0.000000023               1.000000000               0.000000002               0.000000131               1.000000000              -0.000000003               0.000000114               1.000000000               0.000000008              -0.000000298               1.000000000               0.000000018              -0.000001254               1.000000000              -0.000000010              -0.000002712               1.000000000              -0.000000015              -0.000004750               1.000000000              -0.000000005              -0.000007340               1.000000000              -0.000000028              -0.000010462               1.000000000              -0.000000070              -0.000014129               1.000000000              -0.000000099              -0.000018330               1.000000000              -0.000000066              -0.000023128               1.000000000               0.000000001               0.000000008               1.000000000              -0.000000001              -0.000000010               1.000000000               0.000000000               0.000000006               1.000000000               0.000000001               0.000000025               1.000000000              -0.000000003              -0.000000065               1.000000000              -0.000000001               0.000000005               1.000000000               0.000000004               0.000000170               1.000000000               0.000000006               0.000000051               1.000000000              -0.000000006              -0.000000390               1.000000000              -0.000000006              -0.000001373               1.000000000               0.000000010              -0.000002869               1.000000000               0.000000003              -0.000004903               1.000000000               0.000000004              -0.000007471               1.000000000               0.000000017              -0.000010590               1.000000000               0.000000013              -0.000014232               1.000000000              -0.000000014              -0.000018397               1.000000000              -0.000000043              -0.000023090               1.000000000               0.000000001               0.000000005               1.000000000              -0.000000001              -0.000000010               1.000000000               0.000000000               0.000000011               1.000000000               0.000000001               0.000000015               1.000000000              -0.000000003              -0.000000062               1.000000000               0.000000001               0.000000017               1.000000000               0.000000001               0.000000164               1.000000000              -0.000000001               0.000000055               1.000000000               0.000000007              -0.000000462               1.000000000               0.000000002              -0.000001495               1.000000000              -0.000000005              -0.000003002               1.000000000              -0.000000004              -0.000005060               1.000000000              -0.000000009              -0.000007611               1.000000000              -0.000000006              -0.000010706               1.000000000               0.000000010              -0.000014317               1.000000000               0.000000025              -0.000018465               1.000000000               0.000000027              -0.000023118               1.000000000               0.000000001               0.000000002               1.000000000              -0.000000000              -0.000000010               1.000000000              -0.000000000               0.000000020               1.000000000               0.000000001               0.000000003               1.000000000              -0.000000001              -0.000000069               1.000000000              -0.000000002               0.000000051               1.000000000               0.000000002               0.000000159               1.000000000               0.000000004               0.000000010               1.000000000              -0.000000002              -0.000000507               1.000000000              -0.000000003              -0.000001555               1.000000000              -0.000000000              -0.000003086               1.000000000               0.000000003              -0.000005159               1.000000000               0.000000005              -0.000007716               1.000000000              -0.000000003              -0.000010804               1.000000000              -0.000000011              -0.000014382               1.000000000              -0.000000012              -0.000018496               1.000000000              -0.000000006              -0.000023110               1.000000000              -0.000000000               0.000000001               1.000000000               0.000000000              -0.000000010               1.000000000               0.000000000               0.000000022               1.000000000              -0.000000001               0.000000001               1.000000000              -0.000000001              -0.000000069               1.000000000               0.000000002               0.000000053               1.000000000              -0.000000000               0.000000166               1.000000000              -0.000000001               0.000000008               1.000000000               0.000000002              -0.000000553               1.000000000               0.000000002              -0.000001616               1.000000000              -0.000000001              -0.000003144               1.000000000              -0.000000004              -0.000005211               1.000000000              -0.000000003              -0.000007764               1.000000000               0.000000002              -0.000010853               1.000000000               0.000000005              -0.000014426               1.000000000               0.000000004              -0.000018523               1.000000000               0.000000001              -0.000023108               1.000000000               0.000000000              -0.000000000               1.000000000              -0.000000000              -0.000000008               1.000000000               0.000000000               0.000000023               1.000000000              -0.000000000              -0.000000005               1.000000000              -0.000000000              -0.000000066               1.000000000               0.000000000               0.000000062               1.000000000              -0.000000000               0.000000156               1.000000000              -0.000000000              -0.000000003               1.000000000               0.000000000              -0.000000554               1.000000000              -0.000000000              -0.000001621               1.000000000              -0.000000000              -0.000003167               1.000000000               0.000000000              -0.000005242               1.000000000               0.000000000              -0.000007791               1.000000000               0.000000000              -0.000010869               1.000000000               0.000000000              -0.000014433               1.000000000               0.000000000              -0.000018529               1.000000000              -0.000000000              -0.000023110               1.000000000              -0.000000000               0.000000000               1.000000000               0.000000001               0.000000000               1.000000000               0.000000000               0.000000000               1.000000000              -0.000000002              -0.000000000               1.000000000              -0.000000000               0.000000000               1.000000000               0.000000005               0.000000000               1.000000000              -0.000000001              -0.000000000               1.000000000              -0.000000012              -0.000000000               1.000000000               0.000000000              -0.000000000               1.000000000               0.000000021              -0.000000000               1.000000000               0.000000014              -0.000000000               1.000000000              -0.000000014              -0.000000000               1.000000000              -0.000000030              -0.000000000               1.000000000              -0.000000021              -0.000000000               1.000000000              -0.000000000               0.000000000               1.000000000               0.000000014               0.000000000               1.000000000               0.000000011               0.000000000               1.000000000               0.000000001               0.000000000               1.000000000              -0.000000000               0.000000000               1.000000000              -0.000000001              -0.000000000               1.000000000               0.000000002               0.000000001               1.000000000               0.000000001               0.000000001               1.000000000              -0.000000007              -0.000000002               1.000000000              -0.000000001              -0.000000002               1.000000000               0.000000015               0.000000006               1.000000000               0.000000005               0.000000004               1.000000000              -0.000000023              -0.000000010               1.000000000              -0.000000024              -0.000000012               1.000000000               0.000000005               0.000000009               1.000000000               0.000000032               0.000000026               1.000000000               0.000000035               0.000000018               1.000000000               0.000000016              -0.000000009               1.000000000              -0.000000007              -0.000000037               1.000000000              -0.000000015              -0.000000053               1.000000000              -0.000000000              -0.000000000               1.000000000              -0.000000000              -0.000000000               1.000000000               0.000000002               0.000000001               1.000000000              -0.000000001              -0.000000000               1.000000000              -0.000000005              -0.000000002               1.000000000               0.000000007               0.000000002               1.000000000               0.000000010               0.000000004               1.000000000              -0.000000019              -0.000000008               1.000000000              -0.000000022              -0.000000010               1.000000000               0.000000020               0.000000015               1.000000000               0.000000049               0.000000028               1.000000000               0.000000028              -0.000000004               1.000000000              -0.000000021              -0.000000050               1.000000000              -0.000000062              -0.000000063               1.000000000              -0.000000067              -0.000000031               1.000000000              -0.000000035               0.000000035               1.000000000               0.000000007               0.000000105               1.000000000              -0.000000001              -0.000000000               1.000000000               0.000000001               0.000000000               1.000000000              -0.000000001               0.000000000               1.000000000              -0.000000003              -0.000000001               1.000000000               0.000000009               0.000000001               1.000000000              -0.000000002              -0.000000000               1.000000000              -0.000000023              -0.000000005               1.000000000               0.000000013               0.000000005               1.000000000               0.000000046               0.000000015               1.000000000               0.000000003              -0.000000009               1.000000000              -0.000000062              -0.000000043               1.000000000              -0.000000082              -0.000000026               1.000000000              -0.000000045               0.000000043               1.000000000               0.000000036               0.000000118               1.000000000               0.000000118               0.000000162               1.000000000               0.000000144               0.000000132               1.000000000               0.000000086               0.000000015               1.000000000               0.000000001              -0.000000000               1.000000000              -0.000000001               0.000000000               1.000000000              -0.000000002              -0.000000000               1.000000000               0.000000007              -0.000000000               1.000000000              -0.000000006               0.000000000               1.000000000              -0.000000011              -0.000000001               1.000000000               0.000000030               0.000000004               1.000000000               0.000000010               0.000000001               1.000000000              -0.000000056              -0.000000017               1.000000000              -0.000000045              -0.000000008               1.000000000               0.000000021               0.000000045               1.000000000               0.000000093               0.000000082               1.000000000               0.000000143               0.000000051               1.000000000               0.000000125              -0.000000044               1.000000000               0.000000009              -0.000000220               1.000000000              -0.000000176              -0.000000448               1.000000000              -0.000000312              -0.000000625               1.000000000               0.000000001               0.000000000               1.000000000              -0.000000001               0.000000000               1.000000000               0.000000003              -0.000000001               1.000000000              -0.000000003               0.000000000               1.000000000              -0.000000005              -0.000000000               1.000000000               0.000000022               0.000000002               1.000000000              -0.000000016              -0.000000001               1.000000000              -0.000000038              -0.000000011               1.000000000               0.000000031               0.000000012               1.000000000               0.000000062               0.000000046               1.000000000               0.000000053               0.000000006               1.000000000               0.000000020              -0.000000109               1.000000000              -0.000000080              -0.000000230               1.000000000              -0.000000240              -0.000000345               1.000000000              -0.000000388              -0.000000400               1.000000000              -0.000000367              -0.000000211               1.000000000               0.000000015               0.000000495               1.000000000              -0.000000001               0.000000001               1.000000000               0.000000001              -0.000000000               1.000000000               0.000000000              -0.000000001               1.000000000              -0.000000003               0.000000001               1.000000000               0.000000010               0.000000003               1.000000000              -0.000000011              -0.000000004               1.000000000              -0.000000011              -0.000000012               1.000000000               0.000000040               0.000000029               1.000000000               0.000000006               0.000000041               1.000000000              -0.000000018              -0.000000081               1.000000000              -0.000000037              -0.000000209               1.000000000              -0.000000116              -0.000000182               1.000000000              -0.000000195               0.000000012               1.000000000              -0.000000189               0.000000386               1.000000000               0.000000073               0.000001108               1.000000000               0.000000758               0.000002424               1.000000000               0.000001962               0.000004595               1.000000000              -0.000000001               0.000000001               1.000000000               0.000000001              -0.000000001               1.000000000              -0.000000001              -0.000000000               1.000000000               0.000000001               0.000000005               1.000000000              -0.000000001              -0.000000009               1.000000000              -0.000000003              -0.000000010               1.000000000               0.000000013               0.000000050               1.000000000              -0.000000018               0.000000008               1.000000000              -0.000000009              -0.000000173               1.000000000              -0.000000012              -0.000000157               1.000000000              -0.000000086               0.000000235               1.000000000              -0.000000101               0.000000976               1.000000000              -0.000000010               0.000002030               1.000000000               0.000000372               0.000003508               1.000000000               0.000001188               0.000005625               1.000000000               0.000002521               0.000008534               1.000000000               0.000004344               0.000012295               1.000000000              -0.000000000               0.000000001               1.000000000               0.000000000              -0.000000002               1.000000000              -0.000000001               0.000000006               1.000000000               0.000000002              -0.000000007               1.000000000               0.000000001              -0.000000013               1.000000000              -0.000000007               0.000000061               1.000000000               0.000000002              -0.000000032               1.000000000               0.000000017              -0.000000201               1.000000000               0.000000004               0.000000052               1.000000000              -0.000000045               0.000000812               1.000000000              -0.000000033               0.000002112               1.000000000               0.000000059               0.000003949               1.000000000               0.000000381               0.000006353               1.000000000               0.000001096               0.000009506               1.000000000               0.000002266               0.000013492               1.000000000               0.000003888               0.000018345               1.000000000               0.000005778               0.000023862               1.000000000              -0.000000000              -0.000000000               1.000000000               0.000000000              -0.000000002               1.000000000              -0.000000001               0.000000009               1.000000000               0.000000001              -0.000000016               1.000000000               0.000000001               0.000000000               1.000000000              -0.000000004               0.000000063               1.000000000               0.000000001              -0.000000087               1.000000000               0.000000001              -0.000000147               1.000000000               0.000000008               0.000000117               1.000000000               0.000000007               0.000000926               1.000000000              -0.000000018               0.000002356               1.000000000              -0.000000014               0.000004309               1.000000000               0.000000034               0.000006833               1.000000000               0.000000231               0.000009891               1.000000000               0.000000666               0.000013687               1.000000000               0.000001372               0.000018213               1.000000000               0.000002302               0.000023594               1.000000000               0.000000000              -0.000000002               1.000000000               0.000000000               0.000000001               1.000000000              -0.000000001               0.000000007               1.000000000               0.000000002              -0.000000021               1.000000000               0.000000000               0.000000016               1.000000000              -0.000000005               0.000000063               1.000000000               0.000000003              -0.000000133               1.000000000               0.000000007              -0.000000143               1.000000000               0.000000006               0.000000244               1.000000000              -0.000000013               0.000001093               1.000000000              -0.000000012               0.000002554               1.000000000              -0.000000001               0.000004546               1.000000000              -0.000000020               0.000007134               1.000000000              -0.000000033               0.000010232               1.000000000               0.000000016               0.000013931               1.000000000               0.000000194               0.000018225               1.000000000               0.000000531               0.000023239               1.000000000               0.000000001              -0.000000006               1.000000000              -0.000000000               0.000000006               1.000000000              -0.000000000              -0.000000001               1.000000000               0.000000001              -0.000000021               1.000000000              -0.000000000               0.000000040               1.000000000              -0.000000001               0.000000023               1.000000000               0.000000002              -0.000000131               1.000000000              -0.000000003              -0.000000114               1.000000000               0.000000008               0.000000298               1.000000000               0.000000018               0.000001254               1.000000000              -0.000000010               0.000002712               1.000000000              -0.000000015               0.000004750               1.000000000              -0.000000005               0.000007340               1.000000000              -0.000000028               0.000010462               1.000000000              -0.000000070               0.000014129               1.000000000              -0.000000099               0.000018330               1.000000000              -0.000000066               0.000023128               1.000000000               0.000000001              -0.000000008               1.000000000              -0.000000001               0.000000010               1.000000000               0.000000000              -0.000000006               1.000000000               0.000000001              -0.000000025               1.000000000              -0.000000003               0.000000065               1.000000000              -0.000000001              -0.000000005               1.000000000               0.000000004              -0.000000170               1.000000000               0.000000006              -0.000000051               1.000000000              -0.000000006               0.000000390               1.000000000              -0.000000006               0.000001373               1.000000000               0.000000010               0.000002869               1.000000000               0.000000003               0.000004903               1.000000000               0.000000004               0.000007471               1.000000000               0.000000017               0.000010590               1.000000000               0.000000013               0.000014232               1.000000000              -0.000000014               0.000018397               1.000000000              -0.000000043               0.000023090               1.000000000               0.000000001              -0.000000005               1.000000000              -0.000000001               0.000000010               1.000000000               0.000000000              -0.000000011               1.000000000               0.000000001              -0.000000015               1.000000000              -0.000000003               0.000000062               1.000000000               0.000000001              -0.000000017               1.000000000               0.000000001              -0.000000164               1.000000000              -0.000000001              -0.000000055               1.000000000               0.000000007               0.000000462               1.000000000               0.000000002               0.000001495               1.000000000              -0.000000005               0.000003002               1.000000000              -0.000000004               0.000005060               1.000000000              -0.000000009               0.000007611               1.000000000              -0.000000006               0.000010706               1.000000000               0.000000010               0.000014317               1.000000000               0.000000025               0.000018465               1.000000000               0.000000027               0.000023118               1.000000000               0.000000001              -0.000000002               1.000000000              -0.000000000               0.000000010               1.000000000              -0.000000000              -0.000000020               1.000000000               0.000000001              -0.000000003               1.000000000              -0.000000001               0.000000069               1.000000000              -0.000000002              -0.000000051               1.000000000               0.000000002              -0.000000159               1.000000000               0.000000004              -0.000000010               1.000000000              -0.000000002               0.000000507               1.000000000              -0.000000003               0.000001555               1.000000000              -0.000000000               0.000003086               1.000000000               0.000000003               0.000005159               1.000000000               0.000000005               0.000007716               1.000000000              -0.000000003               0.000010804               1.000000000              -0.000000011               0.000014382               1.000000000              -0.000000012               0.000018496               1.000000000              -0.000000006               0.000023110               1.000000000              -0.000000000              -0.000000001               1.000000000               0.000000000               0.000000010               1.000000000               0.000000000              -0.000000022               1.000000000              -0.000000001              -0.000000001               1.000000000              -0.000000001               0.000000069               1.000000000               0.000000002              -0.000000053               1.000000000              -0.000000000              -0.000000166               1.000000000              -0.000000001              -0.000000008               1.000000000               0.000000002               0.000000553               1.000000000               0.000000002               0.000001616               1.000000000              -0.000000001               0.000003144               1.000000000              -0.000000004               0.000005211               1.000000000              -0.000000003               0.000007764               1.000000000               0.000000002               0.000010853               1.000000000               0.000000005               0.000014426               1.000000000               0.000000004               0.000018523               1.000000000               0.000000001               0.000023108               1.000000000               0.000000000               0.000000000               1.000000000              -0.000000000               0.000000008               1.000000000              -0.000000000              -0.000000023               1.000000000               0.000000000               0.000000005               1.000000000               0.000000000               0.000000066               1.000000000              -0.000000000              -0.000000062               1.000000000               0.000000000              -0.000000156               1.000000000              -0.000000000               0.000000003               1.000000000              -0.000000000               0.000000554               1.000000000              -0.000000000               0.000001621               1.000000000              -0.000000000               0.000003167               1.000000000              -0.000000000               0.000005242               1.000000000               0.000000000               0.000007791               1.000000000               0.000000000               0.000010869               1.000000000               0.000000000               0.000014433               1.000000000               0.000000000               0.000018529               1.000000000              -0.000000000               0.000023110               1.000000000 </DataArray>
<DataArray type="Float64"                                    Name="stress"                                                      NumberOfComponents="10" format="ascii">
             -0.000000031               0.000000011               0.000000000              -0.000000013               0.000000008              -0.000000005               0.000000000               0.000000000               0.000000000               0.000000000              -0.000000006              -0.000000006              -0.000000000              -0.000000001              -0.000000002              -0.000000003               0.000000000               0.000000000               0.000000000               0.000000000               0.000000054              -0.000000010              -0.000000000               0.000000022              -0.000000011               0.000000011               0.000000000               0.000000000               0.000000000               0.000000000              -0.000000000               0.000000054              -0.000000000              -0.000000007               0.000000020               0.000000014               0.000000000               0.000000000               0.000000000               0.000000000              -0.000000132              -0.000000003              -0.000000000              -0.000000049               0.000000015              -0.000000034               0.000000000               0.000000000               0.000000000               0.000000000               0.000000029              -0.000000142              -0.000000000               0.000000029              -0.000000057              -0.000000028               0.000000000               0.000000000               0.000000000               0.000000000               0.000000289               0.000000050              -0.000000000               0.000000102              -0.000000017               0.000000085               0.000000000               0.000000000               0.000000000               0.000000000              -0.000000024               0.000000319              -0.000000000              -0.000000049               0.000000122               0.000000074               0.000000000               0.000000000               0.000000000               0.000000000              -0.000000560              -0.000000056               0.000000000              -0.000000203               0.000000049              -0.000000154               0.000000000               0.000000000               0.000000000               0.000000000              -0.000000262              -0.000000634               0.000000000              -0.000000019              -0.000000205              -0.000000224               0.000000000               0.000000000               0.000000000               0.000000000               0.000000634              -0.000000290              -0.000000000               0.000000274              -0.000000188               0.000000086               0.000000000               0.000000000               0.000000000               0.000000000               0.000000888               0.000000762              -0.000000000               0.000000238               0.000000175               0.000000413               0.000000000               0.000000000               0.000000000               0.000000000               0.000000225               0.000001216               0.000000000              -0.000000068               0.000000428               0.000000360               0.000000000               0.000000000               0.000000000               0.000000000              -0.000000533               0.000000549               0.000000000              -0.000000269               0.000000273               0.000000004               0.000000000               0.000000000               0.000000000               0.000000000              -0.000000739              -0.000000682               0.000000000              -0.000000192              -0.000000163              -0.000000355               0.000000000               0.000000000               0.000000000               0.000000000              -0.000000447              -0.000001717               0.000000000               0.000000047              -0.000000588              -0.000000541               0.000000000               0.000000000               0.000000000               0.000000000              -0.000000236              -0.000002145               0.000000000               0.000000180              -0.000000775              -0.000000595               0.000000000               0.000000000               0.000000000               0.000000000               0.000000045               0.000000003               0.000000012               0.000000016              -0.000000004               0.000000012               0.000000000               0.000000000               0.000000000               0.000000000               0.000000024              -0.000000002               0.000000007               0.000000009              -0.000000004               0.000000006               0.000000000               0.000000000               0.000000000               0.000000000              -0.000000051               0.000000004              -0.000000022              -0.000000020               0.000000008              -0.000000012               0.000000000               0.000000000               0.000000000               0.000000000              -0.000000033              -0.000000029               0.000000010              -0.000000009              -0.000000007              -0.000000016               0.000000000               0.000000000               0.000000000               0.000000000               0.000000156               0.000000002               0.000000033               0.000000058              -0.000000019               0.000000039               0.000000000               0.000000000               0.000000000               0.000000000               0.000000043               0.000000106              -0.000000065               0.000000003               0.000000034               0.000000037               0.000000000               0.000000000               0.000000000               0.000000000              -0.000000371              -0.000000038              -0.000000033              -0.000000134               0.000000032              -0.000000102               0.000000000               0.000000000               0.000000000               0.000000000              -0.000000144              -0.000000285               0.000000146              -0.000000018              -0.000000089              -0.000000107               0.000000000               0.000000000               0.000000000               0.000000000               0.000000651               0.000000015               0.000000079               0.000000242              -0.000000076               0.000000166               0.000000000               0.000000000               0.000000000               0.000000000               0.000000621               0.000000622              -0.000000150               0.000000155               0.000000156               0.000000311               0.000000000               0.000000000               0.000000000               0.000000000              -0.000000421               0.000000484              -0.000000182              -0.000000219               0.000000234               0.000000016               0.000000000               0.000000000               0.000000000               0.000000000              -0.000001130              -0.000000555              -0.000000095              -0.000000354              -0.000000067              -0.000000421               0.000000000               0.000000000               0.000000000               0.000000000              -0.000000783              -0.000001443              -0.000000048              -0.000000113              -0.000000443              -0.000000556               0.000000000               0.000000000               0.000000000               0.000000000               0.000000064              -0.000001370               0.000000021               0.000000195              -0.000000522              -0.000000327               0.000000000               0.000000000               0.000000000               0.000000000               0.000000601              -0.000000401               0.000000129               0.000000276              -0.000000225               0.000000050               0.000000000               0.000000000               0.000000000               0.000000000               0.000000519               0.000000974               0.000000156               0.000000073               0.000000300               0.000000373               0.000000000               0.000000000               0.000000000               0.000000000               0.000000439               0.000001925               0.000000046              -0.000000076               0.000000667               0.000000591               0.000000000               0.000000000               0.000000000               0.000000000              -0.000000038              -0.000000034               0.000000003              -0.000000010              -0.000000008              -0.000000018               0.000000000               0.000000000               0.000000000               0.000000000              -0.000000054              -0.000000008              -0.000000023              -0.000000019               0.000000004              -0.000000015               0.000000000               0.000000000               0.000000000               0.000000000               0.000000024               0.000000022               0.000000023               0.000000006               0.000000005               0.000000012               0.000000000               0.000000000               0.000000000               0.000000000               0.000000125               0.000000003               0.000000027               0.000000047              -0.000000015               0.000000032               0.000000000               0.000000000               0.000000000               0.000000000              -0.000000165              -0.000000030              -0.000000083              -0.000000058               0.000000009              -0.000000049               0.000000000               0.000000000               0.000000000               0.000000000              -0.000000280              -0.000000050               0.000000042              -0.000000099               0.000000016              -0.000000083               0.000000000               0.000000000               0.000000000               0.000000000               0.000000479               0.000000049               0.000000148               0.000000174              -0.000000042               0.000000132               0.000000000               0.000000000               0.000000000               0.000000000               0.000000678               0.000000238              -0.000000152               0.000000225               0.000000004               0.000000229               0.000000000               0.000000000               0.000000000               0.000000000              -0.000000637               0.000000076              -0.000000249              -0.000000248               0.000000108              -0.000000140               0.000000000               0.000000000               0.000000000               0.000000000              -0.000001515              -0.000000558               0.000000079              -0.000000498              -0.000000020              -0.000000518               0.000000000               0.000000000               0.000000000               0.000000000              -0.000000536              -0.000000992               0.000000256              -0.000000077              -0.000000305              -0.000000382               0.000000000               0.000000000               0.000000000               0.000000000               0.000001149              -0.000000372               0.000000235               0.000000477              -0.000000283               0.000000194               0.000000000               0.000000000               0.000000000               0.000000000               0.000001994               0.000001268               0.000000250               0.000000589               0.000000226               0.000000816               0.000000000               0.000000000               0.000000000               0.000000000               0.000001576               0.000003020               0.000000185               0.000000214               0.000000935               0.000001149               0.000000000               0.000000000               0.000000000               0.000000000               0.000000511               0.000003962              -0.000000027              -0.000000303               0.000001422               0.000001118               0.000000000               0.000000000               0.000000000               0.000000000              -0.000000124               0.000003391              -0.000000213              -0.000000470               0.000001287               0.000000817               0.000000000               0.000000000               0.000000000               0.000000000              -0.000000556               0.000002015              -0.000000050              -0.000000461               0.000000825               0.000000365               0.000000000               0.000000000               0.000000000               0.000000000              -0.000000076              -0.000000009              -0.000000034              -0.000000028               0.000000006              -0.000000021               0.000000000               0.000000000               0.000000000               0.000000000               0.000000026               0.000000038               0.000000019               0.000000005               0.000000011               0.000000016               0.000000000               0.000000000               0.000000000               0.000000000               0.000000058              -0.000000014               0.000000029               0.000000023              -0.000000012               0.000000011               0.000000000               0.000000000               0.000000000               0.000000000              -0.000000201              -0.000000049              -0.000000095              -0.000000069               0.000000007              -0.000000063               0.000000000               0.000000000               0.000000000               0.000000000               0.000000012               0.000000051               0.000000058              -0.000000002               0.000000018               0.000000016               0.000000000               0.000000000               0.000000000               0.000000000               0.000000599               0.000000092               0.000000133               0.000000213              -0.000000041               0.000000173               0.000000000               0.000000000               0.000000000               0.000000000              -0.000000247              -0.000000052              -0.000000221              -0.000000086               0.000000011              -0.000000075               0.000000000               0.000000000               0.000000000               0.000000000              -0.000001373              -0.000000262              -0.000000122              -0.000000482               0.000000073              -0.000000409               0.000000000               0.000000000               0.000000000               0.000000000              -0.000000102              -0.000000296               0.000000302              -0.000000001              -0.000000098              -0.000000099               0.000000000               0.000000000               0.000000000               0.000000000               0.000002008               0.000000196               0.000000272               0.000000728              -0.000000177               0.000000551               0.000000000               0.000000000               0.000000000               0.000000000               0.000002278               0.000001427               0.000000072               0.000000676               0.000000250               0.000000926               0.000000000               0.000000000               0.000000000               0.000000000               0.000000736               0.000002483              -0.000000115              -0.000000035               0.000000839               0.000000805               0.000000000               0.000000000               0.000000000               0.000000000              -0.000001526               0.000001795              -0.000000440              -0.000000797               0.000000864               0.000000067               0.000000000               0.000000000               0.000000000               0.000000000              -0.000003180              -0.000001119              -0.000000630              -0.000001053              -0.000000022              -0.000001075               0.000000000               0.000000000               0.000000000               0.000000000              -0.000003161              -0.000005923              -0.000000492              -0.000000445              -0.000001826              -0.000002271               0.000000000               0.000000000               0.000000000               0.000000000              -0.000001863              -0.000011360              -0.000000099               0.000000721              -0.000004027              -0.000003306               0.000000000               0.000000000               0.000000000               0.000000000              -0.000001383              -0.000014572               0.000000339               0.000001303              -0.000005292              -0.000003989               0.000000000               0.000000000               0.000000000               0.000000000               0.000000130               0.000000081               0.000000031               0.000000039               0.000000014               0.000000053               0.000000000               0.000000000               0.000000000               0.000000000               0.000000057               0.000000014               0.000000027               0.000000020              -0.000000002               0.000000018               0.000000000               0.000000000               0.000000000               0.000000000              -0.000000138              -0.000000067              -0.000000080              -0.000000043              -0.000000008              -0.000000051               0.000000000               0.000000000               0.000000000               0.000000000               0.000000104               0.000000055               0.000000061               0.000000032               0.000000008               0.000000040               0.000000000               0.000000000               0.000000000               0.000000000               0.000000302               0.000000065               0.000000121               0.000000105              -0.000000013               0.000000092               0.000000000               0.000000000               0.000000000               0.000000000              -0.000000607              -0.000000119              -0.000000285              -0.000000213               0.000000031              -0.000000182               0.000000000               0.000000000               0.000000000               0.000000000              -0.000000485              -0.000000136              -0.000000017              -0.000000165               0.000000010              -0.000000155               0.000000000               0.000000000               0.000000000               0.000000000               0.000001372               0.000000038               0.000000473               0.000000510              -0.000000157               0.000000353               0.000000000               0.000000000               0.000000000               0.000000000               0.000001440               0.000000649               0.000000119               0.000000459               0.000000063               0.000000522               0.000000000               0.000000000               0.000000000               0.000000000              -0.000000507               0.000001337              -0.000000384              -0.000000357               0.000000565               0.000000208               0.000000000               0.000000000               0.000000000               0.000000000              -0.000002349               0.000000100              -0.000000692              -0.000000893               0.000000331              -0.000000562               0.000000000               0.000000000               0.000000000               0.000000000              -0.000003857              -0.000003965              -0.000000688              -0.000000951              -0.000001005              -0.000001956               0.000000000               0.000000000               0.000000000               0.000000000              -0.000003918              -0.000008691              -0.000000005              -0.000000383              -0.000002769              -0.000003152               0.000000000               0.000000000               0.000000000               0.000000000              -0.000001579              -0.000011886               0.000000883               0.000000894              -0.000004260              -0.000003366               0.000000000               0.000000000               0.000000000               0.000000000               0.000001524              -0.000011627               0.000001314               0.000002025              -0.000004551              -0.000002526               0.000000000               0.000000000               0.000000000               0.000000000               0.000001888              -0.000004767               0.000001394               0.000001304              -0.000002024              -0.000000720               0.000000000               0.000000000               0.000000000               0.000000000               0.000004165               0.000005985              -0.000000483               0.000000814               0.000001724               0.000002538               0.000000000               0.000000000               0.000000000               0.000000000               0.000000076               0.000000049               0.000000037               0.000000022               0.000000009               0.000000031               0.000000000               0.000000000               0.000000000               0.000000000              -0.000000053              -0.000000057              -0.000000034              -0.000000013              -0.000000015              -0.000000028               0.000000000               0.000000000               0.000000000               0.000000000               0.000000044               0.000000005               0.000000017               0.000000016              -0.000000004               0.000000012               0.000000000               0.000000000               0.000000000               0.000000000               0.000000140               0.000000101               0.000000092               0.000000040               0.000000021               0.000000060               0.000000000               0.000000000               0.000000000               0.000000000              -0.000000371              -0.000000066              -0.000000228              -0.000000131               0.000000022              -0.000000109               0.000000000               0.000000000               0.000000000               0.000000000               0.000000029              -0.000000201               0.000000089               0.000000036              -0.000000079              -0.000000043               0.000000000               0.000000000               0.000000000               0.000000000               0.000000918               0.000000029               0.000000414               0.000000341              -0.000000104               0.000000237               0.000000000               0.000000000               0.000000000               0.000000000              -0.000000057               0.000001013              -0.000000338              -0.000000148               0.000000387               0.000000239               0.000000000               0.000000000               0.000000000               0.000000000              -0.000001275               0.000000704              -0.000000614              -0.000000566               0.000000423              -0.000000143               0.000000000               0.000000000               0.000000000               0.000000000              -0.000002052              -0.000003437              -0.000000260              -0.000000340              -0.000001032              -0.000001372               0.000000000               0.000000000               0.000000000               0.000000000              -0.000003011              -0.000008013               0.000000360              -0.000000128              -0.000002629              -0.000002756               0.000000000               0.000000000               0.000000000               0.000000000              -0.000000875              -0.000006790               0.000001275               0.000000521              -0.000002437              -0.000001916               0.000000000               0.000000000               0.000000000               0.000000000               0.000005257               0.000001739               0.000001239               0.000001754              -0.000000005               0.000001749               0.000000000               0.000000000               0.000000000               0.000000000               0.000011906               0.000016597              -0.000000509               0.000002390               0.000004736               0.000007126               0.000000000               0.000000000               0.000000000               0.000000000               0.000014769               0.000039204              -0.000002689               0.000000638               0.000012855               0.000013493               0.000000000               0.000000000               0.000000000               0.000000000               0.000010117               0.000071308              -0.000002688              -0.000005120               0.000025476               0.000020356               0.000000000               0.000000000               0.000000000               0.000000000               0.000012833               0.000100973              -0.000005974              -0.000007809               0.000036260               0.000028451               0.000000000               0.000000000               0.000000000               0.000000000              -0.000000079              -0.000000060              -0.000000037              -0.000000022              -0.000000013              -0.000000035               0.000000000               0.000000000               0.000000000               0.000000000              -0.000000047              -0.000000079              -0.000000019              -0.000000008              -0.000000024              -0.000000032               0.000000000               0.000000000               0.000000000               0.000000000               0.000000097               0.000000111               0.000000064               0.000000022               0.000000030               0.000000052               0.000000000               0.000000000               0.000000000               0.000000000              -0.000000109               0.000000068              -0.000000098              -0.000000049               0.000000039              -0.000000010               0.000000000               0.000000000               0.000000000               0.000000000              -0.000000051              -0.000000411               0.000000020               0.000000032              -0.000000148              -0.000000115               0.000000000               0.000000000               0.000000000               0.000000000               0.000000341               0.000000078               0.000000216               0.000000118              -0.000000013               0.000000105               0.000000000               0.000000000               0.000000000               0.000000000              -0.000000036               0.000001555              -0.000000335              -0.000000208               0.000000588               0.000000380               0.000000000               0.000000000               0.000000000               0.000000000              -0.000000704              -0.000000613              -0.000000056              -0.000000187              -0.000000142              -0.000000329               0.000000000               0.000000000               0.000000000               0.000000000              -0.000001993              -0.000006374               0.000000334               0.000000049              -0.000002141              -0.000002092               0.000000000               0.000000000               0.000000000               0.000000000              -0.000001526              -0.000004918               0.000000205               0.000000043              -0.000001654              -0.000001611               0.000000000               0.000000000               0.000000000               0.000000000               0.000005546               0.000011151               0.000000542               0.000000686               0.000003488               0.000004174               0.000000000               0.000000000               0.000000000               0.000000000               0.000017105               0.000038544              -0.000000541               0.000001596               0.000012316               0.000013912               0.000000000               0.000000000               0.000000000               0.000000000               0.000027519               0.000071905              -0.000004449               0.000001331               0.000023524               0.000024856               0.000000000               0.000000000               0.000000000               0.000000000               0.000032776               0.000110852              -0.000009523              -0.000001566               0.000037472               0.000035906               0.000000000               0.000000000               0.000000000               0.000000000               0.000029526               0.000155895              -0.000012360              -0.000008415               0.000054769               0.000046355               0.000000000               0.000000000               0.000000000               0.000000000               0.000017786               0.000204631              -0.000009548              -0.000018909               0.000074513               0.000055604               0.000000000               0.000000000               0.000000000               0.000000000               0.000017194               0.000240402              -0.000010566              -0.000023602               0.000088001               0.000064398               0.000000000               0.000000000               0.000000000               0.000000000              -0.000000111              -0.000000176              -0.000000060              -0.000000019              -0.000000052              -0.000000072               0.000000000               0.000000000               0.000000000               0.000000000              -0.000000002              -0.000000015               0.000000017               0.000000001              -0.000000005              -0.000000004               0.000000000               0.000000000               0.000000000               0.000000000               0.000000077               0.000000253               0.000000000              -0.000000003               0.000000085               0.000000083               0.000000000               0.000000000               0.000000000               0.000000000              -0.000000195              -0.000000527              -0.000000063              -0.000000007              -0.000000173              -0.000000180               0.000000000               0.000000000               0.000000000               0.000000000               0.000000076              -0.000000024               0.000000111               0.000000032              -0.000000018               0.000000013               0.000000000               0.000000000               0.000000000               0.000000000               0.000000511               0.000002076              -0.000000045              -0.000000068               0.000000715               0.000000647               0.000000000               0.000000000               0.000000000               0.000000000              -0.000000592              -0.000002013               0.000000023               0.000000030              -0.000000681              -0.000000651               0.000000000               0.000000000               0.000000000               0.000000000              -0.000002142              -0.000007112              -0.000000173               0.000000086              -0.000002399              -0.000002314               0.000000000               0.000000000               0.000000000               0.000000000               0.000002259               0.000005033              -0.000000580               0.000000218               0.000001605               0.000001823               0.000000000               0.000000000               0.000000000               0.000000000               0.000015674               0.000038744               0.000000405               0.000001035               0.000012570               0.000013604               0.000000000               0.000000000               0.000000000               0.000000000               0.000032186               0.000085387              -0.000000174               0.000001396               0.000027996               0.000029393               0.000000000               0.000000000               0.000000000               0.000000000               0.000046150               0.000136936              -0.000004366               0.000000189               0.000045582               0.000045771               0.000000000               0.000000000               0.000000000               0.000000000               0.000053681               0.000191692              -0.000010620              -0.000003831               0.000065174               0.000061342               0.000000000               0.000000000               0.000000000               0.000000000               0.000051575               0.000250435              -0.000015520              -0.000011964               0.000087465               0.000075502               0.000000000               0.000000000               0.000000000               0.000000000               0.000040129               0.000310323              -0.000015930              -0.000023742               0.000111354               0.000087612               0.000000000               0.000000000               0.000000000               0.000000000               0.000022408               0.000366052              -0.000010770              -0.000037353               0.000134467               0.000097114               0.000000000               0.000000000               0.000000000               0.000000000               0.000016334               0.000400305              -0.000009556              -0.000043913               0.000148071               0.000104159               0.000000000               0.000000000               0.000000000               0.000000000              -0.000000117              -0.000000253              -0.000000045              -0.000000012              -0.000000080              -0.000000092               0.000000000               0.000000000               0.000000000               0.000000000               0.000000097               0.000000230               0.000000048               0.000000008               0.000000074               0.000000082               0.000000000               0.000000000               0.000000000               0.000000000              -0.000000063              -0.000000074              -0.000000087              -0.000000014              -0.000000020              -0.000000034               0.000000000               0.000000000               0.000000000               0.000000000              -0.000000399              -0.000001081               0.000000010              -0.000000015              -0.000000355              -0.000000370               0.000000000               0.000000000               0.000000000               0.000000000               0.000001180               0.000002843               0.000000287               0.000000087               0.000000919               0.000001006               0.000000000               0.000000000               0.000000000               0.000000000              -0.000000174               0.000000104              -0.000000432              -0.000000078               0.000000061              -0.000000018               0.000000000               0.000000000               0.000000000               0.000000000              -0.000004377              -0.000011623              -0.000000453              -0.000000188              -0.000003812              -0.000004000               0.000000000               0.000000000               0.000000000               0.000000000               0.000000743               0.000000519               0.000000823               0.000000214               0.000000102               0.000000315               0.000000000               0.000000000               0.000000000               0.000000000               0.000016128               0.000043409               0.000002694               0.000000622               0.000014262               0.000014884               0.000000000               0.000000000               0.000000000               0.000000000               0.000036072               0.000101844               0.000003084               0.000000797               0.000033682               0.000034479               0.000000000               0.000000000               0.000000000               0.000000000               0.000055670               0.000165097               0.000001207               0.000000239               0.000054952               0.000055191               0.000000000               0.000000000               0.000000000               0.000000000               0.000070227               0.000229138              -0.000002707              -0.000002307               0.000077148               0.000074840               0.000000000               0.000000000               0.000000000               0.000000000               0.000076494               0.000296828              -0.000007700              -0.000008418               0.000101748               0.000093330               0.000000000               0.000000000               0.000000000               0.000000000               0.000073779               0.000367878              -0.000010782              -0.000018318               0.000128731               0.000110413               0.000000000               0.000000000               0.000000000               0.000000000               0.000063943               0.000439000              -0.000010621              -0.000030896               0.000156630               0.000125734               0.000000000               0.000000000               0.000000000               0.000000000               0.000050196               0.000503396              -0.000006655              -0.000044101               0.000182497               0.000138396               0.000000000               0.000000000               0.000000000               0.000000000               0.000041067               0.000536409              -0.000004153              -0.000051651               0.000196018               0.000144367               0.000000000               0.000000000               0.000000000               0.000000000              -0.000000079              -0.000000168              -0.000000014              -0.000000009              -0.000000053              -0.000000062               0.000000000               0.000000000               0.000000000               0.000000000               0.000000178               0.000000485               0.000000037               0.000000006               0.000000160               0.000000166               0.000000000               0.000000000               0.000000000               0.000000000              -0.000000265              -0.000000771              -0.000000062              -0.000000003              -0.000000256              -0.000000259               0.000000000               0.000000000               0.000000000               0.000000000              -0.000000195              -0.000000482               0.000000009              -0.000000013              -0.000000156              -0.000000169               0.000000000               0.000000000               0.000000000               0.000000000               0.000001623               0.000004742               0.000000126               0.000000016               0.000001575               0.000001591               0.000000000               0.000000000               0.000000000               0.000000000              -0.000001687              -0.000005221              -0.000000159               0.000000020              -0.000001747              -0.000001727               0.000000000               0.000000000               0.000000000               0.000000000              -0.000004587              -0.000013508               0.000000017              -0.000000032              -0.000004492              -0.000004524               0.000000000               0.000000000               0.000000000               0.000000000               0.000004387               0.000013932              -0.000000242              -0.000000096               0.000004676               0.000004580               0.000000000               0.000000000               0.000000000               0.000000000               0.000022496               0.000066819               0.000000045               0.000000084               0.000022245               0.000022329               0.000000000               0.000000000               0.000000000               0.000000000               0.000045716               0.000134378               0.000000517               0.000000346               0.000044677               0.000045023               0.000000000               0.000000000               0.000000000               0.000000000               0.000068284               0.000204097              -0.000000503               0.000000094               0.000068000               0.000068095               0.000000000               0.000000000               0.000000000               0.000000000               0.000087717               0.000272628              -0.000002471              -0.000001184               0.000091270               0.000090085               0.000000000               0.000000000               0.000000000               0.000000000               0.000100837               0.000341170              -0.000005052              -0.000004832               0.000115333               0.000110500               0.000000000               0.000000000               0.000000000               0.000000000               0.000106634               0.000411998              -0.000006991              -0.000011512               0.000141169               0.000129657               0.000000000               0.000000000               0.000000000               0.000000000               0.000106492               0.000485636              -0.000007191              -0.000020770               0.000168800               0.000148030               0.000000000               0.000000000               0.000000000               0.000000000               0.000102478               0.000559258              -0.000004534              -0.000031478               0.000196910               0.000165432               0.000000000               0.000000000               0.000000000               0.000000000               0.000095456               0.000595293              -0.000000828              -0.000038616               0.000211301               0.000172685               0.000000000               0.000000000               0.000000000               0.000000000               0.000000110               0.000000280               0.000000082               0.000000006               0.000000091               0.000000098               0.000000000               0.000000000               0.000000000               0.000000000               0.000000198               0.000000565               0.000000003               0.000000004               0.000000187               0.000000191               0.000000000               0.000000000               0.000000000               0.000000000              -0.000000468              -0.000001419              -0.000000022               0.000000002              -0.000000474              -0.000000472               0.000000000               0.000000000               0.000000000               0.000000000               0.000000232               0.000000785               0.000000004              -0.000000011               0.000000265               0.000000254               0.000000000               0.000000000               0.000000000               0.000000000               0.000001624               0.000004789               0.000000086               0.000000010               0.000001593               0.000001603               0.000000000               0.000000000               0.000000000               0.000000000              -0.000003008              -0.000009144              -0.000000060               0.000000015              -0.000003053              -0.000003038               0.000000000               0.000000000               0.000000000               0.000000000              -0.000003929              -0.000011581              -0.000000256              -0.000000026              -0.000003852              -0.000003878               0.000000000               0.000000000               0.000000000               0.000000000               0.000007273               0.000022160               0.000000110              -0.000000043               0.000007401               0.000007358               0.000000000               0.000000000               0.000000000               0.000000000               0.000025632               0.000076653               0.000000155               0.000000030               0.000025541               0.000025571               0.000000000               0.000000000               0.000000000               0.000000000               0.000048317               0.000143902               0.000000185               0.000000131               0.000047923               0.000048054               0.000000000               0.000000000               0.000000000               0.000000000               0.000071154               0.000212845               0.000000122               0.000000077               0.000070922               0.000070999               0.000000000               0.000000000               0.000000000               0.000000000               0.000094043               0.000282670              -0.000000211              -0.000000068               0.000094245               0.000094178               0.000000000               0.000000000               0.000000000               0.000000000               0.000115274               0.000351438              -0.000000653              -0.000000702               0.000117379               0.000116677               0.000000000               0.000000000               0.000000000               0.000000000               0.000132521               0.000420612              -0.000001648              -0.000002881               0.000141163               0.000138282               0.000000000               0.000000000               0.000000000               0.000000000               0.000144832               0.000490512              -0.000002213              -0.000007002               0.000165837               0.000158834               0.000000000               0.000000000               0.000000000               0.000000000               0.000153611               0.000562410              -0.000001806              -0.000012697               0.000191701               0.000179003               0.000000000               0.000000000               0.000000000               0.000000000               0.000154059               0.000597435               0.000000303              -0.000016907               0.000204779               0.000187872               0.000000000               0.000000000               0.000000000               0.000000000               0.000000424               0.000001107               0.000000209               0.000000021               0.000000362               0.000000383               0.000000000               0.000000000               0.000000000               0.000000000               0.000000118               0.000000368              -0.000000022              -0.000000002               0.000000123               0.000000122               0.000000000               0.000000000               0.000000000               0.000000000              -0.000000578              -0.000001833              -0.000000010               0.000000012              -0.000000615              -0.000000603               0.000000000               0.000000000               0.000000000               0.000000000               0.000000823               0.000002559               0.000000096              -0.000000011               0.000000857               0.000000846               0.000000000               0.000000000               0.000000000               0.000000000               0.000001016               0.000003147              -0.000000145              -0.000000012               0.000001053               0.000001041               0.000000000               0.000000000               0.000000000               0.000000000              -0.000003847              -0.000011814               0.000000129               0.000000034              -0.000003949              -0.000003915               0.000000000               0.000000000               0.000000000               0.000000000              -0.000002610              -0.000007860              -0.000000074               0.000000004              -0.000002621              -0.000002618               0.000000000               0.000000000               0.000000000               0.000000000               0.000009444               0.000028738              -0.000000279              -0.000000051               0.000009596               0.000009545               0.000000000               0.000000000               0.000000000               0.000000000               0.000028154               0.000085306               0.000000034              -0.000000106               0.000028470               0.000028365               0.000000000               0.000000000               0.000000000               0.000000000               0.000050800               0.000151696               0.000000238               0.000000088               0.000050536               0.000050624               0.000000000               0.000000000               0.000000000               0.000000000               0.000073751               0.000219646               0.000000442               0.000000201               0.000073148               0.000073349               0.000000000               0.000000000               0.000000000               0.000000000               0.000096847               0.000289727               0.000000128               0.000000102               0.000096541               0.000096643               0.000000000               0.000000000               0.000000000               0.000000000               0.000120036               0.000358062               0.000000268               0.000000256               0.000119268               0.000119524               0.000000000               0.000000000               0.000000000               0.000000000               0.000143228               0.000426806               0.000000334               0.000000360               0.000142147               0.000142507               0.000000000               0.000000000               0.000000000               0.000000000               0.000164301               0.000494920               0.000000179              -0.000000252               0.000165056               0.000164804               0.000000000               0.000000000               0.000000000               0.000000000               0.000182833               0.000564440              -0.000000232              -0.000001993               0.000188809               0.000186816               0.000000000               0.000000000               0.000000000               0.000000000               0.000189667               0.000598625               0.000000312              -0.000003703               0.000200774               0.000197071               0.000000000               0.000000000               0.000000000               0.000000000               0.000000679               0.000001825               0.000000220               0.000000026               0.000000599               0.000000626               0.000000000               0.000000000               0.000000000               0.000000000              -0.000000003              -0.000000013               0.000000009               0.000000000              -0.000000004              -0.000000004               0.000000000               0.000000000               0.000000000               0.000000000              -0.000000662              -0.000002003              -0.000000055               0.000000002              -0.000000668              -0.000000666               0.000000000               0.000000000               0.000000000               0.000000000               0.000001465               0.000004323               0.000000142               0.000000009               0.000001438               0.000001447               0.000000000               0.000000000               0.000000000               0.000000000               0.000000332               0.000001114              -0.000000062              -0.000000015               0.000000376               0.000000361               0.000000000               0.000000000               0.000000000               0.000000000              -0.000004745              -0.000014284              -0.000000171               0.000000006              -0.000004763              -0.000004757               0.000000000               0.000000000               0.000000000               0.000000000              -0.000001193              -0.000003585               0.000000073               0.000000001              -0.000001195              -0.000001195               0.000000000               0.000000000               0.000000000               0.000000000               0.000011900               0.000035551               0.000000115               0.000000019               0.000011844               0.000011863               0.000000000               0.000000000               0.000000000               0.000000000               0.000030694               0.000092407              -0.000000017              -0.000000041               0.000030816               0.000030775               0.000000000               0.000000000               0.000000000               0.000000000               0.000052472               0.000158454              -0.000000156              -0.000000130               0.000052860               0.000052731               0.000000000               0.000000000               0.000000000               0.000000000               0.000075233               0.000225465              -0.000000096               0.000000029               0.000075144               0.000075174               0.000000000               0.000000000               0.000000000               0.000000000               0.000098143               0.000293763               0.000000039               0.000000083               0.000097892               0.000097976               0.000000000               0.000000000               0.000000000               0.000000000               0.000120672               0.000361801               0.000000068               0.000000027               0.000120590               0.000120617               0.000000000               0.000000000               0.000000000               0.000000000               0.000144102               0.000430215               0.000000134               0.000000261               0.000143316               0.000143578               0.000000000               0.000000000               0.000000000               0.000000000               0.000167799               0.000497791               0.000000320               0.000000701               0.000165695               0.000166396               0.000000000               0.000000000               0.000000000               0.000000000               0.000191150               0.000565894               0.000000157               0.000000945               0.000188315               0.000189259               0.000000000               0.000000000               0.000000000               0.000000000               0.000201968               0.000599163               0.000000178               0.000000843               0.000199438               0.000200281               0.000000000               0.000000000               0.000000000               0.000000000               0.000000667               0.000001883               0.000000100               0.000000015               0.000000623               0.000000638               0.000000000               0.000000000               0.000000000               0.000000000              -0.000000148              -0.000000555               0.000000024               0.000000014              -0.000000190              -0.000000176               0.000000000               0.000000000               0.000000000               0.000000000              -0.000000559              -0.000001558               0.000000020              -0.000000015              -0.000000514              -0.000000529               0.000000000               0.000000000               0.000000000               0.000000000               0.000001732               0.000005141              -0.000000016               0.000000007               0.000001711               0.000001718               0.000000000               0.000000000               0.000000000               0.000000000              -0.000000220              -0.000000833               0.000000038               0.000000021              -0.000000285              -0.000000263               0.000000000               0.000000000               0.000000000               0.000000000              -0.000004989              -0.000014801              -0.000000030              -0.000000021              -0.000004927              -0.000004947               0.000000000               0.000000000               0.000000000               0.000000000              -0.000000397              -0.000001006              -0.000000158              -0.000000023              -0.000000328              -0.000000351               0.000000000               0.000000000               0.000000000               0.000000000               0.000013483               0.000040515               0.000000069              -0.000000008               0.000013508               0.000013499               0.000000000               0.000000000               0.000000000               0.000000000               0.000033245               0.000099389               0.000000096               0.000000043               0.000033115               0.000033158               0.000000000               0.000000000               0.000000000               0.000000000               0.000054721               0.000164021               0.000000115               0.000000018               0.000054667               0.000054685               0.000000000               0.000000000               0.000000000               0.000000000               0.000076573               0.000230267               0.000000039              -0.000000068               0.000076778               0.000076709               0.000000000               0.000000000               0.000000000               0.000000000               0.000099181               0.000297629              -0.000000088              -0.000000011               0.000099212               0.000099202               0.000000000               0.000000000               0.000000000               0.000000000               0.000121452               0.000364592              -0.000000128              -0.000000029               0.000121539               0.000121510               0.000000000               0.000000000               0.000000000               0.000000000               0.000143651               0.000432265              -0.000000237              -0.000000164               0.000144142               0.000143978               0.000000000               0.000000000               0.000000000               0.000000000               0.000166075               0.000499567              -0.000000210              -0.000000168               0.000166577               0.000166409               0.000000000               0.000000000               0.000000000               0.000000000               0.000189052               0.000566899              -0.000000144               0.000000032               0.000188954               0.000188986               0.000000000               0.000000000               0.000000000               0.000000000               0.000200327               0.000599295              -0.000000105               0.000000211               0.000199693               0.000199904               0.000000000               0.000000000               0.000000000               0.000000000               0.000000518               0.000001638               0.000000030              -0.000000010               0.000000550               0.000000539               0.000000000               0.000000000               0.000000000               0.000000000              -0.000000357              -0.000001171              -0.000000008               0.000000013              -0.000000395              -0.000000382               0.000000000               0.000000000               0.000000000               0.000000000              -0.000000296              -0.000000868               0.000000062              -0.000000002              -0.000000289              -0.000000291               0.000000000               0.000000000               0.000000000               0.000000000               0.000001883               0.000005789              -0.000000001              -0.000000018               0.000001936               0.000001918               0.000000000               0.000000000               0.000000000               0.000000000              -0.000000956              -0.000003051              -0.000000059               0.000000023              -0.000001025              -0.000001002               0.000000000               0.000000000               0.000000000               0.000000000              -0.000004967              -0.000014933               0.000000048               0.000000004              -0.000004979              -0.000004975               0.000000000               0.000000000               0.000000000               0.000000000               0.000000733               0.000002359              -0.000000050              -0.000000020               0.000000793               0.000000773               0.000000000               0.000000000               0.000000000               0.000000000               0.000014682               0.000044171              -0.000000057              -0.000000016               0.000014729               0.000014713               0.000000000               0.000000000               0.000000000               0.000000000               0.000034219               0.000102937               0.000000050              -0.000000035               0.000034324               0.000034289               0.000000000               0.000000000               0.000000000               0.000000000               0.000055941               0.000167775               0.000000075               0.000000006               0.000055923               0.000055929               0.000000000               0.000000000               0.000000000               0.000000000               0.000078148               0.000234168               0.000000019               0.000000034               0.000078044               0.000078078               0.000000000               0.000000000               0.000000000               0.000000000               0.000100333               0.000300838               0.000000026               0.000000020               0.000100272               0.000100292               0.000000000               0.000000000               0.000000000               0.000000000               0.000122540               0.000367159               0.000000070               0.000000058               0.000122366               0.000122423               0.000000000               0.000000000               0.000000000               0.000000000               0.000144734               0.000433772               0.000000065               0.000000054               0.000144571               0.000144625               0.000000000               0.000000000               0.000000000               0.000000000               0.000166640               0.000500326               0.000000022              -0.000000051               0.000166790               0.000166740               0.000000000               0.000000000               0.000000000               0.000000000               0.000188608               0.000567146              -0.000000026              -0.000000165               0.000189102               0.000188937               0.000000000               0.000000000               0.000000000               0.000000000               0.000199111               0.000598914              -0.000000023              -0.000000198               0.000199702               0.000199504               0.000000000               0.000000000               0.000000000               0.000000000               0.000000425               0.000001380               0.000000004              -0.000000013               0.000000464               0.000000451               0.000000000               0.000000000               0.000000000               0.000000000              -0.000000505              -0.000001501               0.000000003              -0.000000002              -0.000000500              -0.000000502               0.000000000               0.000000000               0.000000000               0.000000000              -0.000000151              -0.000000452               0.000000015              -0.000000000              -0.000000151              -0.000000151               0.000000000               0.000000000               0.000000000               0.000000000               0.000001978               0.000006009               0.000000016              -0.000000009               0.000002006               0.000001997               0.000000000               0.000000000               0.000000000               0.000000000              -0.000001308              -0.000004016              -0.000000017               0.000000011              -0.000001343              -0.000001331               0.000000000               0.000000000               0.000000000               0.000000000              -0.000004972              -0.000015041              -0.000000043               0.000000016              -0.000005019              -0.000005003               0.000000000               0.000000000               0.000000000               0.000000000               0.000001133               0.000003628               0.000000021              -0.000000029               0.000001219               0.000001190               0.000000000               0.000000000               0.000000000               0.000000000               0.000015529               0.000046911               0.000000049              -0.000000040               0.000015650               0.000015610               0.000000000               0.000000000               0.000000000               0.000000000               0.000035428               0.000106172              -0.000000036               0.000000014               0.000035386               0.000035400               0.000000000               0.000000000               0.000000000               0.000000000               0.000056743               0.000169973              -0.000000009               0.000000032               0.000056646               0.000056678               0.000000000               0.000000000               0.000000000               0.000000000               0.000078598               0.000235779               0.000000015               0.000000002               0.000078592               0.000078593               0.000000000               0.000000000               0.000000000               0.000000000               0.000100656               0.000302223              -0.000000006              -0.000000032               0.000100751               0.000100719               0.000000000               0.000000000               0.000000000               0.000000000               0.000122786               0.000368629              -0.000000032              -0.000000034               0.000122886               0.000122853               0.000000000               0.000000000               0.000000000               0.000000000               0.000145101               0.000435097              -0.000000022               0.000000026               0.000145022               0.000145048               0.000000000               0.000000000               0.000000000               0.000000000               0.000167319               0.000501273               0.000000012               0.000000086               0.000167061               0.000167147               0.000000000               0.000000000               0.000000000               0.000000000               0.000189419               0.000567554               0.000000011               0.000000088               0.000189153               0.000189241               0.000000000               0.000000000               0.000000000               0.000000000               0.000199789               0.000598875               0.000000015               0.000000062               0.000199603               0.000199664               0.000000000               0.000000000               0.000000000               0.000000000               0.000000387               0.000001171               0.000000000              -0.000000001               0.000000391               0.000000389               0.000000000               0.000000000               0.000000000               0.000000000              -0.000000562              -0.000001623               0.000000000              -0.000000008              -0.000000538              -0.000000546               0.000000000               0.000000000               0.000000000               0.000000000              -0.000000097              -0.000000187               0.000000000              -0.000000013              -0.000000058              -0.000000071               0.000000000               0.000000000               0.000000000               0.000000000               0.000002043               0.000005985               0.000000000               0.000000018               0.000001989               0.000002007               0.000000000               0.000000000               0.000000000               0.000000000              -0.000001491              -0.000004555              -0.000000000               0.000000010              -0.000001522              -0.000001511               0.000000000               0.000000000               0.000000000               0.000000000              -0.000005021              -0.000014793              -0.000000000              -0.000000034              -0.000004920              -0.000004954               0.000000000               0.000000000               0.000000000               0.000000000               0.000001485               0.000004395              -0.000000000               0.000000008               0.000001462               0.000001470               0.000000000               0.000000000               0.000000000               0.000000000               0.000015853               0.000047409              -0.000000000               0.000000019               0.000015797               0.000015815               0.000000000               0.000000000               0.000000000               0.000000000               0.000035461               0.000106726              -0.000000000              -0.000000043               0.000035589               0.000035546               0.000000000               0.000000000               0.000000000               0.000000000               0.000056880               0.000170985              -0.000000000              -0.000000043               0.000057009               0.000056966               0.000000000               0.000000000               0.000000000               0.000000000               0.000079033               0.000236937              -0.000000000               0.000000020               0.000078971               0.000078992               0.000000000               0.000000000               0.000000000               0.000000000               0.000101155               0.000302913              -0.000000000               0.000000069               0.000100947               0.000101016               0.000000000               0.000000000               0.000000000               0.000000000               0.000123061               0.000368855              -0.000000000               0.000000041               0.000122937               0.000122978               0.000000000               0.000000000               0.000000000               0.000000000               0.000144940               0.000435135               0.000000000              -0.000000039               0.000145057               0.000145017               0.000000000               0.000000000               0.000000000               0.000000000               0.000166912               0.000501389              -0.000000000              -0.000000082               0.000167155               0.000167074               0.000000000               0.000000000               0.000000000               0.000000000               0.000189062               0.000567685              -0.000000000              -0.000000062               0.000189247               0.000189185               0.000000000               0.000000000               0.000000000               0.000000000               0.000199553               0.000598946              -0.000000000              -0.000000036               0.000199659               0.000199623               0.000000000               0.000000000               0.000000000               0.000000000               0.000000000               0.000000000               0.000000000               0.000000000               0.000000000               0.000000000               0.000000000               0.000000000               0.000000000               0.000000000               0.000000000               0.000000000               0.000000000               0.000000000               0.000000000               0.000000000               0.000000000               0.000000000               0.000000000               0.000000000               0.000000000               0.000000000               0.000000000               0.000000000               0.000000000               0.000000000               0.000000000               0.000000000               0.000000000               0.000000000               0.000000000               0.000000000               0.000000000               0.000000000               0.000000000               0.000000000               0.000000000               0.000000000               0.000000000               0.000000000               0.000000000               0.000000000               0.000000000               0.000000000               0.000000000               0.000000000               0.000000000               0.000000000               0.000000000               0.000000000               0.000000000               0.000000000               0.000000000               0.000000000               0.000000000               0.000000000               0.000000000               0.000000000               0.000000000               0.000000000               0.000000000               0.000000000               0.000000000               0.000000000               0.000000000               0.000000000               0.000000000               0.000000000               0.000000000               0.000000000               0.000000000               0.000000000               0.000000000               0.000000000               0.000000000               0.000000000               0.000000000               0.000000000               0.000000000               0.000000000               0.000000000               0.000000000               0.000000000               0.000000000               0.000000000               0.000000000               0.000000000               0.000000000               0.000000000               0.000000000               0.000000000               0.000000000               0.000000000               0.000000000               0.000000000               0.000000000               0.000000000               0.000000000               0.000000000               0.000000000               0.000000000               0.000000000               0.000000000               0.000000000               0.000000000               0.000000000               0.000000000               0.000000000               0.000000000               0.000000000               0.000000000               0.000000000               0.000000000               0.000000000               0.000000000               0.000000000               0.000000000               0.000000000               0.000000000               0.000000000               0.000000000               0.000000000               0.000000000               0.000000000               0.000000000               0.000000000               0.000000000               0.000000000               0.000000000               0.000000000               0.000000000               0.000000000               0.000000000               0.000000000               0.000000000               0.000000000               0.000000000               0.000000000               0.000000000               0.000000000               0.000000000               0.000000000               0.000000000               0.000000000               0.000000000               0.000000000               0.000000000               0.000000000               0.000000000               0.000000000               0.000000000               0.000000000               0.000000000               0.000000000               0.000000000               0.000000000               0.000000000               0.000000000               0.000000000               0.000000000               0.000000000               0.000000000               0.000000000               0.000000000               0.000000000               0.000000000               0.000000000               0.000000000               0.000000000               0.000000000               0.000000045               0.000000003              -0.000000012               0.000000016              -0.000000004               0.000000012               0.000000000               0.000000000               0.000000000               0.000000000               0.000000024              -0.000000002              -0.000000007               0.000000009              -0.000000004               0.000000006               0.000000000               0.000000000               0.000000000               0.000000000              -0.000000051               0.000000004               0.000000022              -0.000000020               0.000000008              -0.000000012               0.000000000               0.000000000               0.000000000               0.000000000              -0.000000033              -0.000000029              -0.000000010              -0.000000009              -0.000000007              -0.000000016               0.000000000               0.000000000               0.000000000               0.000000000               0.000000156               0.000000002              -0.000000033               0.000000058              -0.000000019               0.000000039               0.000000000               0.000000000               0.000000000               0.000000000               0.000000043               0.000000106               0.000000065               0.000000003               0.000000034               0.000000037               0.000000000               0.000000000               0.000000000               0.000000000              -0.000000371              -0.000000038               0.000000033              -0.000000134               0.000000032              -0.000000102               0.000000000               0.000000000               0.000000000               0.000000000              -0.000000144              -0.000000285              -0.000000146              -0.000000018              -0.000000089              -0.000000107               0.000000000               0.000000000               0.000000000               0.000000000               0.000000651               0.000000015              -0.000000079               0.000000242              -0.000000076               0.000000166               0.000000000               0.000000000               0.000000000               0.000000000               0.000000621               0.000000622               0.000000150               0.000000155               0.000000156               0.000000311               0.000000000               0.000000000               0.000000000               0.000000000              -0.000000421               0.000000484               0.000000182              -0.000000219               0.000000234               0.000000016               0.000000000               0.000000000               0.000000000               0.000000000              -0.000001130              -0.000000555               0.000000095              -0.000000354              -0.000000067              -0.000000421               0.000000000               0.000000000               0.000000000               0.000000000              -0.000000783              -0.000001443               0.000000048              -0.000000113              -0.000000443              -0.000000556               0.000000000               0.000000000               0.000000000               0.000000000               0.000000064              -0.000001370              -0.000000021               0.000000195              -0.000000522              -0.000000327               0.000000000               0.000000000               0.000000000               0.000000000               0.000000601              -0.000000401              -0.000000129               0.000000276              -0.000000225               0.000000050               0.000000000               0.000000000               0.000000000               0.000000000               0.000000519               0.000000974              -0.000000156               0.000000073               0.000000300               0.000000373               0.000000000               0.000000000               0.000000000               0.000000000               0.000000439               0.000001925              -0.000000046              -0.000000076               0.000000667               0.000000591               0.000000000               0.000000000               0.000000000               0.000000000              -0.000000038              -0.000000034              -0.000000003              -0.000000010              -0.000000008              -0.000000018               0.000000000               0.000000000               0.000000000               0.000000000              -0.000000054              -0.000000008               0.000000023              -0.000000019               0.000000004              -0.000000015               0.000000000               0.000000000               0.000000000               0.000000000               0.000000024               0.000000022              -0.000000023               0.000000006               0.000000005               0.000000012               0.000000000               0.000000000               0.000000000               0.000000000               0.000000125               0.000000003              -0.000000027               0.000000047              -0.000000015               0.000000032               0.000000000               0.000000000               0.000000000               0.000000000              -0.000000165              -0.000000030               0.000000083              -0.000000058               0.000000009              -0.000000049               0.000000000               0.000000000               0.000000000               0.000000000              -0.000000280              -0.000000050              -0.000000042              -0.000000099               0.000000016              -0.000000083               0.000000000               0.000000000               0.000000000               0.000000000               0.000000479               0.000000049              -0.000000148               0.000000174              -0.000000042               0.000000132               0.000000000               0.000000000               0.000000000               0.000000000               0.000000678               0.000000238               0.000000152               0.000000225               0.000000004               0.000000229               0.000000000               0.000000000               0.000000000               0.000000000              -0.000000637               0.000000076               0.000000249              -0.000000248               0.000000108              -0.000000140               0.000000000               0.000000000               0.000000000               0.000000000              -0.000001515              -0.000000558              -0.000000079              -0.000000498              -0.000000020              -0.000000518               0.000000000               0.000000000               0.000000000               0.000000000              -0.000000536              -0.000000992              -0.000000256              -0.000000077              -0.000000305              -0.000000382               0.000000000               0.000000000               0.000000000               0.000000000               0.000001149              -0.000000372              -0.000000235               0.000000477              -0.000000283               0.000000194               0.000000000               0.000000000               0.000000000               0.000000000               0.000001994               0.000001268              -0.000000250               0.000000589               0.000000226               0.000000816               0.000000000               0.000000000               0.000000000               0.000000000               0.000001576               0.000003020              -0.000000185               0.000000214               0.000000935               0.000001149               0.000000000               0.000000000               0.000000000               0.000000000               0.000000511               0.000003962               0.000000027              -0.000000303               0.000001422               0.000001118               0.000000000               0.000000000               0.000000000               0.000000000              -0.000000124               0.000003391               0.000000213              -0.000000470               0.000001287               0.000000817               0.000000000               0.000000000               0.000000000               0.000000000              -0.000000556               0.000002015               0.000000050              -0.000000461               0.000000825               0.000000365               0.000000000               0.000000000               0.000000000               0.000000000              -0.000000076              -0.000000009               0.000000034              -0.000000028               0.000000006              -0.000000021               0.000000000               0.000000000               0.000000000               0.000000000               0.000000026               0.000000038              -0.000000019               0.000000005               0.000000011               0.000000016               0.000000000               0.000000000               0.000000000               0.000000000               0.000000058              -0.000000014              -0.000000029               0.000000023              -0.000000012               0.000000011               0.000000000               0.000000000               0.000000000               0.000000000              -0.000000201              -0.000000049               0.000000095              -0.000000069               0.000000007              -0.000000063               0.000000000               0.000000000               0.000000000               0.000000000               0.000000012               0.000000051              -0.000000058              -0.000000002               0.000000018               0.000000016               0.000000000               0.000000000               0.000000000               0.000000000               0.000000599               0.000000092              -0.000000133               0.000000213              -0.000000041               0.000000173               0.000000000               0.000000000               0.000000000               0.000000000              -0.000000247              -0.000000052               0.000000221              -0.000000086               0.000000011              -0.000000075               0.000000000               0.000000000               0.000000000               0.000000000              -0.000001373              -0.000000262               0.000000122              -0.000000482               0.000000073              -0.000000409               0.000000000               0.000000000               0.000000000               0.000000000              -0.000000102              -0.000000296              -0.000000302              -0.000000001              -0.000000098              -0.000000099               0.000000000               0.000000000               0.000000000               0.000000000               0.000002008               0.000000196              -0.000000272               0.000000728              -0.000000177               0.000000551               0.000000000               0.000000000               0.000000000               0.000000000               0.000002278               0.000001427              -0.000000072               0.000000676               0.000000250               0.000000926               0.000000000               0.000000000               0.000000000               0.000000000               0.000000736               0.000002483               0.000000115              -0.000000035               0.000000839               0.000000805               0.000000000               0.000000000               0.000000000               0.000000000              -0.000001526               0.000001795               0.000000440              -0.000000797               0.000000864               0.000000067               0.000000000               0.000000000               0.000000000               0.000000000              -0.000003180              -0.000001119               0.000000630              -0.000001053              -0.000000022              -0.000001075               0.000000000               0.000000000               0.000000000               0.000000000              -0.000003161              -0.000005923               0.000000492              -0.000000445              -0.000001826              -0.000002271               0.000000000               0.000000000               0.000000000               0.000000000              -0.000001863              -0.000011360               0.000000099               0.000000721              -0.000004027              -0.000003306               0.000000000               0.000000000               0.000000000               0.000000000              -0.000001383              -0.000014572              -0.000000339               0.000001303              -0.000005292              -0.000003989               0.000000000               0.000000000               0.000000000               0.000000000               0.000000130               0.000000081              -0.000000031               0.000000039               0.000000014               0.000000053               0.000000000               0.000000000               0.000000000               0.000000000               0.000000057               0.000000014              -0.000000027               0.000000020              -0.000000002               0.000000018               0.000000000               0.000000000               0.000000000               0.000000000              -0.000000138              -0.000000067               0.000000080              -0.000000043              -0.000000008              -0.000000051               0.000000000               0.000000000               0.000000000               0.000000000               0.000000104               0.000000055              -0.000000061               0.000000032               0.000000008               0.000000040               0.000000000               0.000000000               0.000000000               0.000000000               0.000000302               0.000000065              -0.000000121               0.000000105              -0.000000013               0.000000092               0.000000000               0.000000000               0.000000000               0.000000000              -0.000000607              -0.000000119               0.000000285              -0.000000213               0.000000031              -0.000000182               0.000000000               0.000000000               0.000000000               0.000000000              -0.000000485              -0.000000136               0.000000017              -0.000000165               0.000000010              -0.000000155               0.000000000               0.000000000               0.000000000               0.000000000               0.000001372               0.000000038              -0.000000473               0.000000510              -0.000000157               0.000000353               0.000000000               0.000000000               0.000000000               0.000000000               0.000001440               0.000000649              -0.000000119               0.000000459               0.000000063               0.000000522               0.000000000               0.000000000               0.000000000               0.000000000              -0.000000507               0.000001337               0.000000384              -0.000000357               0.000000565               0.000000208               0.000000000               0.000000000               0.000000000               0.000000000              -0.000002349               0.000000100               0.000000692              -0.000000893               0.000000331              -0.000000562               0.000000000               0.000000000               0.000000000               0.000000000              -0.000003857              -0.000003965               0.000000688              -0.000000951              -0.000001005              -0.000001956               0.000000000               0.000000000               0.000000000               0.000000000              -0.000003918              -0.000008691               0.000000005              -0.000000383              -0.000002769              -0.000003152               0.000000000               0.000000000               0.000000000               0.000000000              -0.000001579              -0.000011886              -0.000000883               0.000000894              -0.000004260              -0.000003366               0.000000000               0.000000000               0.000000000               0.000000000               0.000001524              -0.000011627              -0.000001314               0.000002025              -0.000004551              -0.000002526               0.000000000               0.000000000               0.000000000               0.000000000               0.000001888              -0.000004767              -0.000001394               0.000001304              -0.000002024              -0.000000720               0.000000000               0.000000000               0.000000000               0.000000000               0.000004165               0.000005985               0.000000483               0.000000814               0.000001724               0.000002538               0.000000000               0.000000000               0.000000000               0.000000000               0.000000076               0.000000049              -0.000000037               0.000000022               0.000000009               0.000000031               0.000000000               0.000000000               0.000000000               0.000000000              -0.000000053              -0.000000057               0.000000034              -0.000000013              -0.000000015              -0.000000028               0.000000000               0.000000000               0.000000000               0.000000000               0.000000044               0.000000005              -0.000000017               0.000000016              -0.000000004               0.000000012               0.000000000               0.000000000               0.000000000               0.000000000               0.000000140               0.000000101              -0.000000092               0.000000040               0.000000021               0.000000060               0.000000000               0.000000000               0.000000000               0.000000000              -0.000000371              -0.000000066               0.000000228              -0.000000131               0.000000022              -0.000000109               0.000000000               0.000000000               0.000000000               0.000000000               0.000000029              -0.000000201              -0.000000089               0.000000036              -0.000000079              -0.000000043               0.000000000               0.000000000               0.000000000               0.000000000               0.000000918               0.000000029              -0.000000414               0.000000341              -0.000000104               0.000000237               0.000000000               0.000000000               0.000000000               0.000000000              -0.000000057               0.000001013               0.000000338              -0.000000148               0.000000387               0.000000239               0.000000000               0.000000000               0.000000000               0.000000000              -0.000001275               0.000000704               0.000000614              -0.000000566               0.000000423              -0.000000143               0.000000000               0.000000000               0.000000000               0.000000000              -0.000002052              -0.000003437               0.000000260              -0.000000340              -0.000001032              -0.000001372               0.000000000               0.000000000               0.000000000               0.000000000              -0.000003011              -0.000008013              -0.000000360              -0.000000128              -0.000002629              -0.000002756               0.000000000               0.000000000               0.000000000               0.000000000              -0.000000875              -0.000006790              -0.000001275               0.000000521              -0.000002437              -0.000001916               0.000000000               0.000000000               0.000000000               0.000000000               0.000005257               0.000001739              -0.000001239               0.000001754              -0.000000005               0.000001749               0.000000000               0.000000000               0.000000000               0.000000000               0.000011906               0.000016597               0.000000509               0.000002390               0.000004736               0.000007126               0.000000000               0.000000000               0.000000000               0.000000000               0.000014769               0.000039204               0.000002689               0.000000638               0.000012855               0.000013493               0.000000000               0.000000000               0.000000000               0.000000000               0.000010117               0.000071308               0.000002688              -0.000005120               0.000025476               0.000020356               0.000000000               0.000000000               0.000000000               0.000000000               0.000012833               0.000100973               0.000005974              -0.000007809               0.000036260               0.000028451               0.000000000               0.000000000               0.000000000               0.000000000              -0.000000079              -0.000000060               0.000000037              -0.000000022              -0.000000013              -0.000000035               0.000000000               0.000000000               0.000000000               0.000000000              -0.000000047              -0.000000079               0.000000019              -0.000000008              -0.000000024              -0.000000032               0.000000000               0.000000000               0.000000000               0.000000000               0.000000097               0.000000111              -0.000000064               0.000000022               0.000000030               0.000000052               0.000000000               0.000000000               0.000000000               0.000000000              -0.000000109               0.000000068               0.000000098              -0.000000049               0.000000039              -0.000000010               0.000000000               0.000000000               0.000000000               0.000000000              -0.000000051              -0.000000411              -0.000000020               0.000000032              -0.000000148              -0.000000115               0.000000000               0.000000000               0.000000000               0.000000000               0.000000341               0.000000078              -0.000000216               0.000000118              -0.000000013               0.000000105               0.000000000               0.000000000               0.000000000               0.000000000              -0.000000036               0.000001555               0.000000335              -0.000000208               0.000000588               0.000000380               0.000000000               0.000000000               0.000000000               0.000000000              -0.000000704              -0.000000613               0.000000056              -0.000000187              -0.000000142              -0.000000329               0.000000000               0.000000000               0.000000000               0.000000000              -0.000001993              -0.000006374              -0.000000334               0.000000049              -0.000002141              -0.000002092               0.000000000               0.000000000               0.000000000               0.000000000              -0.000001526              -0.000004918              -0.000000205               0.000000043              -0.000001654              -0.000001611               0.000000000               0.000000000               0.000000000               0.000000000               0.000005546               0.000011151              -0.000000542               0.000000686               0.000003488               0.000004174               0.000000000               0.000000000               0.000000000               0.000000000               0.000017105               0.000038544               0.000000541               0.000001596               0.000012316               0.000013912               0.000000000               0.000000000               0.000000000               0.000000000               0.000027519               0.000071905               0.000004449               0.000001331               0.000023524               0.000024856               0.000000000               0.000000000               0.000000000               0.000000000               0.000032776               0.000110852               0.000009523              -0.000001566               0.000037472               0.000035906               0.000000000               0.000000000               0.000000000               0.000000000               0.000029526               0.000155895               0.000012360              -0.000008415               0.000054769               0.000046355               0.000000000               0.000000000               0.000000000               0.000000000               0.000017786               0.000204631               0.000009548              -0.000018909               0.000074513               0.000055604               0.000000000               0.000000000               0.000000000               0.000000000               0.000017194               0.000240402               0.000010566              -0.000023602               0.000088001               0.000064398               0.000000000               0.000000000               0.000000000               0.000000000              -0.000000111              -0.000000176               0.000000060              -0.000000019              -0.000000052              -0.000000072               0.000000000               0.000000000               0.000000000               0.000000000              -0.000000002              -0.000000015              -0.000000017               0.000000001              -0.000000005              -0.000000004               0.000000000               0.000000000               0.000000000               0.000000000               0.000000077               0.000000253              -0.000000000              -0.000000003               0.000000085               0.000000083               0.000000000               0.000000000               0.000000000               0.000000000              -0.000000195              -0.000000527               0.000000063              -0.000000007              -0.000000173              -0.000000180               0.000000000               0.000000000               0.000000000               0.000000000               0.000000076              -0.000000024              -0.000000111               0.000000032              -0.000000018               0.000000013               0.000000000               0.000000000               0.000000000               0.000000000               0.000000511               0.000002076               0.000000045              -0.000000068               0.000000715               0.000000647               0.000000000               0.000000000               0.000000000               0.000000000              -0.000000592              -0.000002013              -0.000000023               0.000000030              -0.000000681              -0.000000651               0.000000000               0.000000000               0.000000000               0.000000000              -0.000002142              -0.000007112               0.000000173               0.000000086              -0.000002399              -0.000002314               0.000000000               0.000000000               0.000000000               0.000000000               0.000002259               0.000005033               0.000000580               0.000000218               0.000001605               0.000001823               0.000000000               0.000000000               0.000000000               0.000000000               0.000015674               0.000038744              -0.000000405               0.000001035               0.000012570               0.000013604               0.000000000               0.000000000               0.000000000               0.000000000               0.000032186               0.000085387               0.000000174               0.000001396               0.000027996               0.000029393               0.000000000               0.000000000               0.000000000               0.000000000               0.000046150               0.000136936               0.000004366               0.000000189               0.000045582               0.000045771               0.000000000               0.000000000               0.000000000               0.000000000               0.000053681               0.000191692               0.000010620              -0.000003831               0.000065174               0.000061342               0.000000000               0.000000000               0.000000000               0.000000000               0.000051575               0.000250435               0.000015520              -0.000011964               0.000087465               0.000075502               0.000000000               0.000000000               0.000000000               0.000000000               0.000040129               0.000310323               0.000015930              -0.000023742               0.000111354               0.000087612               0.000000000               0.000000000               0.000000000               0.000000000               0.000022408               0.000366052               0.000010770              -0.000037353               0.000134467               0.000097114               0.000000000               0.000000000               0.000000000               0.000000000               0.000016334               0.000400305               0.000009556              -0.000043913               0.000148071               0.000104159               0.000000000               0.000000000               0.000000000               0.000000000              -0.000000117              -0.000000253               0.000000045              -0.000000012              -0.000000080              -0.000000092               0.000000000               0.000000000               0.000000000               0.000000000               0.000000097               0.000000230              -0.000000048               0.000000008               0.000000074               0.000000082               0.000000000               0.000000000               0.000000000               0.000000000              -0.000000063              -0.000000074               0.000000087              -0.000000014              -0.000000020              -0.000000034               0.000000000               0.000000000               0.000000000               0.000000000              -0.000000399              -0.000001081              -0.000000010              -0.000000015              -0.000000355              -0.000000370               0.000000000               0.000000000               0.000000000               0.000000000               0.000001180               0.000002843              -0.000000287               0.000000087               0.000000919               0.000001006               0.000000000               0.000000000               0.000000000               0.000000000              -0.000000174               0.000000104               0.000000432              -0.000000078               0.000000061              -0.000000018               0.000000000               0.000000000               0.000000000               0.000000000              -0.000004377              -0.000011623               0.000000453              -0.000000188              -0.000003812              -0.000004000               0.000000000               0.000000000               0.000000000               0.000000000               0.000000743               0.000000519              -0.000000823               0.000000214               0.000000102               0.000000315               0.000000000               0.000000000               0.000000000               0.000000000               0.000016128               0.000043409              -0.000002694               0.000000622               0.000014262               0.000014884               0.000000000               0.000000000               0.000000000               0.000000000               0.000036072               0.000101844              -0.000003084               0.000000797               0.000033682               0.000034479               0.000000000               0.000000000               0.000000000               0.000000000               0.000055670               0.000165097              -0.000001207               0.000000239               0.000054952               0.000055191               0.000000000               0.000000000               0.000000000               0.000000000               0.000070227               0.000229138               0.000002707              -0.000002307               0.000077148               0.000074840               0.000000000               0.000000000               0.000000000               0.000000000               0.000076494               0.000296828               0.000007700              -0.000008418               0.000101748               0.000093330               0.000000000               0.000000000               0.000000000               0.000000000               0.000073779               0.000367878               0.000010782              -0.000018318               0.000128731               0.000110413               0.000000000               0.000000000               0.000000000               0.000000000               0.000063943               0.000439000               0.000010621              -0.000030896               0.000156630               0.000125734               0.000000000               0.000000000               0.000000000               0.000000000               0.000050196               0.000503396               0.000006655              -0.000044101               0.000182497               0.000138396               0.000000000               0.000000000               0.000000000               0.000000000               0.000041067               0.000536409               0.000004153              -0.000051651               0.000196018               0.000144367               0.000000000               0.000000000               0.000000000               0.000000000              -0.000000079              -0.000000168               0.000000014              -0.000000009              -0.000000053              -0.000000062               0.000000000               0.000000000               0.000000000               0.000000000               0.000000178               0.000000485              -0.000000037               0.000000006               0.000000160               0.000000166               0.000000000               0.000000000               0.000000000               0.000000000              -0.000000265              -0.000000771               0.000000062              -0.000000003              -0.000000256              -0.000000259               0.000000000               0.000000000               0.000000000               0.000000000              -0.000000195              -0.000000482              -0.000000009              -0.000000013              -0.000000156              -0.000000169               0.000000000               0.000000000               0.000000000               0.000000000               0.000001623               0.000004742              -0.000000126               0.000000016               0.000001575               0.000001591               0.000000000               0.000000000               0.000000000               0.000000000              -0.000001687              -0.000005221               0.000000159               0.000000020              -0.000001747              -0.000001727               0.000000000               0.000000000               0.000000000               0.000000000              -0.000004587              -0.000013508              -0.000000017              -0.000000032              -0.000004492              -0.000004524               0.000000000               0.000000000               0.000000000               0.000000000               0.000004387               0.000013932               0.000000242              -0.000000096               0.000004676               0.000004580               0.000000000               0.000000000               0.000000000               0.000000000               0.000022496               0.000066819              -0.000000045               0.000000084               0.000022245               0.000022329               0.000000000               0.000000000               0.000000000               0.000000000               0.000045716               0.000134378              -0.000000517               0.000000346               0.000044677               0.000045023               0.000000000               0.000000000               0.000000000               0.000000000               0.000068284               0.000204097               0.000000503               0.000000094               0.000068000               0.000068095               0.000000000               0.000000000               0.000000000               0.000000000               0.000087717               0.000272628               0.000002471              -0.000001184               0.000091270               0.000090085               0.000000000               0.000000000               0.000000000               0.000000000               0.000100837               0.000341170               0.000005052              -0.000004832               0.000115333               0.000110500               0.000000000               0.000000000               0.000000000               0.000000000               0.000106634               0.000411998               0.000006991              -0.000011512               0.000141169               0.000129657               0.000000000               0.000000000               0.000000000               0.000000000               0.000106492               0.000485636               0.000007191              -0.000020770               0.000168800               0.000148030               0.000000000               0.000000000               0.000000000               0.000000000               0.000102478               0.000559258               0.000004534              -0.000031478               0.000196910               0.000165432               0.000000000               0.000000000               0.000000000               0.000000000               0.000095456               0.000595293               0.000000828              -0.000038616               0.000211301               0.000172685               0.000000000               0.000000000               0.000000000               0.000000000               0.000000110               0.000000280              -0.000000082               0.000000006               0.000000091               0.000000098               0.000000000               0.000000000               0.000000000               0.000000000               0.000000198               0.000000565              -0.000000003               0.000000004               0.000000187               0.000000191               0.000000000               0.000000000               0.000000000               0.000000000              -0.000000468              -0.000001419               0.000000022               0.000000002              -0.000000474              -0.000000472               0.000000000               0.000000000               0.000000000               0.000000000               0.000000232               0.000000785              -0.000000004              -0.000000011               0.000000265               0.000000254               0.000000000               0.000000000               0.000000000               0.000000000               0.000001624               0.000004789              -0.000000086               0.000000010               0.000001593               0.000001603               0.000000000               0.000000000               0.000000000               0.000000000              -0.000003008              -0.000009144               0.000000060               0.000000015              -0.000003053              -0.000003038               0.000000000               0.000000000               0.000000000               0.000000000              -0.000003929              -0.000011581               0.000000256              -0.000000026              -0.000003852              -0.000003878               0.000000000               0.000000000               0.000000000               0.000000000               0.000007273               0.000022160              -0.000000110              -0.000000043               0.000007401               0.000007358               0.000000000               0.000000000               0.000000000               0.000000000               0.000025632               0.000076653              -0.000000155               0.000000030               0.000025541               0.000025571               0.000000000               0.000000000               0.000000000               0.000000000               0.000048317               0.000143902              -0.000000185               0.000000131               0.000047923               0.000048054               0.000000000               0.000000000               0.000000000               0.000000000               0.000071154               0.000212845              -0.000000122               0.000000077               0.000070922               0.000070999               0.000000000               0.000000000               0.000000000               0.000000000               0.000094043               0.000282670               0.000000211              -0.000000068               0.000094245               0.000094178               0.000000000               0.000000000               0.000000000               0.000000000               0.000115274               0.000351438               0.000000653              -0.000000702               0.000117379               0.000116677               0.000000000               0.000000000               0.000000000               0.000000000               0.000132521               0.000420612               0.000001648              -0.000002881               0.000141163               0.000138282               0.000000000               0.000000000               0.000000000               0.000000000               0.000144832               0.000490512               0.000002213              -0.000007002               0.000165837               0.000158834               0.000000000               0.000000000               0.000000000               0.000000000               0.000153611               0.000562410               0.000001806              -0.000012697               0.000191701               0.000179003               0.000000000               0.000000000               0.000000000               0.000000000               0.000154059               0.000597435              -0.000000303              -0.000016907               0.000204779               0.000187872               0.000000000               0.000000000               0.000000000               0.000000000               0.000000424               0.000001107              -0.000000209               0.000000021               0.000000362               0.000000383               0.000000000               0.000000000               0.000000000               0.000000000               0.000000118               0.000000368               0.000000022              -0.000000002               0.000000123               0.000000122               0.000000000               0.000000000               0.000000000               0.000000000              -0.000000578              -0.000001833               0.000000010               0.000000012              -0.000000615              -0.000000603               0.000000000               0.000000000               0.000000000               0.000000000               0.000000823               0.000002559              -0.000000096              -0.000000011               0.000000857               0.000000846               0.000000000               0.000000000               0.000000000               0.000000000               0.000001016               0.000003147               0.000000145              -0.000000012               0.000001053               0.000001041               0.000000000               0.000000000               0.000000000               0.000000000              -0.000003847              -0.000011814              -0.000000129               0.000000034              -0.000003949              -0.000003915               0.000000000               0.000000000               0.000000000               0.000000000              -0.000002610              -0.000007860               0.000000074               0.000000004              -0.000002621              -0.000002618               0.000000000               0.000000000               0.000000000               0.000000000               0.000009444               0.000028738               0.000000279              -0.000000051               0.000009596               0.000009545               0.000000000               0.000000000               0.000000000               0.000000000               0.000028154               0.000085306              -0.000000034              -0.000000106               0.000028470               0.000028365               0.000000000               0.000000000               0.000000000               0.000000000               0.000050800               0.000151696              -0.000000238               0.000000088               0.000050536               0.000050624               0.000000000               0.000000000               0.000000000               0.000000000               0.000073751               0.000219646              -0.000000442               0.000000201               0.000073148               0.000073349               0.000000000               0.000000000               0.000000000               0.000000000               0.000096847               0.000289727              -0.000000128               0.000000102               0.000096541               0.000096643               0.000000000               0.000000000               0.000000000               0.000000000               0.000120036               0.000358062              -0.000000268               0.000000256               0.000119268               0.000119524               0.000000000               0.000000000               0.000000000               0.000000000               0.000143228               0.000426806              -0.000000334               0.000000360               0.000142147               0.000142507               0.000000000               0.000000000               0.000000000               0.000000000               0.000164301               0.000494920              -0.000000179              -0.000000252               0.000165056               0.000164804               0.000000000               0.000000000               0.000000000               0.000000000               0.000182833               0.000564440               0.000000232              -0.000001993               0.000188809               0.000186816               0.000000000               0.000000000               0.000000000               0.000000000               0.000189667               0.000598625              -0.000000312              -0.000003703               0.000200774               0.000197071               0.000000000               0.000000000               0.000000000               0.000000000               0.000000679               0.000001825              -0.000000220               0.000000026               0.000000599               0.000000626               0.000000000               0.000000000               0.000000000               0.000000000              -0.000000003              -0.000000013              -0.000000009               0.000000000              -0.000000004              -0.000000004               0.000000000               0.000000000               0.000000000               0.000000000              -0.000000662              -0.000002003               0.000000055               0.000000002              -0.000000668              -0.000000666               0.000000000               0.000000000               0.000000000               0.000000000               0.000001465               0.000004323              -0.000000142               0.000000009               0.000001438               0.000001447               0.000000000               0.000000000               0.000000000               0.000000000               0.000000332               0.000001114               0.000000062              -0.000000015               0.000000376               0.000000361               0.000000000               0.000000000               0.000000000               0.000000000              -0.000004745              -0.000014284               0.000000171               0.000000006              -0.000004763              -0.000004757               0.000000000               0.000000000               0.000000000               0.000000000              -0.000001193              -0.000003585              -0.000000073               0.000000001              -0.000001195              -0.000001195               0.000000000               0.000000000               0.000000000               0.000000000               0.000011900               0.000035551              -0.000000115               0.000000019               0.000011844               0.000011863               0.000000000               0.000000000               0.000000000               0.000000000               0.000030694               0.000092407               0.000000017              -0.000000041               0.000030816               0.000030775               0.000000000               0.000000000               0.000000000               0.000000000               0.000052472               0.000158454               0.000000156              -0.000000130               0.000052860               0.000052731               0.000000000               0.000000000               0.000000000               0.000000000               0.000075233               0.000225465               0.000000096               0.000000029               0.000075144               0.000075174               0.000000000               0.000000000               0.000000000               0.000000000               0.000098143               0.000293763              -0.000000039               0.000000083               0.000097892               0.000097976               0.000000000               0.000000000               0.000000000               0.000000000               0.000120672               0.000361801              -0.000000068               0.000000027               0.000120590               0.000120617               0.000000000               0.000000000               0.000000000               0.000000000               0.000144102               0.000430215              -0.000000134               0.000000261               0.000143316               0.000143578               0.000000000               0.000000000               0.000000000               0.000000000               0.000167799               0.000497791              -0.000000320               0.000000701               0.000165695               0.000166396               0.000000000               0.000000000               0.000000000               0.000000000               0.000191150               0.000565894              -0.000000157               0.000000945               0.000188315               0.000189259               0.000000000               0.000000000               0.000000000               0.000000000               0.000201968               0.000599163              -0.000000178               0.000000843               0.000199438               0.000200281               0.000000000               0.000000000               0.000000000               0.000000000               0.000000667               0.000001883              -0.000000100               0.000000015               0.000000623               0.000000638               0.000000000               0.000000000               0.000000000               0.000000000              -0.000000148              -0.000000555              -0.000000024               0.000000014              -0.000000190              -0.000000176               0.000000000               0.000000000               0.000000000               0.000000000              -0.000000559              -0.000001558              -0.000000020              -0.000000015              -0.000000514              -0.000000529               0.000000000               0.000000000               0.000000000               0.000000000               0.000001732               0.000005141               0.000000016               0.000000007               0.000001711               0.000001718               0.000000000               0.000000000               0.000000000               0.000000000              -0.000000220              -0.000000833              -0.000000038               0.000000021              -0.000000285              -0.000000263               0.000000000               0.000000000               0.000000000               0.000000000              -0.000004989              -0.000014801               0.000000030              -0.000000021              -0.000004927              -0.000004947               0.000000000               0.000000000               0.000000000               0.000000000              -0.000000397              -0.000001006               0.000000158              -0.000000023              -0.000000328              -0.000000351               0.000000000               0.000000000               0.000000000               0.000000000               0.000013483               0.000040515              -0.000000069              -0.000000008               0.000013508               0.000013499               0.000000000               0.000000000               0.000000000               0.000000000               0.000033245               0.000099389              -0.000000096               0.000000043               0.000033115               0.000033158               0.000000000               0.000000000               0.000000000               0.000000000               0.000054721               0.000164021              -0.000000115               0.000000018               0.000054667               0.000054685               0.000000000               0.000000000               0.000000000               0.000000000               0.000076573               0.000230267              -0.000000039              -0.000000068               0.000076778               0.000076709               0.000000000               0.000000000               0.000000000               0.000000000               0.000099181               0.000297629               0.000000088              -0.000000011               0.000099212               0.000099202               0.000000000               0.000000000               0.000000000               0.000000000               0.000121452               0.000364592               0.000000128              -0.000000029               0.000121539               0.000121510               0.000000000               0.000000000               0.000000000               0.000000000               0.000143651               0.000432265               0.000000237              -0.000000164               0.000144142               0.000143978               0.000000000               0.000000000               0.000000000               0.000000000               0.000166075               0.000499567               0.000000210              -0.000000168               0.000166577               0.000166409               0.000000000               0.000000000               0.000000000               0.000000000               0.000189052               0.000566899               0.000000144               0.000000032               0.000188954               0.000188986               0.000000000               0.000000000               0.000000000               0.000000000               0.000200327               0.000599295               0.000000105               0.000000211               0.000199693               0.000199904               0.000000000               0.000000000               0.000000000               0.000000000               0.000000518               0.000001638              -0.000000030              -0.000000010               0.000000550               0.000000539               0.000000000               0.000000000               0.000000000               0.000000000              -0.000000357              -0.000001171               0.000000008               0.000000013              -0.000000395              -0.000000382               0.000000000               0.000000000               0.000000000               0.000000000              -0.000000296              -0.000000868              -0.000000062              -0.000000002              -0.000000289              -0.000000291               0.000000000               0.000000000               0.000000000               0.000000000               0.000001883               0.000005789               0.000000001              -0.000000018               0.000001936               0.000001918               0.000000000               0.000000000               0.000000000               0.000000000              -0.000000956              -0.000003051               0.000000059               0.000000023              -0.000001025              -0.000001002               0.000000000               0.000000000               0.000000000               0.000000000              -0.000004967              -0.000014933              -0.000000048               0.000000004              -0.000004979              -0.000004975               0.000000000               0.000000000               0.000000000               0.000000000               0.000000733               0.000002359               0.000000050              -0.000000020               0.000000793               0.000000773               0.000000000               0.000000000               0.000000000               0.000000000               0.000014682               0.000044171               0.000000057              -0.000000016               0.000014729               0.000014713               0.000000000               0.000000000               0.000000000               0.000000000               0.000034219               0.000102937              -0.000000050              -0.000000035               0.000034324               0.000034289               0.000000000               0.000000000               0.000000000               0.000000000               0.000055941               0.000167775              -0.000000075               0.000000006               0.000055923               0.000055929               0.000000000               0.000000000               0.000000000               0.000000000               0.000078148               0.000234168              -0.000000019               0.000000034               0.000078044               0.000078078               0.000000000               0.000000000               0.000000000               0.000000000               0.000100333               0.000300838              -0.000000026               0.000000020               0.000100272               0.000100292               0.000000000               0.000000000               0.000000000               0.000000000               0.000122540               0.000367159              -0.000000070               0.000000058               0.000122366               0.000122423               0.000000000               0.000000000               0.000000000               0.000000000               0.000144734               0.000433772              -0.000000065               0.000000054               0.000144571               0.000144625               0.000000000               0.000000000               0.000000000               0.000000000               0.000166640               0.000500326              -0.000000022              -0.000000051               0.000166790               0.000166740               0.000000000               0.000000000               0.000000000               0.000000000               0.000188608               0.000567146               0.000000026              -0.000000165               0.000189102               0.000188937               0.000000000               0.000000000               0.000000000               0.000000000               0.000199111               0.000598914               0.000000023              -0.000000198               0.000199702               0.000199504               0.000000000               0.000000000               0.000000000               0.000000000               0.000000425               0.000001380              -0.000000004              -0.000000013               0.000000464               0.000000451               0.000000000               0.000000000               0.000000000               0.000000000              -0.000000505              -0.000001501              -0.000000003              -0.000000002              -0.000000500              -0.000000502               0.000000000               0.000000000               0.000000000               0.000000000              -0.000000151              -0.000000452              -0.000000015              -0.000000000              -0.000000151              -0.000000151               0.000000000               0.000000000               0.000000000               0.000000000               0.000001978               0.000006009              -0.000000016              -0.000000009               0.000002006               0.000001997               0.000000000               0.000000000               0.000000000               0.000000000              -0.000001308              -0.000004016               0.000000017               0.000000011              -0.000001343              -0.000001331               0.000000000               0.000000000               0.000000000               0.000000000              -0.000004972              -0.000015041               0.000000043               0.000000016              -0.000005019              -0.000005003               0.000000000               0.000000000               0.000000000               0.000000000               0.000001133               0.000003628              -0.000000021              -0.000000029               0.000001219               0.000001190               0.000000000               0.000000000               0.000000000               0.000000000               0.000015529               0.000046911              -0.000000049              -0.000000040               0.000015650               0.000015610               0.000000000               0.000000000               0.000000000               0.000000000               0.000035428               0.000106172               0.000000036               0.000000014               0.000035386               0.000035400               0.000000000               0.000000000               0.000000000               0.000000000               0.000056743               0.000169973               0.000000009               0.000000032               0.000056646               0.000056678               0.000000000               0.000000000               0.000000000               0.000000000               0.000078598               0.000235779              -0.000000015               0.000000002               0.000078592               0.000078593               0.000000000               0.000000000               0.000000000               0.000000000               0.000100656               0.000302223               0.000000006              -0.000000032               0.000100751               0.000100719               0.000000000               0.000000000               0.000000000               0.000000000               0.000122786               0.000368629               0.000000032              -0.000000034               0.000122886               0.000122853               0.000000000               0.000000000               0.000000000               0.000000000               0.000145101               0.000435097               0.000000022               0.000000026               0.000145022               0.000145048               0.000000000               0.000000000               0.000000000               0.000000000               0.000167319               0.000501273              -0.000000012               0.000000086               0.000167061               0.000167147               0.000000000               0.000000000               0.000000000               0.000000000               0.000189419               0.000567554              -0.000000011               0.000000088               0.000189153               0.000189241               0.000000000               0.000000000               0.000000000               0.000000000               0.000199789               0.000598875              -0.000000015               0.000000062               0.000199603               0.000199664               0.000000000               0.000000000               0.000000000               0.000000000               0.000000387               0.000001171               0.000000000              -0.000000001               0.000000391               0.000000389               0.000000000               0.000000000               0.000000000               0.000000000              -0.000000562              -0.000001623               0.000000000              -0.000000008              -0.000000538              -0.000000546               0.000000000               0.000000000               0.000000000               0.000000000              -0.000000097              -0.000000187               0.000000000              -0.000000013              -0.000000058              -0.000000071               0.000000000               0.000000000               0.000000000               0.000000000               0.000002043               0.000005985               0.000000000               0.000000018               0.000001989               0.000002007               0.000000000               0.000000000               0.000000000               0.000000000              -0.000001491              -0.000004555              -0.000000000               0.000000010              -0.000001522              -0.000001511               0.000000000               0.000000000               0.000000000               0.000000000              -0.000005021              -0.000014793              -0.000000000              -0.000000034              -0.000004920              -0.000004954               0.000000000               0.000000000               0.000000000               0.000000000               0.000001485               0.000004395               0.000000000               0.000000008               0.000001462               0.000001470               0.000000000               0.000000000               0.000000000               0.000000000               0.000015853               0.000047409              -0.000000000               0.000000019               0.000015797               0.000015815               0.000000000               0.000000000               0.000000000               0.000000000               0.000035461               0.000106726              -0.000000000              -0.000000043               0.000035589               0.000035546               0.000000000               0.000000000               0.000000000               0.000000000               0.000056880               0.000170985               0.000000000              -0.000000043               0.000057009               0.000056966               0.000000000               0.000000000               0.000000000               0.000000000               0.000079033               0.000236937               0.000000000               0.000000020               0.000078971               0.000078992               0.000000000               0.000000000               0.000000000               0.000000000               0.000101155               0.000302913              -0.000000000               0.000000069               0.000100947               0.000101016               0.000000000               0.000000000               0.000000000               0.000000000               0.000123061               0.000368855               0.000000000               0.000000041               0.000122937               0.000122978               0.000000000               0.000000000               0.000000000               0.000000000               0.000144940               0.000435135              -0.000000000              -0.000000039               0.000145057               0.000145017               0.000000000               0.000000000               0.000000000               0.000000000               0.000166912               0.000501389              -0.000000000              -0.000000082               0.000167155               0.000167074               0.000000000               0.000000000               0.000000000               0.000000000               0.000189062               0.000567685              -0.000000000              -0.000000062               0.000189247               0.000189185               0.000000000               0.000000000               0.000000000               0.000000000               0.000199553               0.000598946               0.000000000              -0.000000036               0.000199659               0.000199623               0.000000000               0.000000000               0.000000000               0.000000000              -0.000000031               0.000000011               0.000000000              -0.000000013               0.000000008              -0.000000005               0.000000000               0.000000000               0.000000000               0.000000000              -0.000000006              -0.000000006               0.000000000              -0.000000001              -0.000000002              -0.000000003               0.000000000               0.000000000               0.000000000               0.000000000               0.000000054              -0.000000010               0.000000000               0.000000022              -0.000000011               0.000000011               0.000000000               0.000000000               0.000000000               0.000000000              -0.000000000               0.000000054              -0.000000000              -0.000000007               0.000000020               0.000000014               0.000000000               0.000000000               0.000000000               0.000000000              -0.000000132              -0.000000003              -0.000000000              -0.000000049               0.000000015              -0.000000034               0.000000000               0.000000000               0.000000000               0.000000000               0.000000029              -0.000000142              -0.000000000               0.000000029              -0.000000057              -0.000000028               0.000000000               0.000000000               0.000000000               0.000000000               0.000000289               0.000000050               0.000000000               0.000000102              -0.000000017               0.000000085               0.000000000               0.000000000               0.000000000               0.000000000              -0.000000024               0.000000319               0.000000000              -0.000000049               0.000000122               0.000000074               0.000000000               0.000000000               0.000000000               0.000000000              -0.000000560              -0.000000056              -0.000000000              -0.000000203               0.000000049              -0.000000154               0.000000000               0.000000000               0.000000000               0.000000000              -0.000000262              -0.000000634              -0.000000000              -0.000000019              -0.000000205              -0.000000224               0.000000000               0.000000000               0.000000000               0.000000000               0.000000634              -0.000000290              -0.000000000               0.000000274              -0.000000188               0.000000086               0.000000000               0.000000000               0.000000000               0.000000000               0.000000888               0.000000762              -0.000000000               0.000000238               0.000000175               0.000000413               0.000000000               0.000000000               0.000000000               0.000000000               0.000000225               0.000001216              -0.000000000              -0.000000068               0.000000428               0.000000360               0.000000000               0.000000000               0.000000000               0.000000000              -0.000000533               0.000000549              -0.000000000              -0.000000269               0.000000273               0.000000004               0.000000000               0.000000000               0.000000000               0.000000000              -0.000000739              -0.000000682              -0.000000000              -0.000000192              -0.000000163              -0.000000355               0.000000000               0.000000000               0.000000000               0.000000000              -0.000000447              -0.000001717               0.000000000               0.000000047              -0.000000588              -0.000000541               0.000000000               0.000000000               0.000000000               0.000000000              -0.000000236              -0.000002145               0.000000000               0.000000180              -0.000000775              -0.000000595               0.000000000               0.000000000               0.000000000               0.000000000               0.000000045               0.000000003               0.000000012               0.000000016              -0.000000004               0.000000012               0.000000000               0.000000000               0.000000000               0.000000000               0.000000024              -0.000000002               0.000000007               0.000000009              -0.000000004               0.000000006               0.000000000               0.000000000               0.000000000               0.000000000              -0.000000051               0.000000004              -0.000000022              -0.000000020               0.000000008              -0.000000012               0.000000000               0.000000000               0.000000000               0.000000000              -0.000000033              -0.000000029               0.000000010              -0.000000009              -0.000000007              -0.000000016               0.000000000               0.000000000               0.000000000               0.000000000               0.000000156               0.000000002               0.000000033               0.000000058              -0.000000019               0.000000039               0.000000000               0.000000000               0.000000000               0.000000000               0.000000043               0.000000106              -0.000000065               0.000000003               0.000000034               0.000000037               0.000000000               0.000000000               0.000000000               0.000000000              -0.000000371              -0.000000038              -0.000000033              -0.000000134               0.000000032              -0.000000102               0.000000000               0.000000000               0.000000000               0.000000000              -0.000000144              -0.000000285               0.000000146              -0.000000018              -0.000000089              -0.000000107               0.000000000               0.000000000               0.000000000               0.000000000               0.000000651               0.000000015               0.000000079               0.000000242              -0.000000076               0.000000166               0.000000000               0.000000000               0.000000000               0.000000000               0.000000621               0.000000622              -0.000000150               0.000000155               0.000000156               0.000000311               0.000000000               0.000000000               0.000000000               0.000000000              -0.000000421               0.000000484              -0.000000182              -0.000000219               0.000000234               0.000000016               0.000000000               0.000000000               0.000000000               0.000000000              -0.000001130              -0.000000555              -0.000000095              -0.000000354              -0.000000067              -0.000000421               0.000000000               0.000000000               0.000000000               0.000000000              -0.000000783              -0.000001443              -0.000000048              -0.000000113              -0.000000443              -0.000000556               0.000000000               0.000000000               0.000000000               0.000000000               0.000000064              -0.000001370               0.000000021               0.000000195              -0.000000522              -0.000000327               0.000000000               0.000000000               0.000000000               0.000000000               0.000000601              -0.000000401               0.000000129               0.000000276              -0.000000225               0.000000050               0.000000000               0.000000000               0.000000000               0.000000000               0.000000519               0.000000974               0.000000156               0.000000073               0.000000300               0.000000373               0.000000000               0.000000000               0.000000000               0.000000000               0.000000439               0.000001925               0.000000046              -0.000000076               0.000000667               0.000000591               0.000000000               0.000000000               0.000000000               0.000000000              -0.000000038              -0.000000034               0.000000003              -0.000000010              -0.000000008              -0.000000018               0.000000000               0.000000000               0.000000000               0.000000000              -0.000000054              -0.000000008              -0.000000023              -0.000000019               0.000000004              -0.000000015               0.000000000               0.000000000               0.000000000               0.000000000               0.000000024               0.000000022               0.000000023               0.000000006               0.000000005               0.000000012               0.000000000               0.000000000               0.000000000               0.000000000               0.000000125               0.000000003               0.000000027               0.000000047              -0.000000015               0.000000032               0.000000000               0.000000000               0.000000000               0.000000000              -0.000000165              -0.000000030              -0.000000083              -0.000000058               0.000000009              -0.000000049               0.000000000               0.000000000               0.000000000               0.000000000              -0.000000280              -0.000000050               0.000000042              -0.000000099               0.000000016              -0.000000083               0.000000000               0.000000000               0.000000000               0.000000000               0.000000479               0.000000049               0.000000148               0.000000174              -0.000000042               0.000000132               0.000000000               0.000000000               0.000000000               0.000000000               0.000000678               0.000000238              -0.000000152               0.000000225               0.000000004               0.000000229               0.000000000               0.000000000               0.000000000               0.000000000              -0.000000637               0.000000076              -0.000000249              -0.000000248               0.000000108              -0.000000140               0.000000000               0.000000000               0.000000000               0.000000000              -0.000001515              -0.000000558               0.000000079              -0.000000498              -0.000000020              -0.000000518               0.000000000               0.000000000               0.000000000               0.000000000              -0.000000536              -0.000000992               0.000000256              -0.000000077              -0.000000305              -0.000000382               0.000000000               0.000000000               0.000000000               0.000000000               0.000001149              -0.000000372               0.000000235               0.000000477              -0.000000283               0.000000194               0.000000000               0.000000000               0.000000000               0.000000000               0.000001994               0.000001268               0.000000250               0.000000589               0.000000226               0.000000816               0.000000000               0.000000000               0.000000000               0.000000000               0.000001576               0.000003020               0.000000185               0.000000214               0.000000935               0.000001149               0.000000000               0.000000000               0.000000000               0.000000000               0.000000511               0.000003962              -0.000000027              -0.000000303               0.000001422               0.000001118               0.000000000               0.000000000               0.000000000               0.000000000              -0.000000124               0.000003391              -0.000000213              -0.000000470               0.000001287               0.000000817               0.000000000               0.000000000               0.000000000               0.000000000              -0.000000556               0.000002015              -0.000000050              -0.000000461               0.000000825               0.000000365               0.000000000               0.000000000               0.000000000               0.000000000              -0.000000076              -0.000000009              -0.000000034              -0.000000028               0.000000006              -0.000000021               0.000000000               0.000000000               0.000000000               0.000000000               0.000000026               0.000000038               0.000000019               0.000000005               0.000000011               0.000000016               0.000000000               0.000000000               0.000000000               0.000000000               0.000000058              -0.000000014               0.000000029               0.000000023              -0.000000012               0.000000011               0.000000000               0.000000000               0.000000000               0.000000000              -0.000000201              -0.000000049              -0.000000095              -0.000000069               0.000000007              -0.000000063               0.000000000               0.000000000               0.000000000               0.000000000               0.000000012               0.000000051               0.000000058              -0.000000002               0.000000018               0.000000016               0.000000000               0.000000000               0.000000000               0.000000000               0.000000599               0.000000092               0.000000133               0.000000213              -0.000000041               0.000000173               0.000000000               0.000000000               0.000000000               0.000000000              -0.000000247              -0.000000052              -0.000000221              -0.000000086               0.000000011              -0.000000075               0.000000000               0.000000000               0.000000000               0.000000000              -0.000001373              -0.000000262              -0.000000122              -0.000000482               0.000000073              -0.000000409               0.000000000               0.000000000               0.000000000               0.000000000              -0.000000102              -0.000000296               0.000000302              -0.000000001              -0.000000098              -0.000000099               0.000000000               0.000000000               0.000000000               0.000000000               0.000002008               0.000000196               0.000000272               0.000000728              -0.000000177               0.000000551               0.000000000               0.000000000               0.000000000               0.000000000               0.000002278               0.000001427               0.000000072               0.000000676               0.000000250               0.000000926               0.000000000               0.000000000               0.000000000               0.000000000               0.000000736               0.000002483              -0.000000115              -0.000000035               0.000000839               0.000000805               0.000000000               0.000000000               0.000000000               0.000000000              -0.000001526               0.000001795              -0.000000440              -0.000000797               0.000000864               0.000000067               0.000000000               0.000000000               0.000000000               0.000000000              -0.000003180              -0.000001119              -0.000000630              -0.000001053              -0.000000022              -0.000001075               0.000000000               0.000000000               0.000000000               0.000000000              -0.000003161              -0.000005923              -0.000000492              -0.000000445              -0.000001826              -0.000002271               0.000000000               0.000000000               0.000000000               0.000000000              -0.000001863              -0.000011360              -0.000000099               0.000000721              -0.000004027              -0.000003306               0.000000000               0.000000000               0.000000000               0.000000000              -0.000001383              -0.000014572               0.000000339               0.000001303              -0.000005292              -0.000003989               0.000000000               0.000000000               0.000000000               0.000000000               0.000000130               0.000000081               0.000000031               0.000000039               0.000000014               0.000000053               0.000000000               0.000000000               0.000000000               0.000000000               0.000000057               0.000000014               0.000000027               0.000000020              -0.000000002               0.000000018               0.000000000               0.000000000               0.000000000               0.000000000              -0.000000138              -0.000000067              -0.000000080              -0.000000043              -0.000000008              -0.000000051               0.000000000               0.000000000               0.000000000               0.000000000               0.000000104               0.000000055               0.000000061               0.000000032               0.000000008               0.000000040               0.000000000               0.000000000               0.000000000               0.000000000               0.000000302               0.000000065               0.000000121               0.000000105              -0.000000013               0.000000092               0.000000000               0.000000000               0.000000000               0.000000000              -0.000000607              -0.000000119              -0.000000285              -0.000000213               0.000000031              -0.000000182               0.000000000               0.000000000               0.000000000               0.000000000              -0.000000485              -0.000000136              -0.000000017              -0.000000165               0.000000010              -0.000000155               0.000000000               0.000000000               0.000000000               0.000000000               0.000001372               0.000000038               0.000000473               0.000000510              -0.000000157               0.000000353               0.000000000               0.000000000               0.000000000               0.000000000               0.000001440               0.000000649               0.000000119               0.000000459               0.000000063               0.000000522               0.000000000               0.000000000               0.000000000               0.000000000              -0.000000507               0.000001337              -0.000000384              -0.000000357               0.000000565               0.000000208               0.000000000               0.000000000               0.000000000               0.000000000              -0.000002349               0.000000100              -0.000000692              -0.000000893               0.000000331              -0.000000562               0.000000000               0.000000000               0.000000000               0.000000000              -0.000003857              -0.000003965              -0.000000688              -0.000000951              -0.000001005              -0.000001956               0.000000000               0.000000000               0.000000000               0.000000000              -0.000003918              -0.000008691              -0.000000005              -0.000000383              -0.000002769              -0.000003152               0.000000000               0.000000000               0.000000000               0.000000000              -0.000001579              -0.000011886               0.000000883               0.000000894              -0.000004260              -0.000003366               0.000000000               0.000000000               0.000000000               0.000000000               0.000001524              -0.000011627               0.000001314               0.000002025              -0.000004551              -0.000002526               0.000000000               0.000000000               0.000000000               0.000000000               0.000001888              -0.000004767               0.000001394               0.000001304              -0.000002024              -0.000000720               0.000000000               0.000000000               0.000000000               0.000000000               0.000004165               0.000005985              -0.000000483               0.000000814               0.000001724               0.000002538               0.000000000               0.000000000               0.000000000               0.000000000               0.000000076               0.000000049               0.000000037               0.000000022               0.000000009               0.000000031               0.000000000               0.000000000               0.000000000               0.000000000              -0.000000053              -0.000000057              -0.000000034              -0.000000013              -0.000000015              -0.000000028               0.000000000               0.000000000               0.000000000               0.000000000               0.000000044               0.000000005               0.000000017               0.000000016              -0.000000004               0.000000012               0.000000000               0.000000000               0.000000000               0.000000000               0.000000140               0.000000101               0.000000092               0.000000040               0.000000021               0.000000060               0.000000000               0.000000000               0.000000000               0.000000000              -0.000000371              -0.000000066              -0.000000228              -0.000000131               0.000000022              -0.000000109               0.000000000               0.000000000               0.000000000               0.000000000               0.000000029              -0.000000201               0.000000089               0.000000036              -0.000000079              -0.000000043               0.000000000               0.000000000               0.000000000               0.000000000               0.000000918               0.000000029               0.000000414               0.000000341              -0.000000104               0.000000237               0.000000000               0.000000000               0.000000000               0.000000000              -0.000000057               0.000001013              -0.000000338              -0.000000148               0.000000387               0.000000239               0.000000000               0.000000000               0.000000000               0.000000000              -0.000001275               0.000000704              -0.000000614              -0.000000566               0.000000423              -0.000000143               0.000000000               0.000000000               0.000000000               0.000000000              -0.000002052              -0.000003437              -0.000000260              -0.000000340              -0.000001032              -0.000001372               0.000000000               0.000000000               0.000000000               0.000000000              -0.000003011              -0.000008013               0.000000360              -0.000000128              -0.000002629              -0.000002756               0.000000000               0.000000000               0.000000000               0.000000000              -0.000000875              -0.000006790               0.000001275               0.000000521              -0.000002437              -0.000001916               0.000000000               0.000000000               0.000000000               0.000000000               0.000005257               0.000001739               0.000001239               0.000001754              -0.000000005               0.000001749               0.000000000               0.000000000               0.000000000               0.000000000               0.000011906               0.000016597              -0.000000509               0.000002390               0.000004736               0.000007126               0.000000000               0.000000000               0.000000000               0.000000000               0.000014769               0.000039204              -0.000002689               0.000000638               0.000012855               0.000013493               0.000000000               0.000000000               0.000000000               0.000000000               0.000010117               0.000071308              -0.000002688              -0.000005120               0.000025476               0.000020356               0.000000000               0.000000000               0.000000000               0.000000000               0.000012833               0.000100973              -0.000005974              -0.000007809               0.000036260               0.000028451               0.000000000               0.000000000               0.000000000               0.000000000              -0.000000079              -0.000000060              -0.000000037              -0.000000022              -0.000000013              -0.000000035               0.000000000               0.000000000               0.000000000               0.000000000              -0.000000047              -0.000000079              -0.000000019              -0.000000008              -0.000000024              -0.000000032               0.000000000               0.000000000               0.000000000               0.000000000               0.000000097               0.000000111               0.000000064               0.000000022               0.000000030               0.000000052               0.000000000               0.000000000               0.000000000               0.000000000              -0.000000109               0.000000068              -0.000000098              -0.000000049               0.000000039              -0.000000010               0.000000000               0.000000000               0.000000000               0.000000000              -0.000000051              -0.000000411               0.000000020               0.000000032              -0.000000148              -0.000000115               0.000000000               0.000000000               0.000000000               0.000000000               0.000000341               0.000000078               0.000000216               0.000000118              -0.000000013               0.000000105               0.000000000               0.000000000               0.000000000               0.000000000              -0.000000036               0.000001555              -0.000000335              -0.000000208               0.000000588               0.000000380               0.000000000               0.000000000               0.000000000               0.000000000              -0.000000704              -0.000000613              -0.000000056              -0.000000187              -0.000000142              -0.000000329               0.000000000               0.000000000               0.000000000               0.000000000              -0.000001993              -0.000006374               0.000000334               0.000000049              -0.000002141              -0.000002092               0.000000000               0.000000000               0.000000000               0.000000000              -0.000001526              -0.000004918               0.000000205               0.000000043              -0.000001654              -0.000001611               0.000000000               0.000000000               0.000000000               0.000000000               0.000005546               0.000011151               0.000000542               0.000000686               0.000003488               0.000004174               0.000000000               0.000000000               0.000000000               0.000000000               0.000017105               0.000038544              -0.000000541               0.000001596               0.000012316               0.000013912               0.000000000               0.000000000               0.000000000               0.000000000               0.000027519               0.000071905              -0.000004449               0.000001331               0.000023524               0.000024856               0.000000000               0.000000000               0.000000000               0.000000000               0.000032776               0.000110852              -0.000009523              -0.000001566               0.000037472               0.000035906               0.000000000               0.000000000               0.000000000               0.000000000               0.000029526               0.000155895              -0.000012360              -0.000008415               0.000054769               0.000046355               0.000000000               0.000000000               0.000000000               0.000000000               0.000017786               0.000204631              -0.000009548              -0.000018909               0.000074513               0.000055604               0.000000000               0.000000000               0.000000000               0.000000000               0.000017194               0.000240402              -0.000010566              -0.000023602               0.000088001               0.000064398               0.000000000               0.000000000               0.000000000               0.000000000              -0.000000111              -0.000000176              -0.000000060              -0.000000019              -0.000000052              -0.000000072               0.000000000               0.000000000               0.000000000               0.000000000              -0.000000002              -0.000000015               0.000000017               0.000000001              -0.000000005              -0.000000004               0.000000000               0.000000000               0.000000000               0.000000000               0.000000077               0.000000253               0.000000000              -0.000000003               0.000000085               0.000000083               0.000000000               0.000000000               0.000000000               0.000000000              -0.000000195              -0.000000527              -0.000000063              -0.000000007              -0.000000173              -0.000000180               0.000000000               0.000000000               0.000000000               0.000000000               0.000000076              -0.000000024               0.000000111               0.000000032              -0.000000018               0.000000013               0.000000000               0.000000000               0.000000000               0.000000000               0.000000511               0.000002076              -0.000000045              -0.000000068               0.000000715               0.000000647               0.000000000               0.000000000               0.000000000               0.000000000              -0.000000592              -0.000002013               0.000000023               0.000000030              -0.000000681              -0.000000651               0.000000000               0.000000000               0.000000000               0.000000000              -0.000002142              -0.000007112              -0.000000173               0.000000086              -0.000002399              -0.000002314               0.000000000               0.000000000               0.000000000               0.000000000               0.000002259               0.000005033              -0.000000580               0.000000218               0.000001605               0.000001823               0.000000000               0.000000000               0.000000000               0.000000000               0.000015674               0.000038744               0.000000405               0.000001035               0.000012570               0.000013604               0.000000000               0.000000000               0.000000000               0.000000000               0.000032186               0.000085387              -0.000000174               0.000001396               0.000027996               0.000029393               0.000000000               0.000000000               0.000000000               0.000000000               0.000046150               0.000136936              -0.000004366               0.000000189               0.000045582               0.000045771               0.000000000               0.000000000               0.000000000               0.000000000               0.000053681               0.000191692              -0.000010620              -0.000003831               0.000065174               0.000061342               0.000000000               0.000000000               0.000000000               0.000000000               0.000051575               0.000250435              -0.000015520              -0.000011964               0.000087465               0.000075502               0.000000000               0.000000000               0.000000000               0.000000000               0.000040129               0.000310323              -0.000015930              -0.000023742               0.000111354               0.000087612               0.000000000               0.000000000               0.000000000               0.000000000               0.000022408               0.000366052              -0.000010770              -0.000037353               0.000134467               0.000097114               0.000000000               0.000000000               0.000000000               0.000000000               0.000016334               0.000400305              -0.000009556              -0.000043913               0.000148071               0.000104159               0.000000000               0.000000000               0.000000000               0.000000000              -0.000000117              -0.000000253              -0.000000045              -0.000000012              -0.000000080              -0.000000092               0.000000000               0.000000000               0.000000000               0.000000000               0.000000097               0.000000230               0.000000048               0.000000008               0.000000074               0.000000082               0.000000000               0.000000000               0.000000000               0.000000000              -0.000000063              -0.000000074              -0.000000087              -0.000000014              -0.000000020              -0.000000034               0.000000000               0.000000000               0.000000000               0.000000000              -0.000000399              -0.000001081               0.000000010              -0.000000015              -0.000000355              -0.000000370               0.000000000               0.000000000               0.000000000               0.000000000               0.000001180               0.000002843               0.000000287               0.000000087               0.000000919               0.000001006               0.000000000               0.000000000               0.000000000               0.000000000              -0.000000174               0.000000104              -0.000000432              -0.000000078               0.000000061              -0.000000018               0.000000000               0.000000000               0.000000000               0.000000000              -0.000004377              -0.000011623              -0.000000453              -0.000000188              -0.000003812              -0.000004000               0.000000000               0.000000000               0.000000000               0.000000000               0.000000743               0.000000519               0.000000823               0.000000214               0.000000102               0.000000315               0.000000000               0.000000000               0.000000000               0.000000000               0.000016128               0.000043409               0.000002694               0.000000622               0.000014262               0.000014884               0.000000000               0.000000000               0.000000000               0.000000000               0.000036072               0.000101844               0.000003084               0.000000797               0.000033682               0.000034479               0.000000000               0.000000000               0.000000000               0.000000000               0.000055670               0.000165097               0.000001207               0.000000239               0.000054952               0.000055191               0.000000000               0.000000000               0.000000000               0.000000000               0.000070227               0.000229138              -0.000002707              -0.000002307               0.000077148               0.000074840               0.000000000               0.000000000               0.000000000               0.000000000               0.000076494               0.000296828              -0.000007700              -0.000008418               0.000101748               0.000093330               0.000000000               0.000000000               0.000000000               0.000000000               0.000073779               0.000367878              -0.000010782              -0.000018318               0.000128731               0.000110413               0.000000000               0.000000000               0.000000000               0.000000000               0.000063943               0.000439000              -0.000010621              -0.000030896               0.000156630               0.000125734               0.000000000               0.000000000               0.000000000               0.000000000               0.000050196               0.000503396              -0.000006655              -0.000044101               0.000182497               0.000138396               0.000000000               0.000000000               0.000000000               0.000000000               0.000041067               0.000536409              -0.000004153              -0.000051651               0.000196018               0.000144367               0.000000000               0.000000000               0.000000000               0.000000000              -0.000000079              -0.000000168              -0.000000014              -0.000000009              -0.000000053              -0.000000062               0.000000000               0.000000000               0.000000000               0.000000000               0.000000178               0.000000485               0.000000037               0.000000006               0.000000160               0.000000166               0.000000000               0.000000000               0.000000000               0.000000000              -0.000000265              -0.000000771              -0.000000062              -0.000000003              -0.000000256              -0.000000259               0.000000000               0.000000000               0.000000000               0.000000000              -0.000000195              -0.000000482               0.000000009              -0.000000013              -0.000000156              -0.000000169               0.000000000               0.000000000               0.000000000               0.000000000               0.000001623               0.000004742               0.000000126               0.000000016               0.000001575               0.000001591               0.000000000               0.000000000               0.000000000               0.000000000              -0.000001687              -0.000005221              -0.000000159               0.000000020              -0.000001747              -0.000001727               0.000000000               0.000000000               0.000000000               0.000000000              -0.000004587              -0.000013508               0.000000017              -0.000000032              -0.000004492              -0.000004524               0.000000000               0.000000000               0.000000000               0.000000000               0.000004387               0.000013932              -0.000000242              -0.000000096               0.000004676               0.000004580               0.000000000               0.000000000               0.000000000               0.000000000               0.000022496               0.000066819               0.000000045               0.000000084               0.000022245               0.000022329               0.000000000               0.000000000               0.000000000               0.000000000               0.000045716               0.000134378               0.000000517               0.000000346               0.000044677               0.000045023               0.000000000               0.000000000               0.000000000               0.000000000               0.000068284               0.000204097              -0.000000503               0.000000094               0.000068000               0.000068095               0.000000000               0.000000000               0.000000000               0.000000000               0.000087717               0.000272628              -0.000002471              -0.000001184               0.000091270               0.000090085               0.000000000               0.000000000               0.000000000               0.000000000               0.000100837               0.000341170              -0.000005052              -0.000004832               0.000115333               0.000110500               0.000000000               0.000000000               0.000000000               0.000000000               0.000106634               0.000411998              -0.000006991              -0.000011512               0.000141169               0.000129657               0.000000000               0.000000000               0.000000000               0.000000000               0.000106492               0.000485636              -0.000007191              -0.000020770               0.000168800               0.000148030               0.000000000               0.000000000               0.000000000               0.000000000               0.000102478               0.000559258              -0.000004534              -0.000031478               0.000196910               0.000165432               0.000000000               0.000000000               0.000000000               0.000000000               0.000095456               0.000595293              -0.000000828              -0.000038616               0.000211301               0.000172685               0.000000000               0.000000000               0.000000000               0.000000000               0.000000110               0.000000280               0.000000082               0.000000006               0.000000091               0.000000098               0.000000000               0.000000000               0.000000000               0.000000000               0.000000198               0.000000565               0.000000003               0.000000004               0.000000187               0.000000191               0.000000000               0.000000000               0.000000000               0.000000000              -0.000000468              -0.000001419              -0.000000022               0.000000002              -0.000000474              -0.000000472               0.000000000               0.000000000               0.000000000               0.000000000               0.000000232               0.000000785               0.000000004              -0.000000011               0.000000265               0.000000254               0.000000000               0.000000000               0.000000000               0.000000000               0.000001624               0.000004789               0.000000086               0.000000010               0.000001593               0.000001603               0.000000000               0.000000000               0.000000000               0.000000000              -0.000003008              -0.000009144              -0.000000060               0.000000015              -0.000003053              -0.000003038               0.000000000               0.000000000               0.000000000               0.000000000              -0.000003929              -0.000011581              -0.000000256              -0.000000026              -0.000003852              -0.000003878               0.000000000               0.000000000               0.000000000               0.000000000               0.000007273               0.000022160               0.000000110              -0.000000043               0.000007401               0.000007358               0.000000000               0.000000000               0.000000000               0.000000000               0.000025632               0.000076653               0.000000155               0.000000030               0.000025541               0.000025571               0.000000000               0.000000000               0.000000000               0.000000000               0.000048317               0.000143902               0.000000185               0.000000131               0.000047923               0.000048054               0.000000000               0.000000000               0.000000000               0.000000000               0.000071154               0.000212845               0.000000122               0.000000077               0.000070922               0.000070999               0.000000000               0.000000000               0.000000000               0.000000000               0.000094043               0.000282670              -0.000000211              -0.000000068               0.000094245               0.000094178               0.000000000               0.000000000               0.000000000               0.000000000               0.000115274               0.000351438              -0.000000653              -0.000000702               0.000117379               0.000116677               0.000000000               0.000000000               0.000000000               0.000000000               0.000132521               0.000420612              -0.000001648              -0.000002881               0.000141163               0.000138282               0.000000000               0.000000000               0.000000000               0.000000000               0.000144832               0.000490512              -0.000002213              -0.000007002               0.000165837               0.000158834               0.000000000               0.000000000               0.000000000               0.000000000               0.000153611               0.000562410              -0.000001806              -0.000012697               0.000191701               0.000179003               0.000000000               0.000000000               0.000000000               0.000000000               0.000154059               0.000597435               0.000000303              -0.000016907               0.000204779               0.000187872               0.000000000               0.000000000               0.000000000               0.000000000               0.000000424               0.000001107               0.000000209               0.000000021               0.000000362               0.000000383               0.000000000               0.000000000               0.000000000               0.000000000               0.000000118               0.000000368              -0.000000022              -0.000000002               0.000000123               0.000000122               0.000000000               0.000000000               0.000000000               0.000000000              -0.000000578              -0.000001833              -0.000000010               0.000000012              -0.000000615              -0.000000603               0.000000000               0.000000000               0.000000000               0.000000000               0.000000823               0.000002559               0.000000096              -0.000000011               0.000000857               0.000000846               0.000000000               0.000000000               0.000000000               0.000000000               0.000001016               0.000003147              -0.000000145              -0.000000012               0.000001053               0.000001041               0.000000000               0.000000000               0.000000000               0.000000000              -0.000003847              -0.000011814               0.000000129               0.000000034              -0.000003949              -0.000003915               0.000000000               0.000000000               0.000000000               0.000000000              -0.000002610              -0.000007860              -0.000000074               0.000000004              -0.000002621              -0.000002618               0.000000000               0.000000000               0.000000000               0.000000000               0.000009444               0.000028738              -0.000000279              -0.000000051               0.000009596               0.000009545               0.000000000               0.000000000               0.000000000               0.000000000               0.000028154               0.000085306               0.000000034              -0.000000106               0.000028470               0.000028365               0.000000000               0.000000000               0.000000000               0.000000000               0.000050800               0.000151696               0.000000238               0.000000088               0.000050536               0.000050624               0.000000000               0.000000000               0.000000000               0.000000000               0.000073751               0.000219646               0.000000442               0.000000201               0.000073148               0.000073349               0.000000000               0.000000000               0.000000000               0.000000000               0.000096847               0.000289727               0.000000128               0.000000102               0.000096541               0.000096643               0.000000000               0.000000000               0.000000000               0.000000000               0.000120036               0.000358062               0.000000268               0.000000256               0.000119268               0.000119524               0.000000000               0.000000000               0.000000000               0.000000000               0.000143228               0.000426806               0.000000334               0.000000360               0.000142147               0.000142507               0.000000000               0.000000000               0.000000000               0.000000000               0.000164301               0.000494920               0.000000179              -0.000000252               0.000165056               0.000164804               0.000000000               0.000000000               0.000000000               0.000000000               0.000182833               0.000564440              -0.000000232              -0.000001993               0.000188809               0.000186816               0.000000000               0.000000000               0.000000000               0.000000000               0.000189667               0.000598625               0.000000312              -0.000003703               0.000200774               0.000197071               0.000000000               0.000000000               0.000000000               0.000000000               0.000000679               0.000001825               0.000000220               0.000000026               0.000000599               0.000000626               0.000000000               0.000000000               0.000000000               0.000000000              -0.000000003              -0.000000013               0.000000009               0.000000000              -0.000000004              -0.000000004               0.000000000               0.000000000               0.000000000               0.000000000              -0.000000662              -0.000002003              -0.000000055               0.000000002              -0.000000668              -0.000000666               0.000000000               0.000000000               0.000000000               0.000000000               0.000001465               0.000004323               0.000000142               0.000000009               0.000001438               0.000001447               0.000000000               0.000000000               0.000000000               0.000000000               0.000000332               0.000001114              -0.000000062              -0.000000015               0.000000376               0.000000361               0.000000000               0.000000000               0.000000000               0.000000000              -0.000004745              -0.000014284              -0.000000171               0.000000006              -0.000004763              -0.000004757               0.000000000               0.000000000               0.000000000               0.000000000              -0.000001193              -0.000003585               0.000000073               0.000000001              -0.000001195              -0.000001195               0.000000000               0.000000000               0.000000000               0.000000000               0.000011900               0.000035551               0.000000115               0.000000019               0.000011844               0.000011863               0.000000000               0.000000000               0.000000000               0.000000000               0.000030694               0.000092407              -0.000000017              -0.000000041               0.000030816               0.000030775               0.000000000               0.000000000               0.000000000               0.000000000               0.000052472               0.000158454              -0.000000156              -0.000000130               0.000052860               0.000052731               0.000000000               0.000000000               0.000000000               0.000000000               0.000075233               0.000225465              -0.000000096               0.000000029               0.000075144               0.000075174               0.000000000               0.000000000               0.000000000               0.000000000               0.000098143               0.000293763               0.000000039               0.000000083               0.000097892               0.000097976               0.000000000               0.000000000               0.000000000               0.000000000               0.000120672               0.000361801               0.000000068               0.000000027               0.000120590               0.000120617               0.000000000               0.000000000               0.000000000               0.000000000               0.000144102               0.000430215               0.000000134               0.000000261               0.000143316               0.000143578               0.000000000               0.000000000               0.000000000               0.000000000               0.000167799               0.000497791               0.000000320               0.000000701               0.000165695               0.000166396               0.000000000               0.000000000               0.000000000               0.000000000               0.000191150               0.000565894               0.000000157               0.000000945               0.000188315               0.000189259               0.000000000               0.000000000               0.000000000               0.000000000               0.000201968               0.000599163               0.000000178               0.000000843               0.000199438               0.000200281               0.000000000               0.000000000               0.000000000               0.000000000               0.000000667               0.000001883               0.000000100               0.000000015               0.000000623               0.000000638               0.000000000               0.000000000               0.000000000               0.000000000              -0.000000148              -0.000000555               0.000000024               0.000000014              -0.000000190              -0.000000176               0.000000000               0.000000000               0.000000000               0.000000000              -0.000000559              -0.000001558               0.000000020              -0.000000015              -0.000000514              -0.000000529               0.000000000               0.000000000               0.000000000               0.000000000               0.000001732               0.000005141              -0.000000016               0.000000007               0.000001711               0.000001718               0.000000000               0.000000000               0.000000000               0.000000000              -0.000000220              -0.000000833               0.000000038               0.000000021              -0.000000285              -0.000000263               0.000000000               0.000000000               0.000000000               0.000000000              -0.000004989              -0.000014801              -0.000000030              -0.000000021              -0.000004927              -0.000004947               0.000000000               0.000000000               0.000000000               0.000000000              -0.000000397              -0.000001006              -0.000000158              -0.000000023              -0.000000328              -0.000000351               0.000000000               0.000000000               0.000000000               0.000000000               0.000013483               0.000040515               0.000000069              -0.000000008               0.000013508               0.000013499               0.000000000               0.000000000               0.000000000               0.000000000               0.000033245               0.000099389               0.000000096               0.000000043               0.000033115               0.000033158               0.000000000               0.000000000               0.000000000               0.000000000               0.000054721               0.000164021               0.000000115               0.000000018               0.000054667               0.000054685               0.000000000               0.000000000               0.000000000               0.000000000               0.000076573               0.000230267               0.000000039              -0.000000068               0.000076778               0.000076709               0.000000000               0.000000000               0.000000000               0.000000000               0.000099181               0.000297629              -0.000000088              -0.000000011               0.000099212               0.000099202               0.000000000               0.000000000               0.000000000               0.000000000               0.000121452               0.000364592              -0.000000128              -0.000000029               0.000121539               0.000121510               0.000000000               0.000000000               0.000000000               0.000000000               0.000143651               0.000432265              -0.000000237              -0.000000164               0.000144142               0.000143978               0.000000000               0.000000000               0.000000000               0.000000000               0.000166075               0.000499567              -0.000000210              -0.000000168               0.000166577               0.000166409               0.000000000               0.000000000               0.000000000               0.000000000               0.000189052               0.000566899              -0.000000144               0.000000032               0.000188954               0.000188986               0.000000000               0.000000000               0.000000000               0.000000000               0.000200327               0.000599295              -0.000000105               0.000000211               0.000199693               0.000199904               0.000000000               0.000000000               0.000000000               0.000000000               0.000000518               0.000001638               0.000000030              -0.000000010               0.000000550               0.000000539               0.000000000               0.000000000               0.000000000               0.000000000              -0.000000357              -0.000001171              -0.000000008               0.000000013              -0.000000395              -0.000000382               0.000000000               0.000000000               0.000000000               0.000000000              -0.000000296              -0.000000868               0.000000062              -0.000000002              -0.000000289              -0.000000291               0.000000000               0.000000000               0.000000000               0.000000000               0.000001883               0.000005789              -0.000000001              -0.000000018               0.000001936               0.000001918               0.000000000               0.000000000               0.000000000               0.000000000              -0.000000956              -0.000003051              -0.000000059               0.000000023              -0.000001025              -0.000001002               0.000000000               0.000000000               0.000000000               0.000000000              -0.000004967              -0.000014933               0.000000048               0.000000004              -0.000004979              -0.000004975               0.000000000               0.000000000               0.000000000               0.000000000               0.000000733               0.000002359              -0.000000050              -0.000000020               0.000000793               0.000000773               0.000000000               0.000000000               0.000000000               0.000000000               0.000014682               0.000044171              -0.000000057              -0.000000016               0.000014729               0.000014713               0.000000000               0.000000000               0.000000000               0.000000000               0.000034219               0.000102937               0.000000050              -0.000000035               0.000034324               0.000034289               0.000000000               0.000000000               0.000000000               0.000000000               0.000055941               0.000167775               0.000000075               0.000000006               0.000055923               0.000055929               0.000000000               0.000000000               0.000000000               0.000000000               0.000078148               0.000234168               0.000000019               0.000000034               0.000078044               0.000078078               0.000000000               0.000000000               0.000000000               0.000000000               0.000100333               0.000300838               0.000000026               0.000000020               0.000100272               0.000100292               0.000000000               0.000000000               0.000000000               0.000000000               0.000122540               0.000367159               0.000000070               0.000000058               0.000122366               0.000122423               0.000000000               0.000000000               0.000000000               0.000000000               0.000144734               0.000433772               0.000000065               0.000000054               0.000144571               0.000144625               0.000000000               0.000000000               0.000000000               0.000000000               0.000166640               0.000500326               0.000000022              -0.000000051               0.000166790               0.000166740               0.000000000               0.000000000               0.000000000               0.000000000               0.000188608               0.000567146              -0.000000026              -0.000000165               0.000189102               0.000188937               0.000000000               0.000000000               0.000000000               0.000000000               0.000199111               0.000598914              -0.000000023              -0.000000198               0.000199702               0.000199504               0.000000000               0.000000000               0.000000000               0.000000000               0.000000425               0.000001380               0.000000004              -0.000000013               0.000000464               0.000000451               0.000000000               0.000000000               0.000000000               0.000000000              -0.000000505              -0.000001501               0.000000003              -0.000000002              -0.000000500              -0.000000502               0.000000000               0.000000000               0.000000000               0.000000000              -0.000000151              -0.000000452               0.000000015              -0.000000000              -0.000000151              -0.000000151               0.000000000               0.000000000               0.000000000               0.000000000               0.000001978               0.000006009               0.000000016              -0.000000009               0.000002006               0.000001997               0.000000000               0.000000000               0.000000000               0.000000000              -0.000001308              -0.000004016              -0.000000017               0.000000011              -0.000001343              -0.000001331               0.000000000               0.000000000               0.000000000               0.000000000              -0.000004972              -0.000015041              -0.000000043               0.000000016              -0.000005019              -0.000005003               0.000000000               0.000000000               0.000000000               0.000000000               0.000001133               0.000003628               0.000000021              -0.000000029               0.000001219               0.000001190               0.000000000               0.000000000               0.000000000               0.000000000               0.000015529               0.000046911               0.000000049              -0.000000040               0.000015650               0.000015610               0.000000000               0.000000000               0.000000000               0.000000000               0.000035428               0.000106172              -0.000000036               0.000000014               0.000035386               0.000035400               0.000000000               0.000000000               0.000000000               0.000000000               0.000056743               0.000169973              -0.000000009               0.000000032               0.000056646               0.000056678               0.000000000               0.000000000               0.000000000               0.000000000               0.000078598               0.000235779               0.000000015               0.000000002               0.000078592               0.000078593               0.000000000               0.000000000               0.000000000               0.000000000               0.000100656               0.000302223              -0.000000006              -0.000000032               0.000100751               0.000100719               0.000000000               0.000000000               0.000000000               0.000000000               0.000122786               0.000368629              -0.000000032              -0.000000034               0.000122886               0.000122853               0.000000000               0.000000000               0.000000000               0.000000000               0.000145101               0.000435097              -0.000000022               0.000000026               0.000145022               0.000145048               0.000000000               0.000000000               0.000000000               0.000000000               0.000167319               0.000501273               0.000000012               0.000000086               0.000167061               0.000167147               0.000000000               0.000000000               0.000000000               0.000000000               0.000189419               0.000567554               0.000000011               0.000000088               0.000189153               0.000189241               0.000000000               0.000000000               0.000000000               0.000000000               0.000199789               0.000598875               0.000000015               0.000000062               0.000199603               0.000199664               0.000000000               0.000000000               0.000000000               0.000000000               0.000000000               0.000000000               0.000000000               0.000000000               0.000000000               0.000000000               0.000000000               0.000000000               0.000000000               0.000000000               0.000000000               0.000000000               0.000000000               0.000000000               0.000000000               0.000000000               0.000000000               0.000000000               0.000000000               0.000000000               0.000000000               0.000000000               0.000000000               0.000000000               0.000000000               0.000000000               0.000000000               0.000000000               0.000000000               0.000000000               0.000000000               0.000000000               0.000000000               0.000000000               0.000000000               0.000000000               0.000000000               0.000000000               0.000000000               0.000000000               0.000000000               0.000000000               0.000000000               0.000000000               0.000000000               0.000000000               0.000000000               0.000000000               0.000000000               0.000000000               0.000000000               0.000000000               0.000000000               0.000000000               0.000000000               0.000000000               0.000000000               0.000000000               0.000000000               0.000000000               0.000000000               0.000000000               0.000000000               0.000000000               0.000000000               0.000000000               0.000000000               0.000000000               0.000000000               0.000000000               0.000000000               0.000000000               0.000000000               0.000000000               0.000000000               0.000000000               0.000000000               0.000000000               0.000000000               0.000000000               0.000000000               0.000000000               0.000000000               0.000000000               0.000000000               0.000000000               0.000000000               0.000000000               0.000000000               0.000000000               0.000000000               0.000000000               0.000000000               0.000000000               0.000000000               0.000000000               0.000000000               0.000000000               0.000000000               0.000000000               0.000000000               0.000000000               0.000000000               0.000000000               0.000000000               0.000000000               0.000000000               0.000000000               0.000000000               0.000000000               0.000000000               0.000000000               0.000000000               0.000000000               0.000000000               0.000000000               0.000000000               0.000000000               0.000000000               0.000000000               0.000000000               0.000000000               0.000000000               0.000000000               0.000000000               0.000000000               0.000000000               0.000000000               0.000000000               0.000000000               0.000000000               0.000000000               0.000000000               0.000000000               0.000000000               0.000000000               0.000000000               0.000000000               0.000000000               0.000000000               0.000000000               0.000000000               0.000000000               0.000000000               0.000000000               0.000000000               0.000000000               0.000000000               0.000000000               0.000000000               0.000000000               0.000000000               0.000000000               0.000000000               0.000000000               0.000000000               0.000000000               0.000000000               0.000000000               0.000000000               0.000000000               0.000000000               0.000000000               0.000000000               0.000000000               0.000000000               0.000000000               0.000000000               0.000000000               0.000000000               0.000000000               0.000000000               0.000000000               0.000000000               0.000000000               0.000000000               0.000000000               0.000000000               0.000000000               0.000000000               0.000000000               0.000000000               0.000000000               0.000000000               0.000000000               0.000000000               0.000000000               0.000000000               0.000000000               0.000000000               0.000000000               0.000000000               0.000000000               0.000000000               0.000000000               0.000000000               0.000000000               0.000000000               0.000000000               0.000000000               0.000000000               0.000000000               0.000000000               0.000000000               0.000000000               0.000000000               0.000000000               0.000000000               0.000000000               0.000000000               0.000000000               0.000000000               0.000000000               0.000000000               0.000000000               0.000000000               0.000000000               0.000000000               0.000000000               0.000000000               0.000000000               0.000000000               0.000000000               0.000000000               0.000000000               0.000000000               0.000000000               0.000000000               0.000000000               0.000000000               0.000000000               0.000000000               0.000000000               0.000000000               0.000000000               0.000000000               0.000000000               0.000000000               0.000000000               0.000000000               0.000000000               0.000000000               0.000000000               0.000000000               0.000000000               0.000000000               0.000000000               0.000000000               0.000000000               0.000000000               0.000000000               0.000000000               0.000000000               0.000000000               0.000000000               0.000000000               0.000000000               0.000000000               0.000000000               0.000000000               0.000000000               0.000000000               0.000000000               0.000000000               0.000000000               0.000000000               0.000000000               0.000000000               0.000000000               0.000000000               0.000000000               0.000000000               0.000000000               0.000000000               0.000000000               0.000000000               0.000000000               0.000000000               0.000000000               0.000000000               0.000000000               0.000000000               0.000000000               0.000000000               0.000000000               0.000000000               0.000000000               0.000000000               0.000000000               0.000000000               0.000000000               0.000000000               0.000000000               0.000000000               0.000000000               0.000000000               0.000000000               0.000000000               0.000000000               0.000000000               0.000000000               0.000000000               0.000000000               0.000000000               0.000000000               0.000000000               0.000000000               0.000000000               0.000000000               0.000000000               0.000000000               0.000000000               0.000000000               0.000000000               0.000000000               0.000000000               0.000000000               0.000000000               0.000000000               0.000000000               0.000000000               0.000000000               0.000000000               0.000000000               0.000000000               0.000000000               0.000000000               0.000000000               0.000000000               0.000000000               0.000000000               0.000000000               0.000000000               0.000000000               0.000000000               0.000000000               0.000000000               0.000000000               0.000000000               0.000000000               0.000000045               0.000000003              -0.000000012               0.000000016              -0.000000004               0.000000012               0.000000000               0.000000000               0.000000000               0.000000000               0.000000024              -0.000000002              -0.000000007               0.000000009              -0.000000004               0.000000006               0.000000000               0.000000000               0.000000000               0.000000000              -0.000000051               0.000000004               0.000000022              -0.000000020               0.000000008              -0.000000012               0.000000000               0.000000000               0.000000000               0.000000000              -0.000000033              -0.000000029              -0.000000010              -0.000000009              -0.000000007              -0.000000016               0.000000000               0.000000000               0.000000000               0.000000000               0.000000156               0.000000002              -0.000000033               0.000000058              -0.000000019               0.000000039               0.000000000               0.000000000               0.000000000               0.000000000               0.000000043               0.000000106               0.000000065               0.000000003               0.000000034               0.000000037               0.000000000               0.000000000               0.000000000               0.000000000              -0.000000371              -0.000000038               0.000000033              -0.000000134               0.000000032              -0.000000102               0.000000000               0.000000000               0.000000000               0.000000000              -0.000000144              -0.000000285              -0.000000146              -0.000000018              -0.000000089              -0.000000107               0.000000000               0.000000000               0.000000000               0.000000000               0.000000651               0.000000015              -0.000000079               0.000000242              -0.000000076               0.000000166               0.000000000               0.000000000               0.000000000               0.000000000               0.000000621               0.000000622               0.000000150               0.000000155               0.000000156               0.000000311               0.000000000               0.000000000               0.000000000               0.000000000              -0.000000421               0.000000484               0.000000182              -0.000000219               0.000000234               0.000000016               0.000000000               0.000000000               0.000000000               0.000000000              -0.000001130              -0.000000555               0.000000095              -0.000000354              -0.000000067              -0.000000421               0.000000000               0.000000000               0.000000000               0.000000000              -0.000000783              -0.000001443               0.000000048              -0.000000113              -0.000000443              -0.000000556               0.000000000               0.000000000               0.000000000               0.000000000               0.000000064              -0.000001370              -0.000000021               0.000000195              -0.000000522              -0.000000327               0.000000000               0.000000000               0.000000000               0.000000000               0.000000601              -0.000000401              -0.000000129               0.000000276              -0.000000225               0.000000050               0.000000000               0.000000000               0.000000000               0.000000000               0.000000519               0.000000974              -0.000000156               0.000000073               0.000000300               0.000000373               0.000000000               0.000000000               0.000000000               0.000000000               0.000000439               0.000001925              -0.000000046              -0.000000076               0.000000667               0.000000591               0.000000000               0.000000000               0.000000000               0.000000000              -0.000000038              -0.000000034              -0.000000003              -0.000000010              -0.000000008              -0.000000018               0.000000000               0.000000000               0.000000000               0.000000000              -0.000000054              -0.000000008               0.000000023              -0.000000019               0.000000004              -0.000000015               0.000000000               0.000000000               0.000000000               0.000000000               0.000000024               0.000000022              -0.000000023               0.000000006               0.000000005               0.000000012               0.000000000               0.000000000               0.000000000               0.000000000               0.000000125               0.000000003              -0.000000027               0.000000047              -0.000000015               0.000000032               0.000000000               0.000000000               0.000000000               0.000000000              -0.000000165              -0.000000030               0.000000083              -0.000000058               0.000000009              -0.000000049               0.000000000               0.000000000               0.000000000               0.000000000              -0.000000280              -0.000000050              -0.000000042              -0.000000099               0.000000016              -0.000000083               0.000000000               0.000000000               0.000000000               0.000000000               0.000000479               0.000000049              -0.000000148               0.000000174              -0.000000042               0.000000132               0.000000000               0.000000000               0.000000000               0.000000000               0.000000678               0.000000238               0.000000152               0.000000225               0.000000004               0.000000229               0.000000000               0.000000000               0.000000000               0.000000000              -0.000000637               0.000000076               0.000000249              -0.000000248               0.000000108              -0.000000140               0.000000000               0.000000000               0.000000000               0.000000000              -0.000001515              -0.000000558              -0.000000079              -0.000000498              -0.000000020              -0.000000518               0.000000000               0.000000000               0.000000000               0.000000000              -0.000000536              -0.000000992              -0.000000256              -0.000000077              -0.000000305              -0.000000382               0.000000000               0.000000000               0.000000000               0.000000000               0.000001149              -0.000000372              -0.000000235               0.000000477              -0.000000283               0.000000194               0.000000000               0.000000000               0.000000000               0.000000000               0.000001994               0.000001268              -0.000000250               0.000000589               0.000000226               0.000000816               0.000000000               0.000000000               0.000000000               0.000000000               0.000001576               0.000003020              -0.000000185               0.000000214               0.000000935               0.000001149               0.000000000               0.000000000               0.000000000               0.000000000               0.000000511               0.000003962               0.000000027              -0.000000303               0.000001422               0.000001118               0.000000000               0.000000000               0.000000000               0.000000000              -0.000000124               0.000003391               0.000000213              -0.000000470               0.000001287               0.000000817               0.000000000               0.000000000               0.000000000               0.000000000              -0.000000556               0.000002015               0.000000050              -0.000000461               0.000000825               0.000000365               0.000000000               0.000000000               0.000000000               0.000000000              -0.000000076              -0.000000009               0.000000034              -0.000000028               0.000000006              -0.000000021               0.000000000               0.000000000               0.000000000               0.000000000               0.000000026               0.000000038              -0.000000019               0.000000005               0.000000011               0.000000016               0.000000000               0.000000000               0.000000000               0.000000000               0.000000058              -0.000000014              -0.000000029               0.000000023              -0.000000012               0.000000011               0.000000000               0.000000000               0.000000000               0.000000000              -0.000000201              -0.000000049               0.000000095              -0.000000069               0.000000007              -0.000000063               0.000000000               0.000000000               0.000000000               0.000000000               0.000000012               0.000000051              -0.000000058              -0.000000002               0.000000018               0.000000016               0.000000000               0.000000000               0.000000000               0.000000000               0.000000599               0.000000092              -0.000000133               0.000000213              -0.000000041               0.000000173               0.000000000               0.000000000               0.000000000               0.000000000              -0.000000247              -0.000000052               0.000000221              -0.000000086               0.000000011              -0.000000075               0.000000000               0.000000000               0.000000000               0.000000000              -0.000001373              -0.000000262               0.000000122              -0.000000482               0.000000073              -0.000000409               0.000000000               0.000000000               0.000000000               0.000000000              -0.000000102              -0.000000296              -0.000000302              -0.000000001              -0.000000098              -0.000000099               0.000000000               0.000000000               0.000000000               0.000000000               0.000002008               0.000000196              -0.000000272               0.000000728              -0.000000177               0.000000551               0.000000000               0.000000000               0.000000000               0.000000000               0.000002278               0.000001427              -0.000000072               0.000000676               0.000000250               0.000000926               0.000000000               0.000000000               0.000000000               0.000000000               0.000000736               0.000002483               0.000000115              -0.000000035               0.000000839               0.000000805               0.000000000               0.000000000               0.000000000               0.000000000              -0.000001526               0.000001795               0.000000440              -0.000000797               0.000000864               0.000000067               0.000000000               0.000000000               0.000000000               0.000000000              -0.000003180              -0.000001119               0.000000630              -0.000001053              -0.000000022              -0.000001075               0.000000000               0.000000000               0.000000000               0.000000000              -0.000003161              -0.000005923               0.000000492              -0.000000445              -0.000001826              -0.000002271               0.000000000               0.000000000               0.000000000               0.000000000              -0.000001863              -0.000011360               0.000000099               0.000000721              -0.000004027              -0.000003306               0.000000000               0.000000000               0.000000000               0.000000000              -0.000001383              -0.000014572              -0.000000339               0.000001303              -0.000005292              -0.000003989               0.000000000               0.000000000               0.000000000               0.000000000               0.000000130               0.000000081              -0.000000031               0.000000039               0.000000014               0.000000053               0.000000000               0.000000000               0.000000000               0.000000000               0.000000057               0.000000014              -0.000000027               0.000000020              -0.000000002               0.000000018               0.000000000               0.000000000               0.000000000               0.000000000              -0.000000138              -0.000000067               0.000000080              -0.000000043              -0.000000008              -0.000000051               0.000000000               0.000000000               0.000000000               0.000000000               0.000000104               0.000000055              -0.000000061               0.000000032               0.000000008               0.000000040               0.000000000               0.000000000               0.000000000               0.000000000               0.000000302               0.000000065              -0.000000121               0.000000105              -0.000000013               0.000000092               0.000000000               0.000000000               0.000000000               0.000000000              -0.000000607              -0.000000119               0.000000285              -0.000000213               0.000000031              -0.000000182               0.000000000               0.000000000               0.000000000               0.000000000              -0.000000485              -0.000000136               0.000000017              -0.000000165               0.000000010              -0.000000155               0.000000000               0.000000000               0.000000000               0.000000000               0.000001372               0.000000038              -0.000000473               0.000000510              -0.000000157               0.000000353               0.000000000               0.000000000               0.000000000               0.000000000               0.000001440               0.000000649              -0.000000119               0.000000459               0.000000063               0.000000522               0.000000000               0.000000000               0.000000000               0.000000000              -0.000000507               0.000001337               0.000000384              -0.000000357               0.000000565               0.000000208               0.000000000               0.000000000               0.000000000               0.000000000              -0.000002349               0.000000100               0.000000692              -0.000000893               0.000000331              -0.000000562               0.000000000               0.000000000               0.000000000               0.000000000              -0.000003857              -0.000003965               0.000000688              -0.000000951              -0.000001005              -0.000001956               0.000000000               0.000000000               0.000000000               0.000000000              -0.000003918              -0.000008691               0.000000005              -0.000000383              -0.000002769              -0.000003152               0.000000000               0.000000000               0.000000000               0.000000000              -0.000001579              -0.000011886              -0.000000883               0.000000894              -0.000004260              -0.000003366               0.000000000               0.000000000               0.000000000               0.000000000               0.000001524              -0.000011627              -0.000001314               0.000002025              -0.000004551              -0.000002526               0.000000000               0.000000000               0.000000000               0.000000000               0.000001888              -0.000004767              -0.000001394               0.000001304              -0.000002024              -0.000000720               0.000000000               0.000000000               0.000000000               0.000000000               0.000004165               0.000005985               0.000000483               0.000000814               0.000001724               0.000002538               0.000000000               0.000000000               0.000000000               0.000000000               0.000000076               0.000000049              -0.000000037               0.000000022               0.000000009               0.000000031               0.000000000               0.000000000               0.000000000               0.000000000              -0.000000053              -0.000000057               0.000000034              -0.000000013              -0.000000015              -0.000000028               0.000000000               0.000000000               0.000000000               0.000000000               0.000000044               0.000000005              -0.000000017               0.000000016              -0.000000004               0.000000012               0.000000000               0.000000000               0.000000000               0.000000000               0.000000140               0.000000101              -0.000000092               0.000000040               0.000000021               0.000000060               0.000000000               0.000000000               0.000000000               0.000000000              -0.000000371              -0.000000066               0.000000228              -0.000000131               0.000000022              -0.000000109               0.000000000               0.000000000               0.000000000               0.000000000               0.000000029              -0.000000201              -0.000000089               0.000000036              -0.000000079              -0.000000043               0.000000000               0.000000000               0.000000000               0.000000000               0.000000918               0.000000029              -0.000000414               0.000000341              -0.000000104               0.000000237               0.000000000               0.000000000               0.000000000               0.000000000              -0.000000057               0.000001013               0.000000338              -0.000000148               0.000000387               0.000000239               0.000000000               0.000000000               0.000000000               0.000000000              -0.000001275               0.000000704               0.000000614              -0.000000566               0.000000423              -0.000000143               0.000000000               0.000000000               0.000000000               0.000000000              -0.000002052              -0.000003437               0.000000260              -0.000000340              -0.000001032              -0.000001372               0.000000000               0.000000000               0.000000000               0.000000000              -0.000003011              -0.000008013              -0.000000360              -0.000000128              -0.000002629              -0.000002756               0.000000000               0.000000000               0.000000000               0.000000000              -0.000000875              -0.000006790              -0.000001275               0.000000521              -0.000002437              -0.000001916               0.000000000               0.000000000               0.000000000               0.000000000               0.000005257               0.000001739              -0.000001239               0.000001754              -0.000000005               0.000001749               0.000000000               0.000000000               0.000000000               0.000000000               0.000011906               0.000016597               0.000000509               0.000002390               0.000004736               0.000007126               0.000000000               0.000000000               0.000000000               0.000000000               0.000014769               0.000039204               0.000002689               0.000000638               0.000012855               0.000013493               0.000000000               0.000000000               0.000000000               0.000000000               0.000010117               0.000071308               0.000002688              -0.000005120               0.000025476               0.000020356               0.000000000               0.000000000               0.000000000               0.000000000               0.000012833               0.000100973               0.000005974              -0.000007809               0.000036260               0.000028451               0.000000000               0.000000000               0.000000000               0.000000000              -0.000000079              -0.000000060               0.000000037              -0.000000022              -0.000000013              -0.000000035               0.000000000               0.000000000               0.000000000               0.000000000              -0.000000047              -0.000000079               0.000000019              -0.000000008              -0.000000024              -0.000000032               0.000000000               0.000000000               0.000000000               0.000000000               0.000000097               0.000000111              -0.000000064               0.000000022               0.000000030               0.000000052               0.000000000               0.000000000               0.000000000               0.000000000              -0.000000109               0.000000068               0.000000098              -0.000000049               0.000000039              -0.000000010               0.000000000               0.000000000               0.000000000               0.000000000              -0.000000051              -0.000000411              -0.000000020               0.000000032              -0.000000148              -0.000000115               0.000000000               0.000000000               0.000000000               0.000000000               0.000000341               0.000000078              -0.000000216               0.000000118              -0.000000013               0.000000105               0.000000000               0.000000000               0.000000000               0.000000000              -0.000000036               0.000001555               0.000000335              -0.000000208               0.000000588               0.000000380               0.000000000               0.000000000               0.000000000               0.000000000              -0.000000704              -0.000000613               0.000000056              -0.000000187              -0.000000142              -0.000000329               0.000000000               0.000000000               0.000000000               0.000000000              -0.000001993              -0.000006374              -0.000000334               0.000000049              -0.000002141              -0.000002092               0.000000000               0.000000000               0.000000000               0.000000000              -0.000001526              -0.000004918              -0.000000205               0.000000043              -0.000001654              -0.000001611               0.000000000               0.000000000               0.000000000               0.000000000               0.000005546               0.000011151              -0.000000542               0.000000686               0.000003488               0.000004174               0.000000000               0.000000000               0.000000000               0.000000000               0.000017105               0.000038544               0.000000541               0.000001596               0.000012316               0.000013912               0.000000000               0.000000000               0.000000000               0.000000000               0.000027519               0.000071905               0.000004449               0.000001331               0.000023524               0.000024856               0.000000000               0.000000000               0.000000000               0.000000000               0.000032776               0.000110852               0.000009523              -0.000001566               0.000037472               0.000035906               0.000000000               0.000000000               0.000000000               0.000000000               0.000029526               0.000155895               0.000012360              -0.000008415               0.000054769               0.000046355               0.000000000               0.000000000               0.000000000               0.000000000               0.000017786               0.000204631               0.000009548              -0.000018909               0.000074513               0.000055604               0.000000000               0.000000000               0.000000000               0.000000000               0.000017194               0.000240402               0.000010566              -0.000023602               0.000088001               0.000064398               0.000000000               0.000000000               0.000000000               0.000000000              -0.000000111              -0.000000176               0.000000060              -0.000000019              -0.000000052              -0.000000072               0.000000000               0.000000000               0.000000000               0.000000000              -0.000000002              -0.000000015              -0.000000017               0.000000001              -0.000000005              -0.000000004               0.000000000               0.000000000               0.000000000               0.000000000               0.000000077               0.000000253              -0.000000000              -0.000000003               0.000000085               0.000000083               0.000000000               0.000000000               0.000000000               0.000000000              -0.000000195              -0.000000527               0.000000063              -0.000000007              -0.000000173              -0.000000180               0.000000000               0.000000000               0.000000000               0.000000000               0.000000076              -0.000000024              -0.000000111               0.000000032              -0.000000018               0.000000013               0.000000000               0.000000000               0.000000000               0.000000000               0.000000511               0.000002076               0.000000045              -0.000000068               0.000000715               0.000000647               0.000000000               0.000000000               0.000000000               0.000000000              -0.000000592              -0.000002013              -0.000000023               0.000000030              -0.000000681              -0.000000651               0.000000000               0.000000000               0.000000000               0.000000000              -0.000002142              -0.000007112               0.000000173               0.000000086              -0.000002399              -0.000002314               0.000000000               0.000000000               0.000000000               0.000000000               0.000002259               0.000005033               0.000000580               0.000000218               0.000001605               0.000001823               0.000000000               0.000000000               0.000000000               0.000000000               0.000015674               0.000038744              -0.000000405               0.000001035               0.000012570               0.000013604               0.000000000               0.000000000               0.000000000               0.000000000               0.000032186               0.000085387               0.000000174               0.000001396               0.000027996               0.000029393               0.000000000               0.000000000               0.000000000               0.000000000               0.000046150               0.000136936               0.000004366               0.000000189               0.000045582               0.000045771               0.000000000               0.000000000               0.000000000               0.000000000               0.000053681               0.000191692               0.000010620              -0.000003831               0.000065174               0.000061342               0.000000000               0.000000000               0.000000000               0.000000000               0.000051575               0.000250435               0.000015520              -0.000011964               0.000087465               0.000075502               0.000000000               0.000000000               0.000000000               0.000000000               0.000040129               0.000310323               0.000015930              -0.000023742               0.000111354               0.000087612               0.000000000               0.000000000               0.000000000               0.000000000               0.000022408               0.000366052               0.000010770              -0.000037353               0.000134467               0.000097114               0.000000000               0.000000000               0.000000000               0.000000000               0.000016334               0.000400305               0.000009556              -0.000043913               0.000148071               0.000104159               0.000000000               0.000000000               0.000000000               0.000000000              -0.000000117              -0.000000253               0.000000045              -0.000000012              -0.000000080              -0.000000092               0.000000000               0.000000000               0.000000000               0.000000000               0.000000097               0.000000230              -0.000000048               0.000000008               0.000000074               0.000000082               0.000000000               0.000000000               0.000000000               0.000000000              -0.000000063              -0.000000074               0.000000087              -0.000000014              -0.000000020              -0.000000034               0.000000000               0.000000000               0.000000000               0.000000000              -0.000000399              -0.000001081              -0.000000010              -0.000000015              -0.000000355              -0.000000370               0.000000000               0.000000000               0.000000000               0.000000000               0.000001180               0.000002843              -0.000000287               0.000000087               0.000000919               0.000001006               0.000000000               0.000000000               0.000000000               0.000000000              -0.000000174               0.000000104               0.000000432              -0.000000078               0.000000061              -0.000000018               0.000000000               0.000000000               0.000000000               0.000000000              -0.000004377              -0.000011623               0.000000453              -0.000000188              -0.000003812              -0.000004000               0.000000000               0.000000000               0.000000000               0.000000000               0.000000743               0.000000519              -0.000000823               0.000000214               0.000000102               0.000000315               0.000000000               0.000000000               0.000000000               0.000000000               0.000016128               0.000043409              -0.000002694               0.000000622               0.000014262               0.000014884               0.000000000               0.000000000               0.000000000               0.000000000               0.000036072               0.000101844              -0.000003084               0.000000797               0.000033682               0.000034479               0.000000000               0.000000000               0.000000000               0.000000000               0.000055670               0.000165097              -0.000001207               0.000000239               0.000054952               0.000055191               0.000000000               0.000000000               0.000000000               0.000000000               0.000070227               0.000229138               0.000002707              -0.000002307               0.000077148               0.000074840               0.000000000               0.000000000               0.000000000               0.000000000               0.000076494               0.000296828               0.000007700              -0.000008418               0.000101748               0.000093330               0.000000000               0.000000000               0.000000000               0.000000000               0.000073779               0.000367878               0.000010782              -0.000018318               0.000128731               0.000110413               0.000000000               0.000000000               0.000000000               0.000000000               0.000063943               0.000439000               0.000010621              -0.000030896               0.000156630               0.000125734               0.000000000               0.000000000               0.000000000               0.000000000               0.000050196               0.000503396               0.000006655              -0.000044101               0.000182497               0.000138396               0.000000000               0.000000000               0.000000000               0.000000000               0.000041067               0.000536409               0.000004153              -0.000051651               0.000196018               0.000144367               0.000000000               0.000000000               0.000000000               0.000000000              -0.000000079              -0.000000168               0.000000014              -0.000000009              -0.000000053              -0.000000062               0.000000000               0.000000000               0.000000000               0.000000000               0.000000178               0.000000485              -0.000000037               0.000000006               0.000000160               0.000000166               0.000000000               0.000000000               0.000000000               0.000000000              -0.000000265              -0.000000771               0.000000062              -0.000000003              -0.000000256              -0.000000259               0.000000000               0.000000000               0.000000000               0.000000000              -0.000000195              -0.000000482              -0.000000009              -0.000000013              -0.000000156              -0.000000169               0.000000000               0.000000000               0.000000000               0.000000000               0.000001623               0.000004742              -0.000000126               0.000000016               0.000001575               0.000001591               0.000000000               0.000000000               0.000000000               0.000000000              -0.000001687              -0.000005221               0.000000159               0.000000020              -0.000001747              -0.000001727               0.000000000               0.000000000               0.000000000               0.000000000              -0.000004587              -0.000013508              -0.000000017              -0.000000032              -0.000004492              -0.000004524               0.000000000               0.000000000               0.000000000               0.000000000               0.000004387               0.000013932               0.000000242              -0.000000096               0.000004676               0.000004580               0.000000000               0.000000000               0.000000000               0.000000000               0.000022496               0.000066819              -0.000000045               0.000000084               0.000022245               0.000022329               0.000000000               0.000000000               0.000000000               0.000000000               0.000045716               0.000134378              -0.000000517               0.000000346               0.000044677               0.000045023               0.000000000               0.000000000               0.000000000               0.000000000               0.000068284               0.000204097               0.000000503               0.000000094               0.000068000               0.000068095               0.000000000               0.000000000               0.000000000               0.000000000               0.000087717               0.000272628               0.000002471              -0.000001184               0.000091270               0.000090085               0.000000000               0.000000000               0.000000000               0.000000000               0.000100837               0.000341170               0.000005052              -0.000004832               0.000115333               0.000110500               0.000000000               0.000000000               0.000000000               0.000000000               0.000106634               0.000411998               0.000006991              -0.000011512               0.000141169               0.000129657               0.000000000               0.000000000               0.000000000               0.000000000               0.000106492               0.000485636               0.000007191              -0.000020770               0.000168800               0.000148030               0.000000000               0.000000000               0.000000000               0.000000000               0.000102478               0.000559258               0.000004534              -0.000031478               0.000196910               0.000165432               0.000000000               0.000000000               0.000000000               0.000000000               0.000095456               0.000595293               0.000000828              -0.000038616               0.000211301               0.000172685               0.000000000               0.000000000               0.000000000               0.000000000               0.000000110               0.000000280              -0.000000082               0.000000006               0.000000091               0.000000098               0.000000000               0.000000000               0.000000000               0.000000000               0.000000198               0.000000565              -0.000000003               0.000000004               0.000000187               0.000000191               0.000000000               0.000000000               0.000000000               0.000000000              -0.000000468              -0.000001419               0.000000022               0.000000002              -0.000000474              -0.000000472               0.000000000               0.000000000               0.000000000               0.000000000               0.000000232               0.000000785              -0.000000004              -0.000000011               0.000000265               0.000000254               0.000000000               0.000000000               0.000000000               0.000000000               0.000001624               0.000004789              -0.000000086               0.000000010               0.000001593               0.000001603               0.000000000               0.000000000               0.000000000               0.000000000              -0.000003008              -0.000009144               0.000000060               0.000000015              -0.000003053              -0.000003038               0.000000000               0.000000000               0.000000000               0.000000000              -0.000003929              -0.000011581               0.000000256              -0.000000026              -0.000003852              -0.000003878               0.000000000               0.000000000               0.000000000               0.000000000               0.000007273               0.000022160              -0.000000110              -0.000000043               0.000007401               0.000007358               0.000000000               0.000000000               0.000000000               0.000000000               0.000025632               0.000076653              -0.000000155               0.000000030               0.000025541               0.000025571               0.000000000               0.000000000               0.000000000               0.000000000               0.000048317               0.000143902              -0.000000185               0.000000131               0.000047923               0.000048054               0.000000000               0.000000000               0.000000000               0.000000000               0.000071154               0.000212845              -0.000000122               0.000000077               0.000070922               0.000070999               0.000000000               0.000000000               0.000000000               0.000000000               0.000094043               0.000282670               0.000000211              -0.000000068               0.000094245               0.000094178               0.000000000               0.000000000               0.000000000               0.000000000               0.000115274               0.000351438               0.000000653              -0.000000702               0.000117379               0.000116677               0.000000000               0.000000000               0.000000000               0.000000000               0.000132521               0.000420612               0.000001648              -0.000002881               0.000141163               0.000138282               0.000000000               0.000000000               0.000000000               0.000000000               0.000144832               0.000490512               0.000002213              -0.000007002               0.000165837               0.000158834               0.000000000               0.000000000               0.000000000               0.000000000               0.000153611               0.000562410               0.000001806              -0.000012697               0.000191701               0.000179003               0.000000000               0.000000000               0.000000000               0.000000000               0.000154059               0.000597435              -0.000000303              -0.000016907               0.000204779               0.000187872               0.000000000               0.000000000               0.000000000               0.000000000               0.000000424               0.000001107              -0.000000209               0.000000021               0.000000362               0.000000383               0.000000000               0.000000000               0.000000000               0.000000000               0.000000118               0.000000368               0.000000022              -0.000000002               0.000000123               0.000000122               0.000000000               0.000000000               0.000000000               0.000000000              -0.000000578              -0.000001833               0.000000010               0.000000012              -0.000000615              -0.000000603               0.000000000               0.000000000               0.000000000               0.000000000               0.000000823               0.000002559              -0.000000096              -0.000000011               0.000000857               0.000000846               0.000000000               0.000000000               0.000000000               0.000000000               0.000001016               0.000003147               0.000000145              -0.000000012               0.000001053               0.000001041               0.000000000               0.000000000               0.000000000               0.000000000              -0.000003847              -0.000011814              -0.000000129               0.000000034              -0.000003949              -0.000003915               0.000000000               0.000000000               0.000000000               0.000000000              -0.000002610              -0.000007860               0.000000074               0.000000004              -0.000002621              -0.000002618               0.000000000               0.000000000               0.000000000               0.000000000               0.000009444               0.000028738               0.000000279              -0.000000051               0.000009596               0.000009545               0.000000000               0.000000000               0.000000000               0.000000000               0.000028154               0.000085306              -0.000000034              -0.000000106               0.000028470               0.000028365               0.000000000               0.000000000               0.000000000               0.000000000               0.000050800               0.000151696              -0.000000238               0.000000088               0.000050536               0.000050624               0.000000000               0.000000000               0.000000000               0.000000000               0.000073751               0.000219646              -0.000000442               0.000000201               0.000073148               0.000073349               0.000000000               0.000000000               0.000000000               0.000000000               0.000096847               0.000289727              -0.000000128               0.000000102               0.000096541               0.000096643               0.000000000               0.000000000               0.000000000               0.000000000               0.000120036               0.000358062              -0.000000268               0.000000256               0.000119268               0.000119524               0.000000000               0.000000000               0.000000000               0.000000000               0.000143228               0.000426806              -0.000000334               0.000000360               0.000142147               0.000142507               0.000000000               0.000000000               0.000000000               0.000000000               0.000164301               0.000494920              -0.000000179              -0.000000252               0.000165056               0.000164804               0.000000000               0.000000000               0.000000000               0.000000000               0.000182833               0.000564440               0.000000232              -0.000001993               0.000188809               0.000186816               0.000000000               0.000000000               0.000000000               0.000000000               0.000189667               0.000598625              -0.000000312              -0.000003703               0.000200774               0.000197071               0.000000000               0.000000000               0.000000000               0.000000000               0.000000679               0.000001825              -0.000000220               0.000000026               0.000000599               0.000000626               0.000000000               0.000000000               0.000000000               0.000000000              -0.000000003              -0.000000013              -0.000000009               0.000000000              -0.000000004              -0.000000004               0.000000000               0.000000000               0.000000000               0.000000000              -0.000000662              -0.000002003               0.000000055               0.000000002              -0.000000668              -0.000000666               0.000000000               0.000000000               0.000000000               0.000000000               0.000001465               0.000004323              -0.000000142               0.000000009               0.000001438               0.000001447               0.000000000               0.000000000               0.000000000               0.000000000               0.000000332               0.000001114               0.000000062              -0.000000015               0.000000376               0.000000361               0.000000000               0.000000000               0.000000000               0.000000000              -0.000004745              -0.000014284               0.000000171               0.000000006              -0.000004763              -0.000004757               0.000000000               0.000000000               0.000000000               0.000000000              -0.000001193              -0.000003585              -0.000000073               0.000000001              -0.000001195              -0.000001195               0.000000000               0.000000000               0.000000000               0.000000000               0.000011900               0.000035551              -0.000000115               0.000000019               0.000011844               0.000011863               0.000000000               0.000000000               0.000000000               0.000000000               0.000030694               0.000092407               0.000000017              -0.000000041               0.000030816               0.000030775               0.000000000               0.000000000               0.000000000               0.000000000               0.000052472               0.000158454               0.000000156              -0.000000130               0.000052860               0.000052731               0.000000000               0.000000000               0.000000000               0.000000000               0.000075233               0.000225465               0.000000096               0.000000029               0.000075144               0.000075174               0.000000000               0.000000000               0.000000000               0.000000000               0.000098143               0.000293763              -0.000000039               0.000000083               0.000097892               0.000097976               0.000000000               0.000000000               0.000000000               0.000000000               0.000120672               0.000361801              -0.000000068               0.000000027               0.000120590               0.000120617               0.000000000               0.000000000               0.000000000               0.000000000               0.000144102               0.000430215              -0.000000134               0.000000261               0.000143316               0.000143578               0.000000000               0.000000000               0.000000000               0.000000000               0.000167799               0.000497791              -0.000000320               0.000000701               0.000165695               0.000166396               0.000000000               0.000000000               0.000000000               0.000000000               0.000191150               0.000565894              -0.000000157               0.000000945               0.000188315               0.000189259               0.000000000               0.000000000               0.000000000               0.000000000               0.000201968               0.000599163              -0.000000178               0.000000843               0.000199438               0.000200281               0.000000000               0.000000000               0.000000000               0.000000000               0.000000667               0.000001883              -0.000000100               0.000000015               0.000000623               0.000000638               0.000000000               0.000000000               0.000000000               0.000000000              -0.000000148              -0.000000555              -0.000000024               0.000000014              -0.000000190              -0.000000176               0.000000000               0.000000000               0.000000000               0.000000000              -0.000000559              -0.000001558              -0.000000020              -0.000000015              -0.000000514              -0.000000529               0.000000000               0.000000000               0.000000000               0.000000000               0.000001732               0.000005141               0.000000016               0.000000007               0.000001711               0.000001718               0.000000000               0.000000000               0.000000000               0.000000000              -0.000000220              -0.000000833              -0.000000038               0.000000021              -0.000000285              -0.000000263               0.000000000               0.000000000               0.000000000               0.000000000              -0.000004989              -0.000014801               0.000000030              -0.000000021              -0.000004927              -0.000004947               0.000000000               0.000000000               0.000000000               0.000000000              -0.000000397              -0.000001006               0.000000158              -0.000000023              -0.000000328              -0.000000351               0.000000000               0.000000000               0.000000000               0.000000000               0.000013483               0.000040515              -0.000000069              -0.000000008               0.000013508               0.000013499               0.000000000               0.000000000               0.000000000               0.000000000               0.000033245               0.000099389              -0.000000096               0.000000043               0.000033115               0.000033158               0.000000000               0.000000000               0.000000000               0.000000000               0.000054721               0.000164021              -0.000000115               0.000000018               0.000054667               0.000054685               0.000000000               0.000000000               0.000000000               0.000000000               0.000076573               0.000230267              -0.000000039              -0.000000068               0.000076778               0.000076709               0.000000000               0.000000000               0.000000000               0.000000000               0.000099181               0.000297629               0.000000088              -0.000000011               0.000099212               0.000099202               0.000000000               0.000000000               0.000000000               0.000000000               0.000121452               0.000364592               0.000000128              -0.000000029               0.000121539               0.000121510               0.000000000               0.000000000               0.000000000               0.000000000               0.000143651               0.000432265               0.000000237              -0.000000164               0.000144142               0.000143978               0.000000000               0.000000000               0.000000000               0.000000000               0.000166075               0.000499567               0.000000210              -0.000000168               0.000166577               0.000166409               0.000000000               0.000000000               0.000000000               0.000000000               0.000189052               0.000566899               0.000000144               0.000000032               0.000188954               0.000188986               0.000000000               0.000000000               0.000000000               0.000000000               0.000200327               0.000599295               0.000000105               0.000000211               0.000199693               0.000199904               0.000000000               0.000000000               0.000000000               0.000000000               0.000000518               0.000001638              -0.000000030              -0.000000010               0.000000550               0.000000539               0.000000000               0.000000000               0.000000000               0.000000000              -0.000000357              -0.000001171               0.000000008               0.000000013              -0.000000395              -0.000000382               0.000000000               0.000000000               0.000000000               0.000000000              -0.000000296              -0.000000868              -0.000000062              -0.000000002              -0.000000289              -0.000000291               0.000000000               0.000000000               0.000000000               0.000000000               0.000001883               0.000005789               0.000000001              -0.000000018               0.000001936               0.000001918               0.000000000               0.000000000               0.000000000               0.000000000              -0.000000956              -0.000003051               0.000000059               0.000000023              -0.000001025              -0.000001002               0.000000000               0.000000000               0.000000000               0.000000000              -0.000004967              -0.000014933              -0.000000048               0.000000004              -0.000004979              -0.000004975               0.000000000               0.000000000               0.000000000               0.000000000               0.000000733               0.000002359               0.000000050              -0.000000020               0.000000793               0.000000773               0.000000000               0.000000000               0.000000000               0.000000000               0.000014682               0.000044171               0.000000057              -0.000000016               0.000014729               0.000014713               0.000000000               0.000000000               0.000000000               0.000000000               0.000034219               0.000102937              -0.000000050              -0.000000035               0.000034324               0.000034289               0.000000000               0.000000000               0.000000000               0.000000000               0.000055941               0.000167775              -0.000000075               0.000000006               0.000055923               0.000055929               0.000000000               0.000000000               0.000000000               0.000000000               0.000078148               0.000234168              -0.000000019               0.000000034               0.000078044               0.000078078               0.000000000               0.000000000               0.000000000               0.000000000               0.000100333               0.000300838              -0.000000026               0.000000020               0.000100272               0.000100292               0.000000000               0.000000000               0.000000000               0.000000000               0.000122540               0.000367159              -0.000000070               0.000000058               0.000122366               0.000122423               0.000000000               0.000000000               0.000000000               0.000000000               0.000144734               0.000433772              -0.000000065               0.000000054               0.000144571               0.000144625               0.000000000               0.000000000               0.000000000               0.000000000               0.000166640               0.000500326              -0.000000022              -0.000000051               0.000166790               0.000166740               0.000000000               0.000000000               0.000000000               0.000000000               0.000188608               0.000567146               0.000000026              -0.000000165               0.000189102               0.000188937               0.000000000               0.000000000               0.000000000               0.000000000               0.000199111               0.000598914               0.000000023              -0.000000198               0.000199702               0.000199504               0.000000000               0.000000000               0.000000000               0.000000000               0.000000425               0.000001380              -0.000000004              -0.000000013               0.000000464               0.000000451               0.000000000               0.000000000               0.000000000               0.000000000              -0.000000505              -0.000001501              -0.000000003              -0.000000002              -0.000000500              -0.000000502               0.000000000               0.000000000               0.000000000               0.000000000              -0.000000151              -0.000000452              -0.000000015              -0.000000000              -0.000000151              -0.000000151               0.000000000               0.000000000               0.000000000               0.000000000               0.000001978               0.000006009              -0.000000016              -0.000000009               0.000002006               0.000001997               0.000000000               0.000000000               0.000000000               0.000000000              -0.000001308              -0.000004016               0.000000017               0.000000011              -0.000001343              -0.000001331               0.000000000               0.000000000               0.000000000               0.000000000              -0.000004972              -0.000015041               0.000000043               0.000000016              -0.000005019              -0.000005003               0.000000000               0.000000000               0.000000000               0.000000000               0.000001133               0.000003628              -0.000000021              -0.000000029               0.000001219               0.000001190               0.000000000               0.000000000               0.000000000               0.000000000               0.000015529               0.000046911              -0.000000049              -0.000000040               0.000015650               0.000015610               0.000000000               0.000000000               0.000000000               0.000000000               0.000035428               0.000106172               0.000000036               0.000000014               0.000035386               0.000035400               0.000000000               0.000000000               0.000000000               0.000000000               0.000056743               0.000169973               0.000000009               0.000000032               0.000056646               0.000056678               0.000000000               0.000000000               0.000000000               0.000000000               0.000078598               0.000235779              -0.000000015               0.000000002               0.000078592               0.000078593               0.000000000               0.000000000               0.000000000               0.000000000               0.000100656               0.000302223               0.000000006              -0.000000032               0.000100751               0.000100719               0.000000000               0.000000000               0.000000000               0.000000000               0.000122786               0.000368629               0.000000032              -0.000000034               0.000122886               0.000122853               0.000000000               0.000000000               0.000000000               0.000000000               0.000145101               0.000435097               0.000000022               0.000000026               0.000145022               0.000145048               0.000000000               0.000000000               0.000000000               0.000000000               0.000167319               0.000501273              -0.000000012               0.000000086               0.000167061               0.000167147               0.000000000               0.000000000               0.000000000               0.000000000               0.000189419               0.000567554              -0.000000011               0.000000088               0.000189153               0.000189241               0.000000000               0.000000000               0.000000000               0.000000000               0.000199789               0.000598875              -0.000000015               0.000000062               0.000199603               0.000199664               0.000000000               0.000000000               0.000000000               0.000000000               0.000000000               0.000000000               0.000000000               0.000000000               0.000000000               0.000000000               0.000000000               0.000000000               0.000000000               0.000000000               0.000000000               0.000000000               0.000000000               0.000000000               0.000000000               0.000000000               0.000000000               0.000000000               0.000000000               0.000000000               0.000000000               0.000000000               0.000000000               0.000000000               0.000000000               0.000000000               0.000000000               0.000000000               0.000000000               0.000000000               0.000000000               0.000000000               0.000000000               0.000000000               0.000000000               0.000000000               0.000000000               0.000000000               0.000000000               0.000000000               0.000000000               0.000000000               0.000000000               0.000000000               0.000000000               0.000000000               0.000000000               0.000000000               0.000000000               0.000000000               0.000000000               0.000000000               0.000000000               0.000000000               0.000000000               0.000000000               0.000000000               0.000000000               0.000000000               0.000000000               0.000000000               0.000000000               0.000000000               0.000000000               0.000000000               0.000000000               0.000000000               0.000000000               0.000000000               0.000000000               0.000000000               0.000000000               0.000000000               0.000000000               0.000000000               0.000000000               0.000000000               0.000000000               0.000000000               0.000000000               0.000000000               0.000000000               0.000000000               0.000000000               0.000000000               0.000000000               0.000000000               0.000000000               0.000000000               0.000000000               0.000000000               0.000000000               0.000000000               0.000000000               0.000000000               0.000000000               0.000000000               0.000000000               0.000000000               0.000000000               0.000000000               0.000000000               0.000000000               0.000000000               0.000000000               0.000000000               0.000000000               0.000000000               0.000000000               0.000000000               0.000000000               0.000000000               0.000000000               0.000000000               0.000000000               0.000000000               0.000000000               0.000000000               0.000000000               0.000000000               0.000000000               0.000000000               0.000000000               0.000000000               0.000000000               0.000000000               0.000000000               0.000000000               0.000000000               0.000000000               0.000000000               0.000000000               0.000000000               0.000000000               0.000000000               0.000000000               0.000000000               0.000000000               0.000000000               0.000000000               0.000000000               0.000000000               0.000000000               0.000000000               0.000000000               0.000000000               0.000000000               0.000000000               0.000000000               0.000000000               0.000000000               0.000000000               0.000000000               0.000000000               0.000000000               0.000000000               0.000000000               0.000000000               0.000000000               0.000000000               0.000000000               0.000000000               0.000000000               0.000000000               0.000000000               0.000000000               0.000000000               0.000000000               0.000000000               0.000000000 </DataArray>
</PointData>
</Piece>
</UnstructuredGrid> </VTKFile>
