<?xml version="1.0"?>
<VTKFile type="UnstructuredGrid" version="0.1">
<UnstructuredGrid>
<Piece NumberOfPoints="      1156" NumberOfCells="      1024">
<Points>
<DataArray type="Float64"                                    Name="coordinates"                                                      NumberOfComponents=" 3" format="ascii">
              0.133000000               0.000000000               0.000000000               0.155937500               0.000000000               0.000000000               0.178875000               0.000000000               0.000000000               0.201812500               0.000000000               0.000000000               0.224750000               0.000000000               0.000000000               0.247687500               0.000000000               0.000000000               0.270625000               0.000000000               0.000000000               0.293562500               0.000000000               0.000000000               0.316500000               0.000000000               0.000000000               0.339437500               0.000000000               0.000000000               0.362375000               0.000000000               0.000000000               0.385312500               0.000000000               0.000000000               0.408250000               0.000000000               0.000000000               0.431187500               0.000000000               0.000000000               0.454125000               0.000000000               0.000000000               0.477062500               0.000000000               0.000000000               0.500000000               0.000000000               0.000000000               0.132359569               0.013036280               0.000000000               0.155337096               0.016127762               0.000000000               0.178314623               0.019219245               0.000000000               0.201292150               0.022310727               0.000000000               0.224269676               0.025402210               0.000000000               0.247247203               0.028493692               0.000000000               0.270224730               0.031585175               0.000000000               0.293202257               0.034676657               0.000000000               0.316179784               0.037768140               0.000000000               0.339157311               0.040859622               0.000000000               0.362134838               0.043951105               0.000000000               0.385112365               0.047042587               0.000000000               0.408089892               0.050134070               0.000000000               0.431067419               0.053225552               0.000000000               0.454044946               0.056317035               0.000000000               0.477022473               0.059408517               0.000000000               0.500000000               0.062500000               0.000000000               0.130444442               0.025947013               0.000000000               0.153541665               0.032137825               0.000000000               0.176638887               0.038328636               0.000000000               0.199736109               0.044519448               0.000000000               0.222833332               0.050710260               0.000000000               0.245930554               0.056901071               0.000000000               0.269027776               0.063091883               0.000000000               0.292124999               0.069282695               0.000000000               0.315222221               0.075473506               0.000000000               0.338319444               0.081664318               0.000000000               0.361416666               0.087855130               0.000000000               0.384513888               0.094045942               0.000000000               0.407611111               0.100236753               0.000000000               0.430708333               0.106427565               0.000000000               0.453805555               0.112618377               0.000000000               0.476902778               0.118809188               0.000000000               0.500000000               0.125000000               0.000000000               0.127273065               0.038607862               0.000000000               0.150568498               0.047913621               0.000000000               0.173863932               0.057219379               0.000000000               0.197159365               0.066525138               0.000000000               0.220454798               0.075830897               0.000000000               0.243750232               0.085136655               0.000000000               0.267045665               0.094442414               0.000000000               0.290341099               0.103748172               0.000000000               0.313636532               0.113053931               0.000000000               0.336931966               0.122359690               0.000000000               0.360227399               0.131665448               0.000000000               0.383522833               0.140971207               0.000000000               0.406818266               0.150276966               0.000000000               0.430113700               0.159582724               0.000000000               0.453409133               0.168888483               0.000000000               0.476704567               0.178194241               0.000000000               0.500000000               0.187500000               0.000000000               0.122875978               0.050896897               0.000000000               0.146446229               0.063340840               0.000000000               0.170016481               0.075784784               0.000000000               0.193586732               0.088228728               0.000000000               0.217156983               0.100672672               0.000000000               0.240727235               0.113116616               0.000000000               0.264297486               0.125560560               0.000000000               0.287867738               0.138004504               0.000000000               0.311437989               0.150448448               0.000000000               0.335008240               0.162892392               0.000000000               0.358578492               0.175336336               0.000000000               0.382148743               0.187780280               0.000000000               0.405718994               0.200224224               0.000000000               0.429289246               0.212668168               0.000000000               0.452859497               0.225112112               0.000000000               0.476429749               0.237556056               0.000000000               0.500000000               0.250000000               0.000000000               0.117295528               0.062695766               0.000000000               0.141214558               0.078308531               0.000000000               0.165133587               0.093921295               0.000000000               0.189052617               0.109534060               0.000000000               0.212971646               0.125146824               0.000000000               0.236890676               0.140759589               0.000000000               0.260809705               0.156372354               0.000000000               0.284728735               0.171985118               0.000000000               0.308647764               0.187597883               0.000000000               0.332566794               0.203210648               0.000000000               0.356485823               0.218823412               0.000000000               0.380404853               0.234436177               0.000000000               0.404323882               0.250048941               0.000000000               0.428242912               0.265661706               0.000000000               0.452161941               0.281274471               0.000000000               0.476080971               0.296887235               0.000000000               0.500000000               0.312500000               0.000000000               0.110585458               0.073890841               0.000000000               0.134923867               0.092710163               0.000000000               0.159262276               0.111529486               0.000000000               0.183600685               0.130348808               0.000000000               0.207939094               0.149168131               0.000000000               0.232277503               0.167987453               0.000000000               0.256615912               0.186806776               0.000000000               0.280954320               0.205626098               0.000000000               0.305292729               0.224445420               0.000000000               0.329631138               0.243264743               0.000000000               0.353969547               0.262084065               0.000000000               0.378307956               0.280903388               0.000000000               0.402646365               0.299722710               0.000000000               0.426984773               0.318542033               0.000000000               0.451323182               0.337361355               0.000000000               0.475661591               0.356180678               0.000000000               0.500000000               0.375000000               0.000000000               0.102810390               0.084374307               0.000000000               0.127634741               0.106444663               0.000000000               0.152459092               0.128515018               0.000000000               0.177283442               0.150585374               0.000000000               0.202107793               0.172655730               0.000000000               0.226932143               0.194726086               0.000000000               0.251756494               0.216796442               0.000000000               0.276580845               0.238866798               0.000000000               0.301405195               0.260937153               0.000000000               0.326229546               0.283007509               0.000000000               0.351053896               0.305077865               0.000000000               0.375878247               0.327148221               0.000000000               0.400702598               0.349218577               0.000000000               0.425526948               0.371288933               0.000000000               0.450351299               0.393359288               0.000000000               0.475175649               0.415429644               0.000000000               0.500000000               0.437500000               0.000000000               0.094045202               0.094045202               0.000000000               0.119417377               0.119417377               0.000000000               0.144789552               0.144789552               0.000000000               0.170161727               0.170161727               0.000000000               0.195533901               0.195533901               0.000000000               0.220906076               0.220906076               0.000000000               0.246278251               0.246278251               0.000000000               0.271650426               0.271650426               0.000000000               0.297022601               0.297022601               0.000000000               0.322394776               0.322394776               0.000000000               0.347766951               0.347766951               0.000000000               0.373139126               0.373139126               0.000000000               0.398511300               0.398511300               0.000000000               0.423883475               0.423883475               0.000000000               0.449255650               0.449255650               0.000000000               0.474627825               0.474627825               0.000000000               0.500000000               0.500000000               0.000000000               0.084374307               0.102810390               0.000000000               0.106444663               0.127634741               0.000000000               0.128515018               0.152459092               0.000000000               0.150585374               0.177283442               0.000000000               0.172655730               0.202107793               0.000000000               0.194726086               0.226932143               0.000000000               0.216796442               0.251756494               0.000000000               0.238866798               0.276580845               0.000000000               0.260937153               0.301405195               0.000000000               0.283007509               0.326229546               0.000000000               0.305077865               0.351053896               0.000000000               0.327148221               0.375878247               0.000000000               0.349218577               0.400702598               0.000000000               0.371288933               0.425526948               0.000000000               0.393359288               0.450351299               0.000000000               0.415429644               0.475175649               0.000000000               0.437500000               0.500000000               0.000000000               0.073890841               0.110585458               0.000000000               0.092710163               0.134923867               0.000000000               0.111529486               0.159262276               0.000000000               0.130348808               0.183600685               0.000000000               0.149168131               0.207939094               0.000000000               0.167987453               0.232277503               0.000000000               0.186806776               0.256615912               0.000000000               0.205626098               0.280954320               0.000000000               0.224445420               0.305292729               0.000000000               0.243264743               0.329631138               0.000000000               0.262084065               0.353969547               0.000000000               0.280903388               0.378307956               0.000000000               0.299722710               0.402646365               0.000000000               0.318542033               0.426984773               0.000000000               0.337361355               0.451323182               0.000000000               0.356180678               0.475661591               0.000000000               0.375000000               0.500000000               0.000000000               0.062695766               0.117295528               0.000000000               0.078308531               0.141214558               0.000000000               0.093921295               0.165133587               0.000000000               0.109534060               0.189052617               0.000000000               0.125146824               0.212971646               0.000000000               0.140759589               0.236890676               0.000000000               0.156372354               0.260809705               0.000000000               0.171985118               0.284728735               0.000000000               0.187597883               0.308647764               0.000000000               0.203210648               0.332566794               0.000000000               0.218823412               0.356485823               0.000000000               0.234436177               0.380404853               0.000000000               0.250048941               0.404323882               0.000000000               0.265661706               0.428242912               0.000000000               0.281274471               0.452161941               0.000000000               0.296887235               0.476080971               0.000000000               0.312500000               0.500000000               0.000000000               0.050896897               0.122875978               0.000000000               0.063340840               0.146446229               0.000000000               0.075784784               0.170016481               0.000000000               0.088228728               0.193586732               0.000000000               0.100672672               0.217156983               0.000000000               0.113116616               0.240727235               0.000000000               0.125560560               0.264297486               0.000000000               0.138004504               0.287867738               0.000000000               0.150448448               0.311437989               0.000000000               0.162892392               0.335008240               0.000000000               0.175336336               0.358578492               0.000000000               0.187780280               0.382148743               0.000000000               0.200224224               0.405718994               0.000000000               0.212668168               0.429289246               0.000000000               0.225112112               0.452859497               0.000000000               0.237556056               0.476429749               0.000000000               0.250000000               0.500000000               0.000000000               0.038607862               0.127273065               0.000000000               0.047913621               0.150568498               0.000000000               0.057219379               0.173863932               0.000000000               0.066525138               0.197159365               0.000000000               0.075830897               0.220454798               0.000000000               0.085136655               0.243750232               0.000000000               0.094442414               0.267045665               0.000000000               0.103748172               0.290341099               0.000000000               0.113053931               0.313636532               0.000000000               0.122359690               0.336931966               0.000000000               0.131665448               0.360227399               0.000000000               0.140971207               0.383522833               0.000000000               0.150276966               0.406818266               0.000000000               0.159582724               0.430113700               0.000000000               0.168888483               0.453409133               0.000000000               0.178194241               0.476704567               0.000000000               0.187500000               0.500000000               0.000000000               0.025947013               0.130444442               0.000000000               0.032137825               0.153541665               0.000000000               0.038328636               0.176638887               0.000000000               0.044519448               0.199736109               0.000000000               0.050710260               0.222833332               0.000000000               0.056901071               0.245930554               0.000000000               0.063091883               0.269027776               0.000000000               0.069282695               0.292124999               0.000000000               0.075473506               0.315222221               0.000000000               0.081664318               0.338319444               0.000000000               0.087855130               0.361416666               0.000000000               0.094045942               0.384513888               0.000000000               0.100236753               0.407611111               0.000000000               0.106427565               0.430708333               0.000000000               0.112618377               0.453805555               0.000000000               0.118809188               0.476902778               0.000000000               0.125000000               0.500000000               0.000000000               0.013036280               0.132359569               0.000000000               0.016127762               0.155337096               0.000000000               0.019219245               0.178314623               0.000000000               0.022310727               0.201292150               0.000000000               0.025402210               0.224269676               0.000000000               0.028493692               0.247247203               0.000000000               0.031585175               0.270224730               0.000000000               0.034676657               0.293202257               0.000000000               0.037768140               0.316179784               0.000000000               0.040859622               0.339157311               0.000000000               0.043951105               0.362134838               0.000000000               0.047042587               0.385112365               0.000000000               0.050134070               0.408089892               0.000000000               0.053225552               0.431067419               0.000000000               0.056317035               0.454044946               0.000000000               0.059408517               0.477022473               0.000000000               0.062500000               0.500000000               0.000000000               0.000000000               0.133000000               0.000000000               0.000000000               0.155937500               0.000000000               0.000000000               0.178875000               0.000000000               0.000000000               0.201812500               0.000000000               0.000000000               0.224750000               0.000000000               0.000000000               0.247687500               0.000000000               0.000000000               0.270625000               0.000000000               0.000000000               0.293562500               0.000000000               0.000000000               0.316500000               0.000000000               0.000000000               0.339437500               0.000000000               0.000000000               0.362375000               0.000000000               0.000000000               0.385312500               0.000000000               0.000000000               0.408250000               0.000000000               0.000000000               0.431187500               0.000000000               0.000000000               0.454125000               0.000000000               0.000000000               0.477062500               0.000000000               0.000000000               0.500000000               0.000000000               0.133000000               0.000000000               0.000000000               0.155937500               0.000000000               0.000000000               0.178875000               0.000000000               0.000000000               0.201812500               0.000000000               0.000000000               0.224750000               0.000000000               0.000000000               0.247687500               0.000000000               0.000000000               0.270625000               0.000000000               0.000000000               0.293562500               0.000000000               0.000000000               0.316500000               0.000000000               0.000000000               0.339437500               0.000000000               0.000000000               0.362375000               0.000000000               0.000000000               0.385312500               0.000000000               0.000000000               0.408250000               0.000000000               0.000000000               0.431187500               0.000000000               0.000000000               0.454125000               0.000000000               0.000000000               0.477062500               0.000000000               0.000000000               0.500000000               0.000000000               0.000000000               0.132359569              -0.013036280               0.000000000               0.155337096              -0.016127762               0.000000000               0.178314623              -0.019219245               0.000000000               0.201292150              -0.022310727               0.000000000               0.224269676              -0.025402210               0.000000000               0.247247203              -0.028493692               0.000000000               0.270224730              -0.031585175               0.000000000               0.293202257              -0.034676657               0.000000000               0.316179784              -0.037768140               0.000000000               0.339157311              -0.040859622               0.000000000               0.362134838              -0.043951105               0.000000000               0.385112365              -0.047042587               0.000000000               0.408089892              -0.050134070               0.000000000               0.431067419              -0.053225552               0.000000000               0.454044946              -0.056317035               0.000000000               0.477022473              -0.059408517               0.000000000               0.500000000              -0.062500000               0.000000000               0.130444442              -0.025947013               0.000000000               0.153541665              -0.032137825               0.000000000               0.176638887              -0.038328636               0.000000000               0.199736109              -0.044519448               0.000000000               0.222833332              -0.050710260               0.000000000               0.245930554              -0.056901071               0.000000000               0.269027776              -0.063091883               0.000000000               0.292124999              -0.069282695               0.000000000               0.315222221              -0.075473506               0.000000000               0.338319444              -0.081664318               0.000000000               0.361416666              -0.087855130               0.000000000               0.384513888              -0.094045942               0.000000000               0.407611111              -0.100236753               0.000000000               0.430708333              -0.106427565               0.000000000               0.453805555              -0.112618377               0.000000000               0.476902778              -0.118809188               0.000000000               0.500000000              -0.125000000               0.000000000               0.127273065              -0.038607862               0.000000000               0.150568498              -0.047913621               0.000000000               0.173863932              -0.057219379               0.000000000               0.197159365              -0.066525138               0.000000000               0.220454798              -0.075830897               0.000000000               0.243750232              -0.085136655               0.000000000               0.267045665              -0.094442414               0.000000000               0.290341099              -0.103748172               0.000000000               0.313636532              -0.113053931               0.000000000               0.336931966              -0.122359690               0.000000000               0.360227399              -0.131665448               0.000000000               0.383522833              -0.140971207               0.000000000               0.406818266              -0.150276966               0.000000000               0.430113700              -0.159582724               0.000000000               0.453409133              -0.168888483               0.000000000               0.476704567              -0.178194241               0.000000000               0.500000000              -0.187500000               0.000000000               0.122875978              -0.050896897               0.000000000               0.146446229              -0.063340840               0.000000000               0.170016481              -0.075784784               0.000000000               0.193586732              -0.088228728               0.000000000               0.217156983              -0.100672672               0.000000000               0.240727235              -0.113116616               0.000000000               0.264297486              -0.125560560               0.000000000               0.287867738              -0.138004504               0.000000000               0.311437989              -0.150448448               0.000000000               0.335008240              -0.162892392               0.000000000               0.358578492              -0.175336336               0.000000000               0.382148743              -0.187780280               0.000000000               0.405718994              -0.200224224               0.000000000               0.429289246              -0.212668168               0.000000000               0.452859497              -0.225112112               0.000000000               0.476429749              -0.237556056               0.000000000               0.500000000              -0.250000000               0.000000000               0.117295528              -0.062695766               0.000000000               0.141214558              -0.078308531               0.000000000               0.165133587              -0.093921295               0.000000000               0.189052617              -0.109534060               0.000000000               0.212971646              -0.125146824               0.000000000               0.236890676              -0.140759589               0.000000000               0.260809705              -0.156372354               0.000000000               0.284728735              -0.171985118               0.000000000               0.308647764              -0.187597883               0.000000000               0.332566794              -0.203210648               0.000000000               0.356485823              -0.218823412               0.000000000               0.380404853              -0.234436177               0.000000000               0.404323882              -0.250048941               0.000000000               0.428242912              -0.265661706               0.000000000               0.452161941              -0.281274471               0.000000000               0.476080971              -0.296887235               0.000000000               0.500000000              -0.312500000               0.000000000               0.110585458              -0.073890841               0.000000000               0.134923867              -0.092710163               0.000000000               0.159262276              -0.111529486               0.000000000               0.183600685              -0.130348808               0.000000000               0.207939094              -0.149168131               0.000000000               0.232277503              -0.167987453               0.000000000               0.256615912              -0.186806776               0.000000000               0.280954320              -0.205626098               0.000000000               0.305292729              -0.224445420               0.000000000               0.329631138              -0.243264743               0.000000000               0.353969547              -0.262084065               0.000000000               0.378307956              -0.280903388               0.000000000               0.402646365              -0.299722710               0.000000000               0.426984773              -0.318542033               0.000000000               0.451323182              -0.337361355               0.000000000               0.475661591              -0.356180678               0.000000000               0.500000000              -0.375000000               0.000000000               0.102810390              -0.084374307               0.000000000               0.127634741              -0.106444663               0.000000000               0.152459092              -0.128515018               0.000000000               0.177283442              -0.150585374               0.000000000               0.202107793              -0.172655730               0.000000000               0.226932143              -0.194726086               0.000000000               0.251756494              -0.216796442               0.000000000               0.276580845              -0.238866798               0.000000000               0.301405195              -0.260937153               0.000000000               0.326229546              -0.283007509               0.000000000               0.351053896              -0.305077865               0.000000000               0.375878247              -0.327148221               0.000000000               0.400702598              -0.349218577               0.000000000               0.425526948              -0.371288933               0.000000000               0.450351299              -0.393359288               0.000000000               0.475175649              -0.415429644               0.000000000               0.500000000              -0.437500000               0.000000000               0.094045202              -0.094045202               0.000000000               0.119417377              -0.119417377               0.000000000               0.144789552              -0.144789552               0.000000000               0.170161727              -0.170161727               0.000000000               0.195533901              -0.195533901               0.000000000               0.220906076              -0.220906076               0.000000000               0.246278251              -0.246278251               0.000000000               0.271650426              -0.271650426               0.000000000               0.297022601              -0.297022601               0.000000000               0.322394776              -0.322394776               0.000000000               0.347766951              -0.347766951               0.000000000               0.373139126              -0.373139126               0.000000000               0.398511300              -0.398511300               0.000000000               0.423883475              -0.423883475               0.000000000               0.449255650              -0.449255650               0.000000000               0.474627825              -0.474627825               0.000000000               0.500000000              -0.500000000               0.000000000               0.084374307              -0.102810390               0.000000000               0.106444663              -0.127634741               0.000000000               0.128515018              -0.152459092               0.000000000               0.150585374              -0.177283442               0.000000000               0.172655730              -0.202107793               0.000000000               0.194726086              -0.226932143               0.000000000               0.216796442              -0.251756494               0.000000000               0.238866798              -0.276580845               0.000000000               0.260937153              -0.301405195               0.000000000               0.283007509              -0.326229546               0.000000000               0.305077865              -0.351053896               0.000000000               0.327148221              -0.375878247               0.000000000               0.349218577              -0.400702598               0.000000000               0.371288933              -0.425526948               0.000000000               0.393359288              -0.450351299               0.000000000               0.415429644              -0.475175649               0.000000000               0.437500000              -0.500000000               0.000000000               0.073890841              -0.110585458               0.000000000               0.092710163              -0.134923867               0.000000000               0.111529486              -0.159262276               0.000000000               0.130348808              -0.183600685               0.000000000               0.149168131              -0.207939094               0.000000000               0.167987453              -0.232277503               0.000000000               0.186806776              -0.256615912               0.000000000               0.205626098              -0.280954320               0.000000000               0.224445420              -0.305292729               0.000000000               0.243264743              -0.329631138               0.000000000               0.262084065              -0.353969547               0.000000000               0.280903388              -0.378307956               0.000000000               0.299722710              -0.402646365               0.000000000               0.318542033              -0.426984773               0.000000000               0.337361355              -0.451323182               0.000000000               0.356180678              -0.475661591               0.000000000               0.375000000              -0.500000000               0.000000000               0.062695766              -0.117295528               0.000000000               0.078308531              -0.141214558               0.000000000               0.093921295              -0.165133587               0.000000000               0.109534060              -0.189052617               0.000000000               0.125146824              -0.212971646               0.000000000               0.140759589              -0.236890676               0.000000000               0.156372354              -0.260809705               0.000000000               0.171985118              -0.284728735               0.000000000               0.187597883              -0.308647764               0.000000000               0.203210648              -0.332566794               0.000000000               0.218823412              -0.356485823               0.000000000               0.234436177              -0.380404853               0.000000000               0.250048941              -0.404323882               0.000000000               0.265661706              -0.428242912               0.000000000               0.281274471              -0.452161941               0.000000000               0.296887235              -0.476080971               0.000000000               0.312500000              -0.500000000               0.000000000               0.050896897              -0.122875978               0.000000000               0.063340840              -0.146446229               0.000000000               0.075784784              -0.170016481               0.000000000               0.088228728              -0.193586732               0.000000000               0.100672672              -0.217156983               0.000000000               0.113116616              -0.240727235               0.000000000               0.125560560              -0.264297486               0.000000000               0.138004504              -0.287867738               0.000000000               0.150448448              -0.311437989               0.000000000               0.162892392              -0.335008240               0.000000000               0.175336336              -0.358578492               0.000000000               0.187780280              -0.382148743               0.000000000               0.200224224              -0.405718994               0.000000000               0.212668168              -0.429289246               0.000000000               0.225112112              -0.452859497               0.000000000               0.237556056              -0.476429749               0.000000000               0.250000000              -0.500000000               0.000000000               0.038607862              -0.127273065               0.000000000               0.047913621              -0.150568498               0.000000000               0.057219379              -0.173863932               0.000000000               0.066525138              -0.197159365               0.000000000               0.075830897              -0.220454798               0.000000000               0.085136655              -0.243750232               0.000000000               0.094442414              -0.267045665               0.000000000               0.103748172              -0.290341099               0.000000000               0.113053931              -0.313636532               0.000000000               0.122359690              -0.336931966               0.000000000               0.131665448              -0.360227399               0.000000000               0.140971207              -0.383522833               0.000000000               0.150276966              -0.406818266               0.000000000               0.159582724              -0.430113700               0.000000000               0.168888483              -0.453409133               0.000000000               0.178194241              -0.476704567               0.000000000               0.187500000              -0.500000000               0.000000000               0.025947013              -0.130444442               0.000000000               0.032137825              -0.153541665               0.000000000               0.038328636              -0.176638887               0.000000000               0.044519448              -0.199736109               0.000000000               0.050710260              -0.222833332               0.000000000               0.056901071              -0.245930554               0.000000000               0.063091883              -0.269027776               0.000000000               0.069282695              -0.292124999               0.000000000               0.075473506              -0.315222221               0.000000000               0.081664318              -0.338319444               0.000000000               0.087855130              -0.361416666               0.000000000               0.094045942              -0.384513888               0.000000000               0.100236753              -0.407611111               0.000000000               0.106427565              -0.430708333               0.000000000               0.112618377              -0.453805555               0.000000000               0.118809188              -0.476902778               0.000000000               0.125000000              -0.500000000               0.000000000               0.013036280              -0.132359569               0.000000000               0.016127762              -0.155337096               0.000000000               0.019219245              -0.178314623               0.000000000               0.022310727              -0.201292150               0.000000000               0.025402210              -0.224269676               0.000000000               0.028493692              -0.247247203               0.000000000               0.031585175              -0.270224730               0.000000000               0.034676657              -0.293202257               0.000000000               0.037768140              -0.316179784               0.000000000               0.040859622              -0.339157311               0.000000000               0.043951105              -0.362134838               0.000000000               0.047042587              -0.385112365               0.000000000               0.050134070              -0.408089892               0.000000000               0.053225552              -0.431067419               0.000000000               0.056317035              -0.454044946               0.000000000               0.059408517              -0.477022473               0.000000000               0.062500000              -0.500000000               0.000000000               0.000000000              -0.133000000               0.000000000               0.000000000              -0.155937500               0.000000000               0.000000000              -0.178875000               0.000000000               0.000000000              -0.201812500               0.000000000               0.000000000              -0.224750000               0.000000000               0.000000000              -0.247687500               0.000000000               0.000000000              -0.270625000               0.000000000               0.000000000              -0.293562500               0.000000000               0.000000000              -0.316500000               0.000000000               0.000000000              -0.339437500               0.000000000               0.000000000              -0.362375000               0.000000000               0.000000000              -0.385312500               0.000000000               0.000000000              -0.408250000               0.000000000               0.000000000              -0.431187500               0.000000000               0.000000000              -0.454125000               0.000000000               0.000000000              -0.477062500               0.000000000               0.000000000              -0.500000000               0.000000000              -0.133000000               0.000000000               0.000000000              -0.155937500               0.000000000               0.000000000              -0.178875000               0.000000000               0.000000000              -0.201812500               0.000000000               0.000000000              -0.224750000               0.000000000               0.000000000              -0.247687500               0.000000000               0.000000000              -0.270625000               0.000000000               0.000000000              -0.293562500               0.000000000               0.000000000              -0.316500000               0.000000000               0.000000000              -0.339437500               0.000000000               0.000000000              -0.362375000               0.000000000               0.000000000              -0.385312500               0.000000000               0.000000000              -0.408250000               0.000000000               0.000000000              -0.431187500               0.000000000               0.000000000              -0.454125000               0.000000000               0.000000000              -0.477062500               0.000000000               0.000000000              -0.500000000               0.000000000               0.000000000              -0.132359569              -0.013036280               0.000000000              -0.155337096              -0.016127762               0.000000000              -0.178314623              -0.019219245               0.000000000              -0.201292150              -0.022310727               0.000000000              -0.224269676              -0.025402210               0.000000000              -0.247247203              -0.028493692               0.000000000              -0.270224730              -0.031585175               0.000000000              -0.293202257              -0.034676657               0.000000000              -0.316179784              -0.037768140               0.000000000              -0.339157311              -0.040859622               0.000000000              -0.362134838              -0.043951105               0.000000000              -0.385112365              -0.047042587               0.000000000              -0.408089892              -0.050134070               0.000000000              -0.431067419              -0.053225552               0.000000000              -0.454044946              -0.056317035               0.000000000              -0.477022473              -0.059408517               0.000000000              -0.500000000              -0.062500000               0.000000000              -0.130444442              -0.025947013               0.000000000              -0.153541665              -0.032137825               0.000000000              -0.176638887              -0.038328636               0.000000000              -0.199736109              -0.044519448               0.000000000              -0.222833332              -0.050710260               0.000000000              -0.245930554              -0.056901071               0.000000000              -0.269027776              -0.063091883               0.000000000              -0.292124999              -0.069282695               0.000000000              -0.315222221              -0.075473506               0.000000000              -0.338319444              -0.081664318               0.000000000              -0.361416666              -0.087855130               0.000000000              -0.384513888              -0.094045942               0.000000000              -0.407611111              -0.100236753               0.000000000              -0.430708333              -0.106427565               0.000000000              -0.453805555              -0.112618377               0.000000000              -0.476902778              -0.118809188               0.000000000              -0.500000000              -0.125000000               0.000000000              -0.127273065              -0.038607862               0.000000000              -0.150568498              -0.047913621               0.000000000              -0.173863932              -0.057219379               0.000000000              -0.197159365              -0.066525138               0.000000000              -0.220454798              -0.075830897               0.000000000              -0.243750232              -0.085136655               0.000000000              -0.267045665              -0.094442414               0.000000000              -0.290341099              -0.103748172               0.000000000              -0.313636532              -0.113053931               0.000000000              -0.336931966              -0.122359690               0.000000000              -0.360227399              -0.131665448               0.000000000              -0.383522833              -0.140971207               0.000000000              -0.406818266              -0.150276966               0.000000000              -0.430113700              -0.159582724               0.000000000              -0.453409133              -0.168888483               0.000000000              -0.476704567              -0.178194241               0.000000000              -0.500000000              -0.187500000               0.000000000              -0.122875978              -0.050896897               0.000000000              -0.146446229              -0.063340840               0.000000000              -0.170016481              -0.075784784               0.000000000              -0.193586732              -0.088228728               0.000000000              -0.217156983              -0.100672672               0.000000000              -0.240727235              -0.113116616               0.000000000              -0.264297486              -0.125560560               0.000000000              -0.287867738              -0.138004504               0.000000000              -0.311437989              -0.150448448               0.000000000              -0.335008240              -0.162892392               0.000000000              -0.358578492              -0.175336336               0.000000000              -0.382148743              -0.187780280               0.000000000              -0.405718994              -0.200224224               0.000000000              -0.429289246              -0.212668168               0.000000000              -0.452859497              -0.225112112               0.000000000              -0.476429749              -0.237556056               0.000000000              -0.500000000              -0.250000000               0.000000000              -0.117295528              -0.062695766               0.000000000              -0.141214558              -0.078308531               0.000000000              -0.165133587              -0.093921295               0.000000000              -0.189052617              -0.109534060               0.000000000              -0.212971646              -0.125146824               0.000000000              -0.236890676              -0.140759589               0.000000000              -0.260809705              -0.156372354               0.000000000              -0.284728735              -0.171985118               0.000000000              -0.308647764              -0.187597883               0.000000000              -0.332566794              -0.203210648               0.000000000              -0.356485823              -0.218823412               0.000000000              -0.380404853              -0.234436177               0.000000000              -0.404323882              -0.250048941               0.000000000              -0.428242912              -0.265661706               0.000000000              -0.452161941              -0.281274471               0.000000000              -0.476080971              -0.296887235               0.000000000              -0.500000000              -0.312500000               0.000000000              -0.110585458              -0.073890841               0.000000000              -0.134923867              -0.092710163               0.000000000              -0.159262276              -0.111529486               0.000000000              -0.183600685              -0.130348808               0.000000000              -0.207939094              -0.149168131               0.000000000              -0.232277503              -0.167987453               0.000000000              -0.256615912              -0.186806776               0.000000000              -0.280954320              -0.205626098               0.000000000              -0.305292729              -0.224445420               0.000000000              -0.329631138              -0.243264743               0.000000000              -0.353969547              -0.262084065               0.000000000              -0.378307956              -0.280903388               0.000000000              -0.402646365              -0.299722710               0.000000000              -0.426984773              -0.318542033               0.000000000              -0.451323182              -0.337361355               0.000000000              -0.475661591              -0.356180678               0.000000000              -0.500000000              -0.375000000               0.000000000              -0.102810390              -0.084374307               0.000000000              -0.127634741              -0.106444663               0.000000000              -0.152459092              -0.128515018               0.000000000              -0.177283442              -0.150585374               0.000000000              -0.202107793              -0.172655730               0.000000000              -0.226932143              -0.194726086               0.000000000              -0.251756494              -0.216796442               0.000000000              -0.276580845              -0.238866798               0.000000000              -0.301405195              -0.260937153               0.000000000              -0.326229546              -0.283007509               0.000000000              -0.351053896              -0.305077865               0.000000000              -0.375878247              -0.327148221               0.000000000              -0.400702598              -0.349218577               0.000000000              -0.425526948              -0.371288933               0.000000000              -0.450351299              -0.393359288               0.000000000              -0.475175649              -0.415429644               0.000000000              -0.500000000              -0.437500000               0.000000000              -0.094045202              -0.094045202               0.000000000              -0.119417377              -0.119417377               0.000000000              -0.144789552              -0.144789552               0.000000000              -0.170161727              -0.170161727               0.000000000              -0.195533901              -0.195533901               0.000000000              -0.220906076              -0.220906076               0.000000000              -0.246278251              -0.246278251               0.000000000              -0.271650426              -0.271650426               0.000000000              -0.297022601              -0.297022601               0.000000000              -0.322394776              -0.322394776               0.000000000              -0.347766951              -0.347766951               0.000000000              -0.373139126              -0.373139126               0.000000000              -0.398511300              -0.398511300               0.000000000              -0.423883475              -0.423883475               0.000000000              -0.449255650              -0.449255650               0.000000000              -0.474627825              -0.474627825               0.000000000              -0.500000000              -0.500000000               0.000000000              -0.084374307              -0.102810390               0.000000000              -0.106444663              -0.127634741               0.000000000              -0.128515018              -0.152459092               0.000000000              -0.150585374              -0.177283442               0.000000000              -0.172655730              -0.202107793               0.000000000              -0.194726086              -0.226932143               0.000000000              -0.216796442              -0.251756494               0.000000000              -0.238866798              -0.276580845               0.000000000              -0.260937153              -0.301405195               0.000000000              -0.283007509              -0.326229546               0.000000000              -0.305077865              -0.351053896               0.000000000              -0.327148221              -0.375878247               0.000000000              -0.349218577              -0.400702598               0.000000000              -0.371288933              -0.425526948               0.000000000              -0.393359288              -0.450351299               0.000000000              -0.415429644              -0.475175649               0.000000000              -0.437500000              -0.500000000               0.000000000              -0.073890841              -0.110585458               0.000000000              -0.092710163              -0.134923867               0.000000000              -0.111529486              -0.159262276               0.000000000              -0.130348808              -0.183600685               0.000000000              -0.149168131              -0.207939094               0.000000000              -0.167987453              -0.232277503               0.000000000              -0.186806776              -0.256615912               0.000000000              -0.205626098              -0.280954320               0.000000000              -0.224445420              -0.305292729               0.000000000              -0.243264743              -0.329631138               0.000000000              -0.262084065              -0.353969547               0.000000000              -0.280903388              -0.378307956               0.000000000              -0.299722710              -0.402646365               0.000000000              -0.318542033              -0.426984773               0.000000000              -0.337361355              -0.451323182               0.000000000              -0.356180678              -0.475661591               0.000000000              -0.375000000              -0.500000000               0.000000000              -0.062695766              -0.117295528               0.000000000              -0.078308531              -0.141214558               0.000000000              -0.093921295              -0.165133587               0.000000000              -0.109534060              -0.189052617               0.000000000              -0.125146824              -0.212971646               0.000000000              -0.140759589              -0.236890676               0.000000000              -0.156372354              -0.260809705               0.000000000              -0.171985118              -0.284728735               0.000000000              -0.187597883              -0.308647764               0.000000000              -0.203210648              -0.332566794               0.000000000              -0.218823412              -0.356485823               0.000000000              -0.234436177              -0.380404853               0.000000000              -0.250048941              -0.404323882               0.000000000              -0.265661706              -0.428242912               0.000000000              -0.281274471              -0.452161941               0.000000000              -0.296887235              -0.476080971               0.000000000              -0.312500000              -0.500000000               0.000000000              -0.050896897              -0.122875978               0.000000000              -0.063340840              -0.146446229               0.000000000              -0.075784784              -0.170016481               0.000000000              -0.088228728              -0.193586732               0.000000000              -0.100672672              -0.217156983               0.000000000              -0.113116616              -0.240727235               0.000000000              -0.125560560              -0.264297486               0.000000000              -0.138004504              -0.287867738               0.000000000              -0.150448448              -0.311437989               0.000000000              -0.162892392              -0.335008240               0.000000000              -0.175336336              -0.358578492               0.000000000              -0.187780280              -0.382148743               0.000000000              -0.200224224              -0.405718994               0.000000000              -0.212668168              -0.429289246               0.000000000              -0.225112112              -0.452859497               0.000000000              -0.237556056              -0.476429749               0.000000000              -0.250000000              -0.500000000               0.000000000              -0.038607862              -0.127273065               0.000000000              -0.047913621              -0.150568498               0.000000000              -0.057219379              -0.173863932               0.000000000              -0.066525138              -0.197159365               0.000000000              -0.075830897              -0.220454798               0.000000000              -0.085136655              -0.243750232               0.000000000              -0.094442414              -0.267045665               0.000000000              -0.103748172              -0.290341099               0.000000000              -0.113053931              -0.313636532               0.000000000              -0.122359690              -0.336931966               0.000000000              -0.131665448              -0.360227399               0.000000000              -0.140971207              -0.383522833               0.000000000              -0.150276966              -0.406818266               0.000000000              -0.159582724              -0.430113700               0.000000000              -0.168888483              -0.453409133               0.000000000              -0.178194241              -0.476704567               0.000000000              -0.187500000              -0.500000000               0.000000000              -0.025947013              -0.130444442               0.000000000              -0.032137825              -0.153541665               0.000000000              -0.038328636              -0.176638887               0.000000000              -0.044519448              -0.199736109               0.000000000              -0.050710260              -0.222833332               0.000000000              -0.056901071              -0.245930554               0.000000000              -0.063091883              -0.269027776               0.000000000              -0.069282695              -0.292124999               0.000000000              -0.075473506              -0.315222221               0.000000000              -0.081664318              -0.338319444               0.000000000              -0.087855130              -0.361416666               0.000000000              -0.094045942              -0.384513888               0.000000000              -0.100236753              -0.407611111               0.000000000              -0.106427565              -0.430708333               0.000000000              -0.112618377              -0.453805555               0.000000000              -0.118809188              -0.476902778               0.000000000              -0.125000000              -0.500000000               0.000000000              -0.013036280              -0.132359569               0.000000000              -0.016127762              -0.155337096               0.000000000              -0.019219245              -0.178314623               0.000000000              -0.022310727              -0.201292150               0.000000000              -0.025402210              -0.224269676               0.000000000              -0.028493692              -0.247247203               0.000000000              -0.031585175              -0.270224730               0.000000000              -0.034676657              -0.293202257               0.000000000              -0.037768140              -0.316179784               0.000000000              -0.040859622              -0.339157311               0.000000000              -0.043951105              -0.362134838               0.000000000              -0.047042587              -0.385112365               0.000000000              -0.050134070              -0.408089892               0.000000000              -0.053225552              -0.431067419               0.000000000              -0.056317035              -0.454044946               0.000000000              -0.059408517              -0.477022473               0.000000000              -0.062500000              -0.500000000               0.000000000               0.000000000              -0.133000000               0.000000000               0.000000000              -0.155937500               0.000000000               0.000000000              -0.178875000               0.000000000               0.000000000              -0.201812500               0.000000000               0.000000000              -0.224750000               0.000000000               0.000000000              -0.247687500               0.000000000               0.000000000              -0.270625000               0.000000000               0.000000000              -0.293562500               0.000000000               0.000000000              -0.316500000               0.000000000               0.000000000              -0.339437500               0.000000000               0.000000000              -0.362375000               0.000000000               0.000000000              -0.385312500               0.000000000               0.000000000              -0.408250000               0.000000000               0.000000000              -0.431187500               0.000000000               0.000000000              -0.454125000               0.000000000               0.000000000              -0.477062500               0.000000000               0.000000000              -0.500000000               0.000000000              -0.133000000               0.000000000               0.000000000              -0.155937500               0.000000000               0.000000000              -0.178875000               0.000000000               0.000000000              -0.201812500               0.000000000               0.000000000              -0.224750000               0.000000000               0.000000000              -0.247687500               0.000000000               0.000000000              -0.270625000               0.000000000               0.000000000              -0.293562500               0.000000000               0.000000000              -0.316500000               0.000000000               0.000000000              -0.339437500               0.000000000               0.000000000              -0.362375000               0.000000000               0.000000000              -0.385312500               0.000000000               0.000000000              -0.408250000               0.000000000               0.000000000              -0.431187500               0.000000000               0.000000000              -0.454125000               0.000000000               0.000000000              -0.477062500               0.000000000               0.000000000              -0.500000000               0.000000000               0.000000000              -0.132359569               0.013036280               0.000000000              -0.155337096               0.016127762               0.000000000              -0.178314623               0.019219245               0.000000000              -0.201292150               0.022310727               0.000000000              -0.224269676               0.025402210               0.000000000              -0.247247203               0.028493692               0.000000000              -0.270224730               0.031585175               0.000000000              -0.293202257               0.034676657               0.000000000              -0.316179784               0.037768140               0.000000000              -0.339157311               0.040859622               0.000000000              -0.362134838               0.043951105               0.000000000              -0.385112365               0.047042587               0.000000000              -0.408089892               0.050134070               0.000000000              -0.431067419               0.053225552               0.000000000              -0.454044946               0.056317035               0.000000000              -0.477022473               0.059408517               0.000000000              -0.500000000               0.062500000               0.000000000              -0.130444442               0.025947013               0.000000000              -0.153541665               0.032137825               0.000000000              -0.176638887               0.038328636               0.000000000              -0.199736109               0.044519448               0.000000000              -0.222833332               0.050710260               0.000000000              -0.245930554               0.056901071               0.000000000              -0.269027776               0.063091883               0.000000000              -0.292124999               0.069282695               0.000000000              -0.315222221               0.075473506               0.000000000              -0.338319444               0.081664318               0.000000000              -0.361416666               0.087855130               0.000000000              -0.384513888               0.094045942               0.000000000              -0.407611111               0.100236753               0.000000000              -0.430708333               0.106427565               0.000000000              -0.453805555               0.112618377               0.000000000              -0.476902778               0.118809188               0.000000000              -0.500000000               0.125000000               0.000000000              -0.127273065               0.038607862               0.000000000              -0.150568498               0.047913621               0.000000000              -0.173863932               0.057219379               0.000000000              -0.197159365               0.066525138               0.000000000              -0.220454798               0.075830897               0.000000000              -0.243750232               0.085136655               0.000000000              -0.267045665               0.094442414               0.000000000              -0.290341099               0.103748172               0.000000000              -0.313636532               0.113053931               0.000000000              -0.336931966               0.122359690               0.000000000              -0.360227399               0.131665448               0.000000000              -0.383522833               0.140971207               0.000000000              -0.406818266               0.150276966               0.000000000              -0.430113700               0.159582724               0.000000000              -0.453409133               0.168888483               0.000000000              -0.476704567               0.178194241               0.000000000              -0.500000000               0.187500000               0.000000000              -0.122875978               0.050896897               0.000000000              -0.146446229               0.063340840               0.000000000              -0.170016481               0.075784784               0.000000000              -0.193586732               0.088228728               0.000000000              -0.217156983               0.100672672               0.000000000              -0.240727235               0.113116616               0.000000000              -0.264297486               0.125560560               0.000000000              -0.287867738               0.138004504               0.000000000              -0.311437989               0.150448448               0.000000000              -0.335008240               0.162892392               0.000000000              -0.358578492               0.175336336               0.000000000              -0.382148743               0.187780280               0.000000000              -0.405718994               0.200224224               0.000000000              -0.429289246               0.212668168               0.000000000              -0.452859497               0.225112112               0.000000000              -0.476429749               0.237556056               0.000000000              -0.500000000               0.250000000               0.000000000              -0.117295528               0.062695766               0.000000000              -0.141214558               0.078308531               0.000000000              -0.165133587               0.093921295               0.000000000              -0.189052617               0.109534060               0.000000000              -0.212971646               0.125146824               0.000000000              -0.236890676               0.140759589               0.000000000              -0.260809705               0.156372354               0.000000000              -0.284728735               0.171985118               0.000000000              -0.308647764               0.187597883               0.000000000              -0.332566794               0.203210648               0.000000000              -0.356485823               0.218823412               0.000000000              -0.380404853               0.234436177               0.000000000              -0.404323882               0.250048941               0.000000000              -0.428242912               0.265661706               0.000000000              -0.452161941               0.281274471               0.000000000              -0.476080971               0.296887235               0.000000000              -0.500000000               0.312500000               0.000000000              -0.110585458               0.073890841               0.000000000              -0.134923867               0.092710163               0.000000000              -0.159262276               0.111529486               0.000000000              -0.183600685               0.130348808               0.000000000              -0.207939094               0.149168131               0.000000000              -0.232277503               0.167987453               0.000000000              -0.256615912               0.186806776               0.000000000              -0.280954320               0.205626098               0.000000000              -0.305292729               0.224445420               0.000000000              -0.329631138               0.243264743               0.000000000              -0.353969547               0.262084065               0.000000000              -0.378307956               0.280903388               0.000000000              -0.402646365               0.299722710               0.000000000              -0.426984773               0.318542033               0.000000000              -0.451323182               0.337361355               0.000000000              -0.475661591               0.356180678               0.000000000              -0.500000000               0.375000000               0.000000000              -0.102810390               0.084374307               0.000000000              -0.127634741               0.106444663               0.000000000              -0.152459092               0.128515018               0.000000000              -0.177283442               0.150585374               0.000000000              -0.202107793               0.172655730               0.000000000              -0.226932143               0.194726086               0.000000000              -0.251756494               0.216796442               0.000000000              -0.276580845               0.238866798               0.000000000              -0.301405195               0.260937153               0.000000000              -0.326229546               0.283007509               0.000000000              -0.351053896               0.305077865               0.000000000              -0.375878247               0.327148221               0.000000000              -0.400702598               0.349218577               0.000000000              -0.425526948               0.371288933               0.000000000              -0.450351299               0.393359288               0.000000000              -0.475175649               0.415429644               0.000000000              -0.500000000               0.437500000               0.000000000              -0.094045202               0.094045202               0.000000000              -0.119417377               0.119417377               0.000000000              -0.144789552               0.144789552               0.000000000              -0.170161727               0.170161727               0.000000000              -0.195533901               0.195533901               0.000000000              -0.220906076               0.220906076               0.000000000              -0.246278251               0.246278251               0.000000000              -0.271650426               0.271650426               0.000000000              -0.297022601               0.297022601               0.000000000              -0.322394776               0.322394776               0.000000000              -0.347766951               0.347766951               0.000000000              -0.373139126               0.373139126               0.000000000              -0.398511300               0.398511300               0.000000000              -0.423883475               0.423883475               0.000000000              -0.449255650               0.449255650               0.000000000              -0.474627825               0.474627825               0.000000000              -0.500000000               0.500000000               0.000000000              -0.084374307               0.102810390               0.000000000              -0.106444663               0.127634741               0.000000000              -0.128515018               0.152459092               0.000000000              -0.150585374               0.177283442               0.000000000              -0.172655730               0.202107793               0.000000000              -0.194726086               0.226932143               0.000000000              -0.216796442               0.251756494               0.000000000              -0.238866798               0.276580845               0.000000000              -0.260937153               0.301405195               0.000000000              -0.283007509               0.326229546               0.000000000              -0.305077865               0.351053896               0.000000000              -0.327148221               0.375878247               0.000000000              -0.349218577               0.400702598               0.000000000              -0.371288933               0.425526948               0.000000000              -0.393359288               0.450351299               0.000000000              -0.415429644               0.475175649               0.000000000              -0.437500000               0.500000000               0.000000000              -0.073890841               0.110585458               0.000000000              -0.092710163               0.134923867               0.000000000              -0.111529486               0.159262276               0.000000000              -0.130348808               0.183600685               0.000000000              -0.149168131               0.207939094               0.000000000              -0.167987453               0.232277503               0.000000000              -0.186806776               0.256615912               0.000000000              -0.205626098               0.280954320               0.000000000              -0.224445420               0.305292729               0.000000000              -0.243264743               0.329631138               0.000000000              -0.262084065               0.353969547               0.000000000              -0.280903388               0.378307956               0.000000000              -0.299722710               0.402646365               0.000000000              -0.318542033               0.426984773               0.000000000              -0.337361355               0.451323182               0.000000000              -0.356180678               0.475661591               0.000000000              -0.375000000               0.500000000               0.000000000              -0.062695766               0.117295528               0.000000000              -0.078308531               0.141214558               0.000000000              -0.093921295               0.165133587               0.000000000              -0.109534060               0.189052617               0.000000000              -0.125146824               0.212971646               0.000000000              -0.140759589               0.236890676               0.000000000              -0.156372354               0.260809705               0.000000000              -0.171985118               0.284728735               0.000000000              -0.187597883               0.308647764               0.000000000              -0.203210648               0.332566794               0.000000000              -0.218823412               0.356485823               0.000000000              -0.234436177               0.380404853               0.000000000              -0.250048941               0.404323882               0.000000000              -0.265661706               0.428242912               0.000000000              -0.281274471               0.452161941               0.000000000              -0.296887235               0.476080971               0.000000000              -0.312500000               0.500000000               0.000000000              -0.050896897               0.122875978               0.000000000              -0.063340840               0.146446229               0.000000000              -0.075784784               0.170016481               0.000000000              -0.088228728               0.193586732               0.000000000              -0.100672672               0.217156983               0.000000000              -0.113116616               0.240727235               0.000000000              -0.125560560               0.264297486               0.000000000              -0.138004504               0.287867738               0.000000000              -0.150448448               0.311437989               0.000000000              -0.162892392               0.335008240               0.000000000              -0.175336336               0.358578492               0.000000000              -0.187780280               0.382148743               0.000000000              -0.200224224               0.405718994               0.000000000              -0.212668168               0.429289246               0.000000000              -0.225112112               0.452859497               0.000000000              -0.237556056               0.476429749               0.000000000              -0.250000000               0.500000000               0.000000000              -0.038607862               0.127273065               0.000000000              -0.047913621               0.150568498               0.000000000              -0.057219379               0.173863932               0.000000000              -0.066525138               0.197159365               0.000000000              -0.075830897               0.220454798               0.000000000              -0.085136655               0.243750232               0.000000000              -0.094442414               0.267045665               0.000000000              -0.103748172               0.290341099               0.000000000              -0.113053931               0.313636532               0.000000000              -0.122359690               0.336931966               0.000000000              -0.131665448               0.360227399               0.000000000              -0.140971207               0.383522833               0.000000000              -0.150276966               0.406818266               0.000000000              -0.159582724               0.430113700               0.000000000              -0.168888483               0.453409133               0.000000000              -0.178194241               0.476704567               0.000000000              -0.187500000               0.500000000               0.000000000              -0.025947013               0.130444442               0.000000000              -0.032137825               0.153541665               0.000000000              -0.038328636               0.176638887               0.000000000              -0.044519448               0.199736109               0.000000000              -0.050710260               0.222833332               0.000000000              -0.056901071               0.245930554               0.000000000              -0.063091883               0.269027776               0.000000000              -0.069282695               0.292124999               0.000000000              -0.075473506               0.315222221               0.000000000              -0.081664318               0.338319444               0.000000000              -0.087855130               0.361416666               0.000000000              -0.094045942               0.384513888               0.000000000              -0.100236753               0.407611111               0.000000000              -0.106427565               0.430708333               0.000000000              -0.112618377               0.453805555               0.000000000              -0.118809188               0.476902778               0.000000000              -0.125000000               0.500000000               0.000000000              -0.013036280               0.132359569               0.000000000              -0.016127762               0.155337096               0.000000000              -0.019219245               0.178314623               0.000000000              -0.022310727               0.201292150               0.000000000              -0.025402210               0.224269676               0.000000000              -0.028493692               0.247247203               0.000000000              -0.031585175               0.270224730               0.000000000              -0.034676657               0.293202257               0.000000000              -0.037768140               0.316179784               0.000000000              -0.040859622               0.339157311               0.000000000              -0.043951105               0.362134838               0.000000000              -0.047042587               0.385112365               0.000000000              -0.050134070               0.408089892               0.000000000              -0.053225552               0.431067419               0.000000000              -0.056317035               0.454044946               0.000000000              -0.059408517               0.477022473               0.000000000              -0.062500000               0.500000000               0.000000000               0.000000000               0.133000000               0.000000000               0.000000000               0.155937500               0.000000000               0.000000000               0.178875000               0.000000000               0.000000000               0.201812500               0.000000000               0.000000000               0.224750000               0.000000000               0.000000000               0.247687500               0.000000000               0.000000000               0.270625000               0.000000000               0.000000000               0.293562500               0.000000000               0.000000000               0.316500000               0.000000000               0.000000000               0.339437500               0.000000000               0.000000000               0.362375000               0.000000000               0.000000000               0.385312500               0.000000000               0.000000000               0.408250000               0.000000000               0.000000000               0.431187500               0.000000000               0.000000000               0.454125000               0.000000000               0.000000000               0.477062500               0.000000000               0.000000000               0.500000000               0.000000000 </DataArray>
</Points>
<Cells>
<DataArray type="Int32"                                    Name="connectivity"                                                      NumberOfComponents=" 1" format="ascii">
         0          1         18         17          1          2         19         18          2          3         20         19          3          4         21         20          4          5         22         21          5          6         23         22          6          7         24         23          7          8         25         24          8          9         26         25          9         10         27         26         10         11         28         27         11         12         29         28         12         13         30         29         13         14         31         30         14         15         32         31         15         16         33         32         17         18         35         34         18         19         36         35         19         20         37         36         20         21         38         37         21         22         39         38         22         23         40         39         23         24         41         40         24         25         42         41         25         26         43         42         26         27         44         43         27         28         45         44         28         29         46         45         29         30         47         46         30         31         48         47         31         32         49         48         32         33         50         49         34         35         52         51         35         36         53         52         36         37         54         53         37         38         55         54         38         39         56         55         39         40         57         56         40         41         58         57         41         42         59         58         42         43         60         59         43         44         61         60         44         45         62         61         45         46         63         62         46         47         64         63         47         48         65         64         48         49         66         65         49         50         67         66         51         52         69         68         52         53         70         69         53         54         71         70         54         55         72         71         55         56         73         72         56         57         74         73         57         58         75         74         58         59         76         75         59         60         77         76         60         61         78         77         61         62         79         78         62         63         80         79         63         64         81         80         64         65         82         81         65         66         83         82         66         67         84         83         68         69         86         85         69         70         87         86         70         71         88         87         71         72         89         88         72         73         90         89         73         74         91         90         74         75         92         91         75         76         93         92         76         77         94         93         77         78         95         94         78         79         96         95         79         80         97         96         80         81         98         97         81         82         99         98         82         83        100         99         83         84        101        100         85         86        103        102         86         87        104        103         87         88        105        104         88         89        106        105         89         90        107        106         90         91        108        107         91         92        109        108         92         93        110        109         93         94        111        110         94         95        112        111         95         96        113        112         96         97        114        113         97         98        115        114         98         99        116        115         99        100        117        116        100        101        118        117        102        103        120        119        103        104        121        120        104        105        122        121        105        106        123        122        106        107        124        123        107        108        125        124        108        109        126        125        109        110        127        126        110        111        128        127        111        112        129        128        112        113        130        129        113        114        131        130        114        115        132        131        115        116        133        132        116        117        134        133        117        118        135        134        119        120        137        136        120        121        138        137        121        122        139        138        122        123        140        139        123        124        141        140        124        125        142        141        125        126        143        142        126        127        144        143        127        128        145        144        128        129        146        145        129        130        147        146        130        131        148        147        131        132        149        148        132        133        150        149        133        134        151        150        134        135        152        151        136        137        154        153        137        138        155        154        138        139        156        155        139        140        157        156        140        141        158        157        141        142        159        158        142        143        160        159        143        144        161        160        144        145        162        161        145        146        163        162        146        147        164        163        147        148        165        164        148        149        166        165        149        150        167        166        150        151        168        167        151        152        169        168        153        154        171        170        154        155        172        171        155        156        173        172        156        157        174        173        157        158        175        174        158        159        176        175        159        160        177        176        160        161        178        177        161        162        179        178        162        163        180        179        163        164        181        180        164        165        182        181        165        166        183        182        166        167        184        183        167        168        185        184        168        169        186        185        170        171        188        187        171        172        189        188        172        173        190        189        173        174        191        190        174        175        192        191        175        176        193        192        176        177        194        193        177        178        195        194        178        179        196        195        179        180        197        196        180        181        198        197        181        182        199        198        182        183        200        199        183        184        201        200        184        185        202        201        185        186        203        202        187        188        205        204        188        189        206        205        189        190        207        206        190        191        208        207        191        192        209        208        192        193        210        209        193        194        211        210        194        195        212        211        195        196        213        212        196        197        214        213        197        198        215        214        198        199        216        215        199        200        217        216        200        201        218        217        201        202        219        218        202        203        220        219        204        205        222        221        205        206        223        222        206        207        224        223        207        208        225        224        208        209        226        225        209        210        227        226        210        211        228        227        211        212        229        228        212        213        230        229        213        214        231        230        214        215        232        231        215        216        233        232        216        217        234        233        217        218        235        234        218        219        236        235        219        220        237        236        221        222        239        238        222        223        240        239        223        224        241        240        224        225        242        241        225        226        243        242        226        227        244        243        227        228        245        244        228        229        246        245        229        230        247        246        230        231        248        247        231        232        249        248        232        233        250        249        233        234        251        250        234        235        252        251        235        236        253        252        236        237        254        253        238        239        256        255        239        240        257        256        240        241        258        257        241        242        259        258        242        243        260        259        243        244        261        260        244        245        262        261        245        246        263        262        246        247        264        263        247        248        265        264        248        249        266        265        249        250        267        266        250        251        268        267        251        252        269        268        252        253        270        269        253        254        271        270        255        256        273        272        256        257        274        273        257        258        275        274        258        259        276        275        259        260        277        276        260        261        278        277        261        262        279        278        262        263        280        279        263        264        281        280        264        265        282        281        265        266        283        282        266        267        284        283        267        268        285        284        268        269        286        285        269        270        287        286        270        271        288        287        306        307          1          0        307        308          2          1        308        309          3          2        309        310          4          3        310        311          5          4        311        312          6          5        312        313          7          6        313        314          8          7        314        315          9          8        315        316         10          9        316        317         11         10        317        318         12         11        318        319         13         12        319        320         14         13        320        321         15         14        321        322         16         15        323        324        307        306        324        325        308        307        325        326        309        308        326        327        310        309        327        328        311        310        328        329        312        311        329        330        313        312        330        331        314        313        331        332        315        314        332        333        316        315        333        334        317        316        334        335        318        317        335        336        319        318        336        337        320        319        337        338        321        320        338        339        322        321        340        341        324        323        341        342        325        324        342        343        326        325        343        344        327        326        344        345        328        327        345        346        329        328        346        347        330        329        347        348        331        330        348        349        332        331        349        350        333        332        350        351        334        333        351        352        335        334        352        353        336        335        353        354        337        336        354        355        338        337        355        356        339        338        357        358        341        340        358        359        342        341        359        360        343        342        360        361        344        343        361        362        345        344        362        363        346        345        363        364        347        346        364        365        348        347        365        366        349        348        366        367        350        349        367        368        351        350        368        369        352        351        369        370        353        352        370        371        354        353        371        372        355        354        372        373        356        355        374        375        358        357        375        376        359        358        376        377        360        359        377        378        361        360        378        379        362        361        379        380        363        362        380        381        364        363        381        382        365        364        382        383        366        365        383        384        367        366        384        385        368        367        385        386        369        368        386        387        370        369        387        388        371        370        388        389        372        371        389        390        373        372        391        392        375        374        392        393        376        375        393        394        377        376        394        395        378        377        395        396        379        378        396        397        380        379        397        398        381        380        398        399        382        381        399        400        383        382        400        401        384        383        401        402        385        384        402        403        386        385        403        404        387        386        404        405        388        387        405        406        389        388        406        407        390        389        408        409        392        391        409        410        393        392        410        411        394        393        411        412        395        394        412        413        396        395        413        414        397        396        414        415        398        397        415        416        399        398        416        417        400        399        417        418        401        400        418        419        402        401        419        420        403        402        420        421        404        403        421        422        405        404        422        423        406        405        423        424        407        406        425        426        409        408        426        427        410        409        427        428        411        410        428        429        412        411        429        430        413        412        430        431        414        413        431        432        415        414        432        433        416        415        433        434        417        416        434        435        418        417        435        436        419        418        436        437        420        419        437        438        421        420        438        439        422        421        439        440        423        422        440        441        424        423        442        443        426        425        443        444        427        426        444        445        428        427        445        446        429        428        446        447        430        429        447        448        431        430        448        449        432        431        449        450        433        432        450        451        434        433        451        452        435        434        452        453        436        435        453        454        437        436        454        455        438        437        455        456        439        438        456        457        440        439        457        458        441        440        459        460        443        442        460        461        444        443        461        462        445        444        462        463        446        445        463        464        447        446        464        465        448        447        465        466        449        448        466        467        450        449        467        468        451        450        468        469        452        451        469        470        453        452        470        471        454        453        471        472        455        454        472        473        456        455        473        474        457        456        474        475        458        457        476        477        460        459        477        478        461        460        478        479        462        461        479        480        463        462        480        481        464        463        481        482        465        464        482        483        466        465        483        484        467        466        484        485        468        467        485        486        469        468        486        487        470        469        487        488        471        470        488        489        472        471        489        490        473        472        490        491        474        473        491        492        475        474        493        494        477        476        494        495        478        477        495        496        479        478        496        497        480        479        497        498        481        480        498        499        482        481        499        500        483        482        500        501        484        483        501        502        485        484        502        503        486        485        503        504        487        486        504        505        488        487        505        506        489        488        506        507        490        489        507        508        491        490        508        509        492        491        510        511        494        493        511        512        495        494        512        513        496        495        513        514        497        496        514        515        498        497        515        516        499        498        516        517        500        499        517        518        501        500        518        519        502        501        519        520        503        502        520        521        504        503        521        522        505        504        522        523        506        505        523        524        507        506        524        525        508        507        525        526        509        508        527        528        511        510        528        529        512        511        529        530        513        512        530        531        514        513        531        532        515        514        532        533        516        515        533        534        517        516        534        535        518        517        535        536        519        518        536        537        520        519        537        538        521        520        538        539        522        521        539        540        523        522        540        541        524        523        541        542        525        524        542        543        526        525        544        545        528        527        545        546        529        528        546        547        530        529        547        548        531        530        548        549        532        531        549        550        533        532        550        551        534        533        551        552        535        534        552        553        536        535        553        554        537        536        554        555        538        537        555        556        539        538        556        557        540        539        557        558        541        540        558        559        542        541        559        560        543        542        561        562        545        544        562        563        546        545        563        564        547        546        564        565        548        547        565        566        549        548        566        567        550        549        567        568        551        550        568        569        552        551        569        570        553        552        570        571        554        553        571        572        555        554        572        573        556        555        573        574        557        556        574        575        558        557        575        576        559        558        576        577        560        559        578        579        596        595        579        580        597        596        580        581        598        597        581        582        599        598        582        583        600        599        583        584        601        600        584        585        602        601        585        586        603        602        586        587        604        603        587        588        605        604        588        589        606        605        589        590        607        606        590        591        608        607        591        592        609        608        592        593        610        609        593        594        611        610        595        596        613        612        596        597        614        613        597        598        615        614        598        599        616        615        599        600        617        616        600        601        618        617        601        602        619        618        602        603        620        619        603        604        621        620        604        605        622        621        605        606        623        622        606        607        624        623        607        608        625        624        608        609        626        625        609        610        627        626        610        611        628        627        612        613        630        629        613        614        631        630        614        615        632        631        615        616        633        632        616        617        634        633        617        618        635        634        618        619        636        635        619        620        637        636        620        621        638        637        621        622        639        638        622        623        640        639        623        624        641        640        624        625        642        641        625        626        643        642        626        627        644        643        627        628        645        644        629        630        647        646        630        631        648        647        631        632        649        648        632        633        650        649        633        634        651        650        634        635        652        651        635        636        653        652        636        637        654        653        637        638        655        654        638        639        656        655        639        640        657        656        640        641        658        657        641        642        659        658        642        643        660        659        643        644        661        660        644        645        662        661        646        647        664        663        647        648        665        664        648        649        666        665        649        650        667        666        650        651        668        667        651        652        669        668        652        653        670        669        653        654        671        670        654        655        672        671        655        656        673        672        656        657        674        673        657        658        675        674        658        659        676        675        659        660        677        676        660        661        678        677        661        662        679        678        663        664        681        680        664        665        682        681        665        666        683        682        666        667        684        683        667        668        685        684        668        669        686        685        669        670        687        686        670        671        688        687        671        672        689        688        672        673        690        689        673        674        691        690        674        675        692        691        675        676        693        692        676        677        694        693        677        678        695        694        678        679        696        695        680        681        698        697        681        682        699        698        682        683        700        699        683        684        701        700        684        685        702        701        685        686        703        702        686        687        704        703        687        688        705        704        688        689        706        705        689        690        707        706        690        691        708        707        691        692        709        708        692        693        710        709        693        694        711        710        694        695        712        711        695        696        713        712        697        698        715        714        698        699        716        715        699        700        717        716        700        701        718        717        701        702        719        718        702        703        720        719        703        704        721        720        704        705        722        721        705        706        723        722        706        707        724        723        707        708        725        724        708        709        726        725        709        710        727        726        710        711        728        727        711        712        729        728        712        713        730        729        714        715        732        731        715        716        733        732        716        717        734        733        717        718        735        734        718        719        736        735        719        720        737        736        720        721        738        737        721        722        739        738        722        723        740        739        723        724        741        740        724        725        742        741        725        726        743        742        726        727        744        743        727        728        745        744        728        729        746        745        729        730        747        746        731        732        749        748        732        733        750        749        733        734        751        750        734        735        752        751        735        736        753        752        736        737        754        753        737        738        755        754        738        739        756        755        739        740        757        756        740        741        758        757        741        742        759        758        742        743        760        759        743        744        761        760        744        745        762        761        745        746        763        762        746        747        764        763        748        749        766        765        749        750        767        766        750        751        768        767        751        752        769        768        752        753        770        769        753        754        771        770        754        755        772        771        755        756        773        772        756        757        774        773        757        758        775        774        758        759        776        775        759        760        777        776        760        761        778        777        761        762        779        778        762        763        780        779        763        764        781        780        765        766        783        782        766        767        784        783        767        768        785        784        768        769        786        785        769        770        787        786        770        771        788        787        771        772        789        788        772        773        790        789        773        774        791        790        774        775        792        791        775        776        793        792        776        777        794        793        777        778        795        794        778        779        796        795        779        780        797        796        780        781        798        797        782        783        800        799        783        784        801        800        784        785        802        801        785        786        803        802        786        787        804        803        787        788        805        804        788        789        806        805        789        790        807        806        790        791        808        807        791        792        809        808        792        793        810        809        793        794        811        810        794        795        812        811        795        796        813        812        796        797        814        813        797        798        815        814        799        800        817        816        800        801        818        817        801        802        819        818        802        803        820        819        803        804        821        820        804        805        822        821        805        806        823        822        806        807        824        823        807        808        825        824        808        809        826        825        809        810        827        826        810        811        828        827        811        812        829        828        812        813        830        829        813        814        831        830        814        815        832        831        816        817        834        833        817        818        835        834        818        819        836        835        819        820        837        836        820        821        838        837        821        822        839        838        822        823        840        839        823        824        841        840        824        825        842        841        825        826        843        842        826        827        844        843        827        828        845        844        828        829        846        845        829        830        847        846        830        831        848        847        831        832        849        848        833        834        562        561        834        835        563        562        835        836        564        563        836        837        565        564        837        838        566        565        838        839        567        566        839        840        568        567        840        841        569        568        841        842        570        569        842        843        571        570        843        844        572        571        844        845        573        572        845        846        574        573        846        847        575        574        847        848        576        575        848        849        577        576        884        885        579        578        885        886        580        579        886        887        581        580        887        888        582        581        888        889        583        582        889        890        584        583        890        891        585        584        891        892        586        585        892        893        587        586        893        894        588        587        894        895        589        588        895        896        590        589        896        897        591        590        897        898        592        591        898        899        593        592        899        900        594        593        901        902        885        884        902        903        886        885        903        904        887        886        904        905        888        887        905        906        889        888        906        907        890        889        907        908        891        890        908        909        892        891        909        910        893        892        910        911        894        893        911        912        895        894        912        913        896        895        913        914        897        896        914        915        898        897        915        916        899        898        916        917        900        899        918        919        902        901        919        920        903        902        920        921        904        903        921        922        905        904        922        923        906        905        923        924        907        906        924        925        908        907        925        926        909        908        926        927        910        909        927        928        911        910        928        929        912        911        929        930        913        912        930        931        914        913        931        932        915        914        932        933        916        915        933        934        917        916        935        936        919        918        936        937        920        919        937        938        921        920        938        939        922        921        939        940        923        922        940        941        924        923        941        942        925        924        942        943        926        925        943        944        927        926        944        945        928        927        945        946        929        928        946        947        930        929        947        948        931        930        948        949        932        931        949        950        933        932        950        951        934        933        952        953        936        935        953        954        937        936        954        955        938        937        955        956        939        938        956        957        940        939        957        958        941        940        958        959        942        941        959        960        943        942        960        961        944        943        961        962        945        944        962        963        946        945        963        964        947        946        964        965        948        947        965        966        949        948        966        967        950        949        967        968        951        950        969        970        953        952        970        971        954        953        971        972        955        954        972        973        956        955        973        974        957        956        974        975        958        957        975        976        959        958        976        977        960        959        977        978        961        960        978        979        962        961        979        980        963        962        980        981        964        963        981        982        965        964        982        983        966        965        983        984        967        966        984        985        968        967        986        987        970        969        987        988        971        970        988        989        972        971        989        990        973        972        990        991        974        973        991        992        975        974        992        993        976        975        993        994        977        976        994        995        978        977        995        996        979        978        996        997        980        979        997        998        981        980        998        999        982        981        999       1000        983        982       1000       1001        984        983       1001       1002        985        984       1003       1004        987        986       1004       1005        988        987       1005       1006        989        988       1006       1007        990        989       1007       1008        991        990       1008       1009        992        991       1009       1010        993        992       1010       1011        994        993       1011       1012        995        994       1012       1013        996        995       1013       1014        997        996       1014       1015        998        997       1015       1016        999        998       1016       1017       1000        999       1017       1018       1001       1000       1018       1019       1002       1001       1020       1021       1004       1003       1021       1022       1005       1004       1022       1023       1006       1005       1023       1024       1007       1006       1024       1025       1008       1007       1025       1026       1009       1008       1026       1027       1010       1009       1027       1028       1011       1010       1028       1029       1012       1011       1029       1030       1013       1012       1030       1031       1014       1013       1031       1032       1015       1014       1032       1033       1016       1015       1033       1034       1017       1016       1034       1035       1018       1017       1035       1036       1019       1018       1037       1038       1021       1020       1038       1039       1022       1021       1039       1040       1023       1022       1040       1041       1024       1023       1041       1042       1025       1024       1042       1043       1026       1025       1043       1044       1027       1026       1044       1045       1028       1027       1045       1046       1029       1028       1046       1047       1030       1029       1047       1048       1031       1030       1048       1049       1032       1031       1049       1050       1033       1032       1050       1051       1034       1033       1051       1052       1035       1034       1052       1053       1036       1035       1054       1055       1038       1037       1055       1056       1039       1038       1056       1057       1040       1039       1057       1058       1041       1040       1058       1059       1042       1041       1059       1060       1043       1042       1060       1061       1044       1043       1061       1062       1045       1044       1062       1063       1046       1045       1063       1064       1047       1046       1064       1065       1048       1047       1065       1066       1049       1048       1066       1067       1050       1049       1067       1068       1051       1050       1068       1069       1052       1051       1069       1070       1053       1052       1071       1072       1055       1054       1072       1073       1056       1055       1073       1074       1057       1056       1074       1075       1058       1057       1075       1076       1059       1058       1076       1077       1060       1059       1077       1078       1061       1060       1078       1079       1062       1061       1079       1080       1063       1062       1080       1081       1064       1063       1081       1082       1065       1064       1082       1083       1066       1065       1083       1084       1067       1066       1084       1085       1068       1067       1085       1086       1069       1068       1086       1087       1070       1069       1088       1089       1072       1071       1089       1090       1073       1072       1090       1091       1074       1073       1091       1092       1075       1074       1092       1093       1076       1075       1093       1094       1077       1076       1094       1095       1078       1077       1095       1096       1079       1078       1096       1097       1080       1079       1097       1098       1081       1080       1098       1099       1082       1081       1099       1100       1083       1082       1100       1101       1084       1083       1101       1102       1085       1084       1102       1103       1086       1085       1103       1104       1087       1086       1105       1106       1089       1088       1106       1107       1090       1089       1107       1108       1091       1090       1108       1109       1092       1091       1109       1110       1093       1092       1110       1111       1094       1093       1111       1112       1095       1094       1112       1113       1096       1095       1113       1114       1097       1096       1114       1115       1098       1097       1115       1116       1099       1098       1116       1117       1100       1099       1117       1118       1101       1100       1118       1119       1102       1101       1119       1120       1103       1102       1120       1121       1104       1103       1122       1123       1106       1105       1123       1124       1107       1106       1124       1125       1108       1107       1125       1126       1109       1108       1126       1127       1110       1109       1127       1128       1111       1110       1128       1129       1112       1111       1129       1130       1113       1112       1130       1131       1114       1113       1131       1132       1115       1114       1132       1133       1116       1115       1133       1134       1117       1116       1134       1135       1118       1117       1135       1136       1119       1118       1136       1137       1120       1119       1137       1138       1121       1120        272        273       1123       1122        273        274       1124       1123        274        275       1125       1124        275        276       1126       1125        276        277       1127       1126        277        278       1128       1127        278        279       1129       1128        279        280       1130       1129        280        281       1131       1130        281        282       1132       1131        282        283       1133       1132        283        284       1134       1133        284        285       1135       1134        285        286       1136       1135        286        287       1137       1136        287        288       1138       1137 </DataArray>
<DataArray type="Int32"                                    Name="offsets"                                                      NumberOfComponents=" 1" format="ascii">
         4          8         12         16         20         24         28         32         36         40         44         48         52         56         60         64         68         72         76         80         84         88         92         96        100        104        108        112        116        120        124        128        132        136        140        144        148        152        156        160        164        168        172        176        180        184        188        192        196        200        204        208        212        216        220        224        228        232        236        240        244        248        252        256        260        264        268        272        276        280        284        288        292        296        300        304        308        312        316        320        324        328        332        336        340        344        348        352        356        360        364        368        372        376        380        384        388        392        396        400        404        408        412        416        420        424        428        432        436        440        444        448        452        456        460        464        468        472        476        480        484        488        492        496        500        504        508        512        516        520        524        528        532        536        540        544        548        552        556        560        564        568        572        576        580        584        588        592        596        600        604        608        612        616        620        624        628        632        636        640        644        648        652        656        660        664        668        672        676        680        684        688        692        696        700        704        708        712        716        720        724        728        732        736        740        744        748        752        756        760        764        768        772        776        780        784        788        792        796        800        804        808        812        816        820        824        828        832        836        840        844        848        852        856        860        864        868        872        876        880        884        888        892        896        900        904        908        912        916        920        924        928        932        936        940        944        948        952        956        960        964        968        972        976        980        984        988        992        996       1000       1004       1008       1012       1016       1020       1024       1028       1032       1036       1040       1044       1048       1052       1056       1060       1064       1068       1072       1076       1080       1084       1088       1092       1096       1100       1104       1108       1112       1116       1120       1124       1128       1132       1136       1140       1144       1148       1152       1156       1160       1164       1168       1172       1176       1180       1184       1188       1192       1196       1200       1204       1208       1212       1216       1220       1224       1228       1232       1236       1240       1244       1248       1252       1256       1260       1264       1268       1272       1276       1280       1284       1288       1292       1296       1300       1304       1308       1312       1316       1320       1324       1328       1332       1336       1340       1344       1348       1352       1356       1360       1364       1368       1372       1376       1380       1384       1388       1392       1396       1400       1404       1408       1412       1416       1420       1424       1428       1432       1436       1440       1444       1448       1452       1456       1460       1464       1468       1472       1476       1480       1484       1488       1492       1496       1500       1504       1508       1512       1516       1520       1524       1528       1532       1536       1540       1544       1548       1552       1556       1560       1564       1568       1572       1576       1580       1584       1588       1592       1596       1600       1604       1608       1612       1616       1620       1624       1628       1632       1636       1640       1644       1648       1652       1656       1660       1664       1668       1672       1676       1680       1684       1688       1692       1696       1700       1704       1708       1712       1716       1720       1724       1728       1732       1736       1740       1744       1748       1752       1756       1760       1764       1768       1772       1776       1780       1784       1788       1792       1796       1800       1804       1808       1812       1816       1820       1824       1828       1832       1836       1840       1844       1848       1852       1856       1860       1864       1868       1872       1876       1880       1884       1888       1892       1896       1900       1904       1908       1912       1916       1920       1924       1928       1932       1936       1940       1944       1948       1952       1956       1960       1964       1968       1972       1976       1980       1984       1988       1992       1996       2000       2004       2008       2012       2016       2020       2024       2028       2032       2036       2040       2044       2048       2052       2056       2060       2064       2068       2072       2076       2080       2084       2088       2092       2096       2100       2104       2108       2112       2116       2120       2124       2128       2132       2136       2140       2144       2148       2152       2156       2160       2164       2168       2172       2176       2180       2184       2188       2192       2196       2200       2204       2208       2212       2216       2220       2224       2228       2232       2236       2240       2244       2248       2252       2256       2260       2264       2268       2272       2276       2280       2284       2288       2292       2296       2300       2304       2308       2312       2316       2320       2324       2328       2332       2336       2340       2344       2348       2352       2356       2360       2364       2368       2372       2376       2380       2384       2388       2392       2396       2400       2404       2408       2412       2416       2420       2424       2428       2432       2436       2440       2444       2448       2452       2456       2460       2464       2468       2472       2476       2480       2484       2488       2492       2496       2500       2504       2508       2512       2516       2520       2524       2528       2532       2536       2540       2544       2548       2552       2556       2560       2564       2568       2572       2576       2580       2584       2588       2592       2596       2600       2604       2608       2612       2616       2620       2624       2628       2632       2636       2640       2644       2648       2652       2656       2660       2664       2668       2672       2676       2680       2684       2688       2692       2696       2700       2704       2708       2712       2716       2720       2724       2728       2732       2736       2740       2744       2748       2752       2756       2760       2764       2768       2772       2776       2780       2784       2788       2792       2796       2800       2804       2808       2812       2816       2820       2824       2828       2832       2836       2840       2844       2848       2852       2856       2860       2864       2868       2872       2876       2880       2884       2888       2892       2896       2900       2904       2908       2912       2916       2920       2924       2928       2932       2936       2940       2944       2948       2952       2956       2960       2964       2968       2972       2976       2980       2984       2988       2992       2996       3000       3004       3008       3012       3016       3020       3024       3028       3032       3036       3040       3044       3048       3052       3056       3060       3064       3068       3072       3076       3080       3084       3088       3092       3096       3100       3104       3108       3112       3116       3120       3124       3128       3132       3136       3140       3144       3148       3152       3156       3160       3164       3168       3172       3176       3180       3184       3188       3192       3196       3200       3204       3208       3212       3216       3220       3224       3228       3232       3236       3240       3244       3248       3252       3256       3260       3264       3268       3272       3276       3280       3284       3288       3292       3296       3300       3304       3308       3312       3316       3320       3324       3328       3332       3336       3340       3344       3348       3352       3356       3360       3364       3368       3372       3376       3380       3384       3388       3392       3396       3400       3404       3408       3412       3416       3420       3424       3428       3432       3436       3440       3444       3448       3452       3456       3460       3464       3468       3472       3476       3480       3484       3488       3492       3496       3500       3504       3508       3512       3516       3520       3524       3528       3532       3536       3540       3544       3548       3552       3556       3560       3564       3568       3572       3576       3580       3584       3588       3592       3596       3600       3604       3608       3612       3616       3620       3624       3628       3632       3636       3640       3644       3648       3652       3656       3660       3664       3668       3672       3676       3680       3684       3688       3692       3696       3700       3704       3708       3712       3716       3720       3724       3728       3732       3736       3740       3744       3748       3752       3756       3760       3764       3768       3772       3776       3780       3784       3788       3792       3796       3800       3804       3808       3812       3816       3820       3824       3828       3832       3836       3840       3844       3848       3852       3856       3860       3864       3868       3872       3876       3880       3884       3888       3892       3896       3900       3904       3908       3912       3916       3920       3924       3928       3932       3936       3940       3944       3948       3952       3956       3960       3964       3968       3972       3976       3980       3984       3988       3992       3996       4000       4004       4008       4012       4016       4020       4024       4028       4032       4036       4040       4044       4048       4052       4056       4060       4064       4068       4072       4076       4080       4084       4088       4092       4096 </DataArray>
<DataArray type="UInt8"                                    Name="types"                                                      NumberOfComponents=" 1" format="ascii">
         9          9          9          9          9          9          9          9          9          9          9          9          9          9          9          9          9          9          9          9          9          9          9          9          9          9          9          9          9          9          9          9          9          9          9          9          9          9          9          9          9          9          9          9          9          9          9          9          9          9          9          9          9          9          9          9          9          9          9          9          9          9          9          9          9          9          9          9          9          9          9          9          9          9          9          9          9          9          9          9          9          9          9          9          9          9          9          9          9          9          9          9          9          9          9          9          9          9          9          9          9          9          9          9          9          9          9          9          9          9          9          9          9          9          9          9          9          9          9          9          9          9          9          9          9          9          9          9          9          9          9          9          9          9          9          9          9          9          9          9          9          9          9          9          9          9          9          9          9          9          9          9          9          9          9          9          9          9          9          9          9          9          9          9          9          9          9          9          9          9          9          9          9          9          9          9          9          9          9          9          9          9          9          9          9          9          9          9          9          9          9          9          9          9          9          9          9          9          9          9          9          9          9          9          9          9          9          9          9          9          9          9          9          9          9          9          9          9          9          9          9          9          9          9          9          9          9          9          9          9          9          9          9          9          9          9          9          9          9          9          9          9          9          9          9          9          9          9          9          9          9          9          9          9          9          9          9          9          9          9          9          9          9          9          9          9          9          9          9          9          9          9          9          9          9          9          9          9          9          9          9          9          9          9          9          9          9          9          9          9          9          9          9          9          9          9          9          9          9          9          9          9          9          9          9          9          9          9          9          9          9          9          9          9          9          9          9          9          9          9          9          9          9          9          9          9          9          9          9          9          9          9          9          9          9          9          9          9          9          9          9          9          9          9          9          9          9          9          9          9          9          9          9          9          9          9          9          9          9          9          9          9          9          9          9          9          9          9          9          9          9          9          9          9          9          9          9          9          9          9          9          9          9          9          9          9          9          9          9          9          9          9          9          9          9          9          9          9          9          9          9          9          9          9          9          9          9          9          9          9          9          9          9          9          9          9          9          9          9          9          9          9          9          9          9          9          9          9          9          9          9          9          9          9          9          9          9          9          9          9          9          9          9          9          9          9          9          9          9          9          9          9          9          9          9          9          9          9          9          9          9          9          9          9          9          9          9          9          9          9          9          9          9          9          9          9          9          9          9          9          9          9          9          9          9          9          9          9          9          9          9          9          9          9          9          9          9          9          9          9          9          9          9          9          9          9          9          9          9          9          9          9          9          9          9          9          9          9          9          9          9          9          9          9          9          9          9          9          9          9          9          9          9          9          9          9          9          9          9          9          9          9          9          9          9          9          9          9          9          9          9          9          9          9          9          9          9          9          9          9          9          9          9          9          9          9          9          9          9          9          9          9          9          9          9          9          9          9          9          9          9          9          9          9          9          9          9          9          9          9          9          9          9          9          9          9          9          9          9          9          9          9          9          9          9          9          9          9          9          9          9          9          9          9          9          9          9          9          9          9          9          9          9          9          9          9          9          9          9          9          9          9          9          9          9          9          9          9          9          9          9          9          9          9          9          9          9          9          9          9          9          9          9          9          9          9          9          9          9          9          9          9          9          9          9          9          9          9          9          9          9          9          9          9          9          9          9          9          9          9          9          9          9          9          9          9          9          9          9          9          9          9          9          9          9          9          9          9          9          9          9          9          9          9          9          9          9          9          9          9          9          9          9          9          9          9          9          9          9          9          9          9          9          9          9          9          9          9          9          9          9          9          9          9          9          9          9          9          9          9          9          9          9          9          9          9          9          9          9          9          9          9          9          9          9          9          9          9          9          9          9          9          9          9          9          9          9          9          9          9          9          9          9          9          9          9          9          9          9          9          9          9          9          9          9          9          9          9          9          9          9          9          9          9          9          9          9          9          9          9          9          9          9          9          9          9          9          9          9          9          9          9          9          9          9          9          9          9          9          9          9          9          9          9          9          9          9          9          9          9          9          9          9          9          9          9          9          9          9          9          9          9          9          9          9          9          9          9          9          9          9          9          9          9          9          9          9          9          9          9          9          9          9          9          9          9          9          9          9          9          9          9          9          9          9          9          9          9          9          9          9          9          9          9          9          9          9          9          9          9          9          9          9          9          9          9          9          9          9          9          9          9          9          9          9          9          9          9          9          9          9          9          9          9          9          9          9          9          9          9          9          9          9          9          9          9          9          9          9          9          9          9          9          9          9          9          9          9          9          9          9          9          9          9          9          9          9          9          9          9          9          9          9          9          9          9          9          9          9          9          9          9          9          9          9          9          9          9          9          9          9          9          9          9          9          9          9          9          9          9          9          9          9          9          9          9          9          9          9          9          9          9          9          9          9          9          9          9          9          9          9          9          9          9          9          9          9          9          9          9          9          9          9          9          9          9          9          9          9          9          9          9          9          9 </DataArray>
</Cells>
<CellData>
<DataArray type="Int32"                                    Name="material"                                                      NumberOfComponents=" 1" format="ascii">
         1          1          1          1          1          1          1          1          1          1          1          1          1          1          1          1          1          1          1          1          1          1          1          1          1          1          1          1          1          1          1          1          1          1          1          1          1          1          1          1          1          1          1          1          1          1          1          1          1          1          1          1          1          1          1          1          1          1          1          1          1          1          1          1          1          1          1          1          1          1          1          1          1          1          1          1          1          1          1          1          1          1          1          1          1          1          1          1          1          1          1          1          1          1          1          1          1          1          1          1          1          1          1          1          1          1          1          1          1          1          1          1          1          1          1          1          1          1          1          1          1          1          1          1          1          1          1          1          1          1          1          1          1          1          1          1          1          1          1          1          1          1          1          1          1          1          1          1          1          1          1          1          1          1          1          1          1          1          1          1          1          1          1          1          1          1          1          1          1          1          1          1          1          1          1          1          1          1          1          1          1          1          1          1          1          1          1          1          1          1          1          1          1          1          1          1          1          1          1          1          1          1          1          1          1          1          1          1          1          1          1          1          1          1          1          1          1          1          1          1          1          1          1          1          1          1          1          1          1          1          1          1          1          1          1          1          1          1          1          1          1          1          1          1          1          1          1          1          1          1          1          1          1          1          1          1          1          1          1          1          1          1          1          1          1          1          1          1          1          1          1          1          1          1          1          1          1          1          1          1          1          1          1          1          1          1          1          1          1          1          1          1          1          1          1          1          1          1          1          1          1          1          1          1          1          1          1          1          1          1          1          1          1          1          1          1          1          1          1          1          1          1          1          1          1          1          1          1          1          1          1          1          1          1          1          1          1          1          1          1          1          1          1          1          1          1          1          1          1          1          1          1          1          1          1          1          1          1          1          1          1          1          1          1          1          1          1          1          1          1          1          1          1          1          1          1          1          1          1          1          1          1          1          1          1          1          1          1          1          1          1          1          1          1          1          1          1          1          1          1          1          1          1          1          1          1          1          1          1          1          1          1          1          1          1          1          1          1          1          1          1          1          1          1          1          1          1          1          1          1          1          1          1          1          1          1          1          1          1          1          1          1          1          1          1          1          1          1          1          1          1          1          1          1          1          1          1          1          1          1          1          1          1          1          1          1          1          1          1          1          1          1          1          1          1          1          1          1          1          1          1          1          1          1          1          1          1          1          1          1          1          1          1          1          1          1          1          1          1          1          1          1          1          1          1          1          1          1          1          1          1          1          1          1          1          1          1          1          1          1          1          1          1          1          1          1          1          1          1          1          1          1          1          1          1          1          1          1          1          1          1          1          1          1          1          1          1          1          1          1          1          1          1          1          1          1          1          1          1          1          1          1          1          1          1          1          1          1          1          1          1          1          1          1          1          1          1          1          1          1          1          1          1          1          1          1          1          1          1          1          1          1          1          1          1          1          1          1          1          1          1          1          1          1          1          1          1          1          1          1          1          1          1          1          1          1          1          1          1          1          1          1          1          1          1          1          1          1          1          1          1          1          1          1          1          1          1          1          1          1          1          1          1          1          1          1          1          1          1          1          1          1          1          1          1          1          1          1          1          1          1          1          1          1          1          1          1          1          1          1          1          1          1          1          1          1          1          1          1          1          1          1          1          1          1          1          1          1          1          1          1          1          1          1          1          1          1          1          1          1          1          1          1          1          1          1          1          1          1          1          1          1          1          1          1          1          1          1          1          1          1          1          1          1          1          1          1          1          1          1          1          1          1          1          1          1          1          1          1          1          1          1          1          1          1          1          1          1          1          1          1          1          1          1          1          1          1          1          1          1          1          1          1          1          1          1          1          1          1          1          1          1          1          1          1          1          1          1          1          1          1          1          1          1          1          1          1          1          1          1          1          1          1          1          1          1          1          1          1          1          1          1          1          1          1          1          1          1          1          1          1          1          1          1          1          1          1          1          1          1          1          1          1          1          1          1          1          1          1          1          1          1          1          1          1          1          1          1          1          1          1          1          1          1          1          1          1          1          1          1          1          1          1          1          1          1          1          1          1          1          1          1          1          1          1          1          1          1          1          1          1          1          1          1          1          1          1          1          1          1          1          1          1          1          1          1          1          1          1          1          1          1          1          1          1          1          1          1          1          1          1          1          1          1          1          1          1          1          1          1          1          1          1          1          1          1          1          1          1          1          1          1          1          1          1          1          1          1          1          1          1          1          1          1          1          1          1          1          1          1          1          1          1          1          1          1          1          1          1          1          1          1          1          1          1          1          1          1          1          1          1          1          1          1          1          1          1          1          1          1          1          1          1          1          1          1          1          1          1          1          1          1          1          1          1          1          1          1          1          1          1          1          1          1          1          1          1          1          1          1          1          1          1          1          1          1          1          1          1          1          1          1          1          1          1          1          1          1          1          1          1          1          1          1 </DataArray>
</CellData>
<PointData>
<DataArray type="Float64"                                    Name="u"                                                      NumberOfComponents=" 3" format="ascii">
             -0.000465403               0.000000000               0.999999985              -0.000508081               0.000000000               0.999999985              -0.000527543              -0.000000000               0.999999985              -0.000539092               0.000000000               0.999999985              -0.000548442               0.000000000               0.999999985              -0.000557669               0.000000000               0.999999985              -0.000567688              -0.000000000               0.999999985              -0.000578699               0.000000000               0.999999985              -0.000590742               0.000000000               0.999999985              -0.000603782               0.000000000               0.999999985              -0.000617504               0.000000000               0.999999985              -0.000631883               0.000000000               0.999999985              -0.000646759               0.000000000               0.999999985              -0.000661816               0.000000000               0.999999985              -0.000676747               0.000000000               0.999999985              -0.000691197               0.000000000               0.999999985              -0.000704708              -0.000000000               0.999999985              -0.000462687               0.000108894               0.999999985              -0.000502513               0.000090610               0.999999985              -0.000520271               0.000083399               0.999999985              -0.000530775               0.000081896               0.999999985              -0.000539449               0.000083291               0.999999985              -0.000548239               0.000086311               0.999999985              -0.000557881               0.000090219               0.999999985              -0.000568612               0.000094533               0.999999985              -0.000580328               0.000098936               0.999999985              -0.000592821               0.000103048               0.999999985              -0.000605927               0.000106783               0.999999985              -0.000619596               0.000110003               0.999999985              -0.000633598               0.000112497               0.999999985              -0.000647699               0.000113684               0.999999985              -0.000661602               0.000113113               0.999999985              -0.000674955               0.000110476               0.999999985              -0.000687364               0.000105027               0.999999985              -0.000454727               0.000216553               0.999999985              -0.000486202               0.000180495               0.999999985              -0.000499049               0.000166967               0.999999985              -0.000506702               0.000164653               0.999999985              -0.000513609               0.000168029               0.999999985              -0.000521346               0.000174445               0.999999985              -0.000530232               0.000182534               0.999999985              -0.000540170               0.000191265               0.999999985              -0.000550894               0.000199981               0.999999985              -0.000562211               0.000208259               0.999999985              -0.000573855               0.000215786               0.999999985              -0.000585622               0.000222287               0.999999985              -0.000597322               0.000227276               0.999999985              -0.000608683               0.000230076               0.999999985              -0.000619558               0.000230079               0.999999985              -0.000629791               0.000226714               0.999999985              -0.000639232               0.000218953               0.999999985              -0.000441587               0.000321874               0.999999985              -0.000459958               0.000269096               0.999999985              -0.000465741               0.000250826               0.999999985              -0.000469686               0.000248915               0.999999985              -0.000474642               0.000255189               0.999999985              -0.000481218               0.000265617               0.999999985              -0.000489176               0.000278151               0.999999985              -0.000498151               0.000291369               0.999999985              -0.000507664               0.000304413               0.999999985              -0.000517339               0.000316766               0.999999985              -0.000526853               0.000328042               0.999999985              -0.000536060               0.000337796               0.999999985              -0.000544689               0.000345539               0.999999985              -0.000552510               0.000350586               0.999999985              -0.000559434               0.000352539               0.999999985              -0.000565584               0.000351167               0.999999985              -0.000571336               0.000345752               0.999999985              -0.000423584               0.000423756               0.999999985              -0.000425351               0.000356120               0.999999985              -0.000423427               0.000335065               0.999999985              -0.000423909               0.000334904               0.999999985              -0.000427380               0.000344837               0.999999985              -0.000433161               0.000359678               0.999999985              -0.000440456               0.000376828               0.999999985              -0.000448485               0.000394487               0.999999985              -0.000456614               0.000411769               0.999999985              -0.000464356               0.000428141               0.999999985              -0.000471512               0.000443114               0.999999985              -0.000477747               0.000456124               0.999999985              -0.000482872               0.000466741               0.999999985              -0.000486882               0.000474765               0.999999985              -0.000490091               0.000480175               0.999999985              -0.000492811               0.000483193               0.999999985              -0.000495394               0.000483838               0.999999985              -0.000401365               0.000521117               0.999999985              -0.000384487               0.000441324               0.999999985              -0.000375491               0.000419511               0.999999985              -0.000373696               0.000422204               0.999999985              -0.000376651               0.000436247               0.999999985              -0.000382238               0.000455548               0.999999985              -0.000389109               0.000477242               0.999999985              -0.000396293               0.000499328               0.999999985              -0.000403177               0.000520680               0.999999985              -0.000409161               0.000540720               0.999999985              -0.000413881               0.000558960               0.999999985              -0.000417181               0.000575036               0.999999985              -0.000419222               0.000588899               0.999999985              -0.000420224               0.000600734               0.999999985              -0.000420552               0.000610737               0.999999985              -0.000420421               0.000619295               0.999999985              -0.000419904               0.000626498               0.999999985              -0.000375265               0.000613123               0.999999985              -0.000339462               0.000524588               0.999999985              -0.000325275               0.000503577               0.999999985              -0.000322803               0.000509787               0.999999985              -0.000326215               0.000528024               0.999999985              -0.000332188               0.000551700               0.999999985              -0.000339067               0.000577720               0.999999985              -0.000345732               0.000603890               0.999999985              -0.000351402               0.000629032               0.999999985              -0.000355525               0.000652542               0.999999985              -0.000357900               0.000673885               0.999999985              -0.000358598               0.000693141               0.999999985              -0.000357658               0.000710701               0.999999985              -0.000355482               0.000726650               0.999999985              -0.000352338               0.000741315               0.999999985              -0.000348262               0.000754792               0.999999985              -0.000343054               0.000766543               0.999999985              -0.000345921               0.000698839               0.999999985              -0.000292588               0.000605604               0.999999985              -0.000275603               0.000586560               0.999999985              -0.000274193               0.000596266               0.999999985              -0.000278941               0.000618536               0.999999985              -0.000285855               0.000646293               0.999999985              -0.000292945               0.000676330               0.999999985              -0.000299097               0.000706399               0.999999985              -0.000303347               0.000735108               0.999999985              -0.000305260               0.000761891               0.999999985              -0.000304695               0.000786666               0.999999985              -0.000301757               0.000809462               0.999999985              -0.000296990               0.000830467               0.999999985              -0.000290710               0.000850058               0.999999985              -0.000282968               0.000868365               0.999999985              -0.000273825               0.000885142               0.999999985              -0.000263183               0.000900062               0.999999985              -0.000314454               0.000776853               0.999999985              -0.000245368               0.000684360               0.999999985              -0.000229093               0.000667401               0.999999985              -0.000230006               0.000680123               0.999999985              -0.000236731               0.000706078               0.999999985              -0.000244715               0.000737784               0.999999985              -0.000251993               0.000771667               0.999999985              -0.000257204               0.000805376               0.999999985              -0.000259363               0.000837531               0.999999985              -0.000258000               0.000867811               0.999999985              -0.000253395               0.000895602               0.999999985              -0.000246074               0.000921086               0.999999985              -0.000236540               0.000944859               0.999999985              -0.000225127               0.000967108               0.999999985              -0.000212306               0.000987895               0.999999985              -0.000198343               0.001007056               0.999999985              -0.000183582               0.001024761               0.999999985              -0.000282429               0.000850144               0.999999985              -0.000206591               0.000769862               0.999999985              -0.000187327               0.000748140               0.999999985              -0.000186768               0.000754951               0.999999985              -0.000192720               0.000775953               0.999999985              -0.000200360               0.000804190               0.999999985              -0.000207580               0.000835911               0.999999985              -0.000213257               0.000868778               0.999999985              -0.000216215               0.000901458               0.999999985              -0.000215910               0.000932817               0.999999985              -0.000212111               0.000962261               0.999999985              -0.000205087               0.000989634               0.999999985              -0.000195267               0.001015031               0.999999985              -0.000183097               0.001038901               0.999999985              -0.000169319               0.001061433               0.999999985              -0.000154743               0.001082758               0.999999985              -0.000139744               0.001102792               0.999999985              -0.000247257               0.000916457               0.999999985              -0.000170604               0.000851892               0.999999985              -0.000148413               0.000830213               0.999999985              -0.000145777               0.000832992               0.999999985              -0.000150355               0.000849867               0.999999985              -0.000157111               0.000874911               0.999999985              -0.000163850               0.000904561               0.999999985              -0.000169464               0.000936454               0.999999985              -0.000172919               0.000969246               0.999999985              -0.000173492               0.001001659               0.999999985              -0.000170683               0.001032542               0.999999985              -0.000164307               0.001061645               0.999999985              -0.000154571               0.001088867               0.999999985              -0.000141742               0.001114355               0.999999985              -0.000126542               0.001138398               0.999999985              -0.000109804               0.001161411               0.999999985              -0.000092251               0.001183675               0.999999985              -0.000209750               0.000974278               0.999999985              -0.000137306               0.000928164               0.999999985              -0.000113487               0.000910078               0.999999985              -0.000108647               0.000911478               0.999999985              -0.000111344               0.000925718               0.999999985              -0.000116728               0.000948247               0.999999985              -0.000122515               0.000976154               0.999999985              -0.000127545               0.001007254               0.999999985              -0.000131049               0.001040111               0.999999985              -0.000132199               0.001073441               0.999999985              -0.000130228               0.001106073               0.999999985              -0.000124711               0.001137247               0.999999985              -0.000115557               0.001166531               0.999999985              -0.000102706               0.001194115               0.999999985              -0.000086384               0.001220004               0.999999985              -0.000067107               0.001244578               0.999999985              -0.000045604               0.001268382               0.999999985              -0.000170290               0.001022711               0.999999985              -0.000106611               0.000995643               0.999999985              -0.000083139               0.000983861               0.999999985              -0.000076640               0.000986346               0.999999985              -0.000077407               0.000999734               0.999999985              -0.000081034               0.001020947               0.999999985              -0.000085506               0.001047680               0.999999985              -0.000089752               0.001078194               0.999999985              -0.000092792               0.001111272               0.999999985              -0.000093971               0.001145591               0.999999985              -0.000092721               0.001179939               0.999999985              -0.000088310               0.001213575               0.999999985              -0.000080182               0.001245752               0.999999985              -0.000067998               0.001276241               0.999999985              -0.000051631               0.001304946               0.999999985              -0.000030870               0.001332051               0.999999985              -0.000005582               0.001357958               0.999999985              -0.000129229               0.001061109               0.999999985              -0.000078113               0.001051492               0.999999985              -0.000057407               0.001047251               0.999999985              -0.000050439               0.001052570               0.999999985              -0.000049725               0.001066620               0.999999985              -0.000051710               0.001087681               0.999999985              -0.000054727               0.001114023               0.999999985              -0.000057821               0.001144470               0.999999985              -0.000060170               0.001178027               0.999999985              -0.000061178               0.001213360               0.999999985              -0.000060409               0.001249438               0.999999985              -0.000057095               0.001285487               0.999999985              -0.000050452               0.001320815               0.999999985              -0.000040062               0.001354860               0.999999985              -0.000025270               0.001387201               0.999999985              -0.000005298               0.001417910               0.999999985               0.000020798               0.001446993               0.999999985              -0.000086927               0.001088902               0.999999985              -0.000051251               0.001093260               0.999999985              -0.000035729               0.001096102               0.999999985              -0.000029811               0.001104800               0.999999985              -0.000028491               0.001120348               0.999999985              -0.000029363               0.001142033               0.999999985              -0.000031047               0.001168690               0.999999985              -0.000032887               0.001199451               0.999999985              -0.000034433               0.001233605               0.999999985              -0.000035196               0.001269977               0.999999985              -0.000034730               0.001307654               0.999999985              -0.000032375               0.001345945               0.999999985              -0.000027710               0.001384093               0.999999985              -0.000020100               0.001421610               0.999999985              -0.000008729               0.001457861               0.999999985               0.000007255               0.001492521               0.999999985               0.000029221               0.001525279               0.999999985              -0.000043717               0.001105748               0.999999985              -0.000025391               0.001119133               0.999999985              -0.000017043               0.001127004               0.999999985              -0.000013624               0.001138341               0.999999985              -0.000012670               0.001155231               0.999999985              -0.000012938               0.001177621               0.999999985              -0.000013652               0.001204784               0.999999985              -0.000014498               0.001236011               0.999999985              -0.000015229               0.001270699               0.999999985              -0.000015640               0.001307869               0.999999985              -0.000015364               0.001346715               0.999999985              -0.000014178               0.001386548               0.999999985              -0.000011711               0.001426753               0.999999985              -0.000007575               0.001466843               0.999999985              -0.000001503               0.001506105               0.999999985               0.000007392               0.001544013               0.999999985               0.000020112               0.001579862               0.999999985              -0.000000000               0.001111409               0.999999985              -0.000000000               0.001127907               0.999999985              -0.000000000               0.001137544               0.999999985              -0.000000000               0.001149840               0.999999985               0.000000000               0.001167343               0.999999985               0.000000000               0.001190094               0.999999985              -0.000000000               0.001217445               0.999999985               0.000000000               0.001248851               0.999999985               0.000000000               0.001283776               0.999999985               0.000000000               0.001321302               0.999999985              -0.000000000               0.001360570               0.999999985              -0.000000000               0.001400946               0.999999985               0.000000000               0.001441882               0.999999985               0.000000000               0.001482818               0.999999985               0.000000000               0.001523161               0.999999985              -0.000000000               0.001562296               0.999999985              -0.000000000               0.001599328               0.999999985              -0.000465403               0.000000000               0.999999985              -0.000508081               0.000000000               0.999999985              -0.000527543              -0.000000000               0.999999985              -0.000539092               0.000000000               0.999999985              -0.000548442               0.000000000               0.999999985              -0.000557669               0.000000000               0.999999985              -0.000567688              -0.000000000               0.999999985              -0.000578699               0.000000000               0.999999985              -0.000590742               0.000000000               0.999999985              -0.000603782               0.000000000               0.999999985              -0.000617504               0.000000000               0.999999985              -0.000631883               0.000000000               0.999999985              -0.000646759               0.000000000               0.999999985              -0.000661816               0.000000000               0.999999985              -0.000676747               0.000000000               0.999999985              -0.000691197               0.000000000               0.999999985              -0.000704708              -0.000000000               0.999999985              -0.000462687              -0.000108894               0.999999985              -0.000502513              -0.000090610               0.999999985              -0.000520271              -0.000083399               0.999999985              -0.000530775              -0.000081896               0.999999985              -0.000539449              -0.000083291               0.999999985              -0.000548239              -0.000086311               0.999999985              -0.000557881              -0.000090219               0.999999985              -0.000568612              -0.000094533               0.999999985              -0.000580328              -0.000098936               0.999999985              -0.000592821              -0.000103048               0.999999985              -0.000605927              -0.000106783               0.999999985              -0.000619596              -0.000110003               0.999999985              -0.000633598              -0.000112497               0.999999985              -0.000647699              -0.000113684               0.999999985              -0.000661602              -0.000113113               0.999999985              -0.000674955              -0.000110476               0.999999985              -0.000687364              -0.000105027               0.999999985              -0.000454727              -0.000216553               0.999999985              -0.000486202              -0.000180495               0.999999985              -0.000499049              -0.000166967               0.999999985              -0.000506702              -0.000164653               0.999999985              -0.000513609              -0.000168029               0.999999985              -0.000521346              -0.000174445               0.999999985              -0.000530232              -0.000182534               0.999999985              -0.000540170              -0.000191265               0.999999985              -0.000550894              -0.000199981               0.999999985              -0.000562211              -0.000208259               0.999999985              -0.000573855              -0.000215786               0.999999985              -0.000585622              -0.000222287               0.999999985              -0.000597322              -0.000227276               0.999999985              -0.000608683              -0.000230076               0.999999985              -0.000619558              -0.000230079               0.999999985              -0.000629791              -0.000226714               0.999999985              -0.000639232              -0.000218953               0.999999985              -0.000441587              -0.000321874               0.999999985              -0.000459958              -0.000269096               0.999999985              -0.000465741              -0.000250826               0.999999985              -0.000469686              -0.000248915               0.999999985              -0.000474642              -0.000255189               0.999999985              -0.000481218              -0.000265617               0.999999985              -0.000489176              -0.000278151               0.999999985              -0.000498151              -0.000291369               0.999999985              -0.000507664              -0.000304413               0.999999985              -0.000517339              -0.000316766               0.999999985              -0.000526853              -0.000328042               0.999999985              -0.000536060              -0.000337796               0.999999985              -0.000544689              -0.000345539               0.999999985              -0.000552510              -0.000350586               0.999999985              -0.000559434              -0.000352539               0.999999985              -0.000565584              -0.000351167               0.999999985              -0.000571336              -0.000345752               0.999999985              -0.000423584              -0.000423756               0.999999985              -0.000425351              -0.000356120               0.999999985              -0.000423427              -0.000335065               0.999999985              -0.000423909              -0.000334904               0.999999985              -0.000427380              -0.000344837               0.999999985              -0.000433161              -0.000359678               0.999999985              -0.000440456              -0.000376828               0.999999985              -0.000448485              -0.000394487               0.999999985              -0.000456614              -0.000411769               0.999999985              -0.000464356              -0.000428141               0.999999985              -0.000471512              -0.000443114               0.999999985              -0.000477747              -0.000456124               0.999999985              -0.000482872              -0.000466741               0.999999985              -0.000486882              -0.000474765               0.999999985              -0.000490091              -0.000480175               0.999999985              -0.000492811              -0.000483193               0.999999985              -0.000495394              -0.000483838               0.999999985              -0.000401365              -0.000521117               0.999999985              -0.000384487              -0.000441324               0.999999985              -0.000375491              -0.000419511               0.999999985              -0.000373696              -0.000422204               0.999999985              -0.000376651              -0.000436247               0.999999985              -0.000382238              -0.000455548               0.999999985              -0.000389109              -0.000477242               0.999999985              -0.000396293              -0.000499328               0.999999985              -0.000403177              -0.000520680               0.999999985              -0.000409161              -0.000540720               0.999999985              -0.000413881              -0.000558960               0.999999985              -0.000417181              -0.000575036               0.999999985              -0.000419222              -0.000588899               0.999999985              -0.000420224              -0.000600734               0.999999985              -0.000420552              -0.000610737               0.999999985              -0.000420421              -0.000619295               0.999999985              -0.000419904              -0.000626498               0.999999985              -0.000375265              -0.000613123               0.999999985              -0.000339462              -0.000524588               0.999999985              -0.000325275              -0.000503577               0.999999985              -0.000322803              -0.000509787               0.999999985              -0.000326215              -0.000528024               0.999999985              -0.000332188              -0.000551700               0.999999985              -0.000339067              -0.000577720               0.999999985              -0.000345732              -0.000603890               0.999999985              -0.000351402              -0.000629032               0.999999985              -0.000355525              -0.000652542               0.999999985              -0.000357900              -0.000673885               0.999999985              -0.000358598              -0.000693141               0.999999985              -0.000357658              -0.000710701               0.999999985              -0.000355482              -0.000726650               0.999999985              -0.000352338              -0.000741315               0.999999985              -0.000348262              -0.000754792               0.999999985              -0.000343054              -0.000766543               0.999999985              -0.000345921              -0.000698839               0.999999985              -0.000292588              -0.000605604               0.999999985              -0.000275603              -0.000586560               0.999999985              -0.000274193              -0.000596266               0.999999985              -0.000278941              -0.000618536               0.999999985              -0.000285855              -0.000646293               0.999999985              -0.000292945              -0.000676330               0.999999985              -0.000299097              -0.000706399               0.999999985              -0.000303347              -0.000735108               0.999999985              -0.000305260              -0.000761891               0.999999985              -0.000304695              -0.000786666               0.999999985              -0.000301757              -0.000809462               0.999999985              -0.000296990              -0.000830467               0.999999985              -0.000290710              -0.000850058               0.999999985              -0.000282968              -0.000868365               0.999999985              -0.000273825              -0.000885142               0.999999985              -0.000263183              -0.000900062               0.999999985              -0.000314454              -0.000776853               0.999999985              -0.000245368              -0.000684360               0.999999985              -0.000229093              -0.000667401               0.999999985              -0.000230006              -0.000680123               0.999999985              -0.000236731              -0.000706078               0.999999985              -0.000244715              -0.000737784               0.999999985              -0.000251993              -0.000771667               0.999999985              -0.000257204              -0.000805376               0.999999985              -0.000259363              -0.000837531               0.999999985              -0.000258000              -0.000867811               0.999999985              -0.000253395              -0.000895602               0.999999985              -0.000246074              -0.000921086               0.999999985              -0.000236540              -0.000944859               0.999999985              -0.000225127              -0.000967108               0.999999985              -0.000212306              -0.000987895               0.999999985              -0.000198343              -0.001007056               0.999999985              -0.000183582              -0.001024761               0.999999985              -0.000282429              -0.000850144               0.999999985              -0.000206591              -0.000769862               0.999999985              -0.000187327              -0.000748140               0.999999985              -0.000186768              -0.000754951               0.999999985              -0.000192720              -0.000775953               0.999999985              -0.000200360              -0.000804190               0.999999985              -0.000207580              -0.000835911               0.999999985              -0.000213257              -0.000868778               0.999999985              -0.000216215              -0.000901458               0.999999985              -0.000215910              -0.000932817               0.999999985              -0.000212111              -0.000962261               0.999999985              -0.000205087              -0.000989634               0.999999985              -0.000195267              -0.001015031               0.999999985              -0.000183097              -0.001038901               0.999999985              -0.000169319              -0.001061433               0.999999985              -0.000154743              -0.001082758               0.999999985              -0.000139744              -0.001102792               0.999999985              -0.000247257              -0.000916457               0.999999985              -0.000170604              -0.000851892               0.999999985              -0.000148413              -0.000830213               0.999999985              -0.000145777              -0.000832992               0.999999985              -0.000150355              -0.000849867               0.999999985              -0.000157111              -0.000874911               0.999999985              -0.000163850              -0.000904561               0.999999985              -0.000169464              -0.000936454               0.999999985              -0.000172919              -0.000969246               0.999999985              -0.000173492              -0.001001659               0.999999985              -0.000170683              -0.001032542               0.999999985              -0.000164307              -0.001061645               0.999999985              -0.000154571              -0.001088867               0.999999985              -0.000141742              -0.001114355               0.999999985              -0.000126542              -0.001138398               0.999999985              -0.000109804              -0.001161411               0.999999985              -0.000092251              -0.001183675               0.999999985              -0.000209750              -0.000974278               0.999999985              -0.000137306              -0.000928164               0.999999985              -0.000113487              -0.000910078               0.999999985              -0.000108647              -0.000911478               0.999999985              -0.000111344              -0.000925718               0.999999985              -0.000116728              -0.000948247               0.999999985              -0.000122515              -0.000976154               0.999999985              -0.000127545              -0.001007254               0.999999985              -0.000131049              -0.001040111               0.999999985              -0.000132199              -0.001073441               0.999999985              -0.000130228              -0.001106073               0.999999985              -0.000124711              -0.001137247               0.999999985              -0.000115557              -0.001166531               0.999999985              -0.000102706              -0.001194115               0.999999985              -0.000086384              -0.001220004               0.999999985              -0.000067107              -0.001244578               0.999999985              -0.000045604              -0.001268382               0.999999985              -0.000170290              -0.001022711               0.999999985              -0.000106611              -0.000995643               0.999999985              -0.000083139              -0.000983861               0.999999985              -0.000076640              -0.000986346               0.999999985              -0.000077407              -0.000999734               0.999999985              -0.000081034              -0.001020947               0.999999985              -0.000085506              -0.001047680               0.999999985              -0.000089752              -0.001078194               0.999999985              -0.000092792              -0.001111272               0.999999985              -0.000093971              -0.001145591               0.999999985              -0.000092721              -0.001179939               0.999999985              -0.000088310              -0.001213575               0.999999985              -0.000080182              -0.001245752               0.999999985              -0.000067998              -0.001276241               0.999999985              -0.000051631              -0.001304946               0.999999985              -0.000030870              -0.001332051               0.999999985              -0.000005582              -0.001357958               0.999999985              -0.000129229              -0.001061109               0.999999985              -0.000078113              -0.001051492               0.999999985              -0.000057407              -0.001047251               0.999999985              -0.000050439              -0.001052570               0.999999985              -0.000049725              -0.001066620               0.999999985              -0.000051710              -0.001087681               0.999999985              -0.000054727              -0.001114023               0.999999985              -0.000057821              -0.001144470               0.999999985              -0.000060170              -0.001178027               0.999999985              -0.000061178              -0.001213360               0.999999985              -0.000060409              -0.001249438               0.999999985              -0.000057095              -0.001285487               0.999999985              -0.000050452              -0.001320815               0.999999985              -0.000040062              -0.001354860               0.999999985              -0.000025270              -0.001387201               0.999999985              -0.000005298              -0.001417910               0.999999985               0.000020798              -0.001446993               0.999999985              -0.000086927              -0.001088902               0.999999985              -0.000051251              -0.001093260               0.999999985              -0.000035729              -0.001096102               0.999999985              -0.000029811              -0.001104800               0.999999985              -0.000028491              -0.001120348               0.999999985              -0.000029363              -0.001142033               0.999999985              -0.000031047              -0.001168690               0.999999985              -0.000032887              -0.001199451               0.999999985              -0.000034433              -0.001233605               0.999999985              -0.000035196              -0.001269977               0.999999985              -0.000034730              -0.001307654               0.999999985              -0.000032375              -0.001345945               0.999999985              -0.000027710              -0.001384093               0.999999985              -0.000020100              -0.001421610               0.999999985              -0.000008729              -0.001457861               0.999999985               0.000007255              -0.001492521               0.999999985               0.000029221              -0.001525279               0.999999985              -0.000043717              -0.001105748               0.999999985              -0.000025391              -0.001119133               0.999999985              -0.000017043              -0.001127004               0.999999985              -0.000013624              -0.001138341               0.999999985              -0.000012670              -0.001155231               0.999999985              -0.000012938              -0.001177621               0.999999985              -0.000013652              -0.001204784               0.999999985              -0.000014498              -0.001236011               0.999999985              -0.000015229              -0.001270699               0.999999985              -0.000015640              -0.001307869               0.999999985              -0.000015364              -0.001346715               0.999999985              -0.000014178              -0.001386548               0.999999985              -0.000011711              -0.001426753               0.999999985              -0.000007575              -0.001466843               0.999999985              -0.000001503              -0.001506105               0.999999985               0.000007392              -0.001544013               0.999999985               0.000020112              -0.001579862               0.999999985               0.000000000              -0.001111409               0.999999985               0.000000000              -0.001127907               0.999999985               0.000000000              -0.001137544               0.999999985              -0.000000000              -0.001149840               0.999999985               0.000000000              -0.001167343               0.999999985               0.000000000              -0.001190094               0.999999985              -0.000000000              -0.001217445               0.999999985               0.000000000              -0.001248851               0.999999985              -0.000000000              -0.001283776               0.999999985              -0.000000000              -0.001321302               0.999999985              -0.000000000              -0.001360570               0.999999985               0.000000000              -0.001400946               0.999999985              -0.000000000              -0.001441882               0.999999985              -0.000000000              -0.001482818               0.999999985              -0.000000000              -0.001523161               0.999999985               0.000000000              -0.001562296               0.999999985               0.000000000              -0.001599328               0.999999985               0.000465403               0.000000000               0.999999985               0.000508081               0.000000000               0.999999985               0.000527543               0.000000000               0.999999985               0.000539092              -0.000000000               0.999999985               0.000548442               0.000000000               0.999999985               0.000557669              -0.000000000               0.999999985               0.000567688              -0.000000000               0.999999985               0.000578699               0.000000000               0.999999985               0.000590742              -0.000000000               0.999999985               0.000603782               0.000000000               0.999999985               0.000617504               0.000000000               0.999999985               0.000631883              -0.000000000               0.999999985               0.000646759               0.000000000               0.999999985               0.000661816              -0.000000000               0.999999985               0.000676747              -0.000000000               0.999999985               0.000691197              -0.000000000               0.999999985               0.000704708               0.000000000               0.999999985               0.000462687              -0.000108894               0.999999985               0.000502513              -0.000090610               0.999999985               0.000520271              -0.000083399               0.999999985               0.000530775              -0.000081896               0.999999985               0.000539449              -0.000083291               0.999999985               0.000548239              -0.000086311               0.999999985               0.000557881              -0.000090219               0.999999985               0.000568612              -0.000094533               0.999999985               0.000580328              -0.000098936               0.999999985               0.000592821              -0.000103048               0.999999985               0.000605927              -0.000106783               0.999999985               0.000619596              -0.000110003               0.999999985               0.000633598              -0.000112497               0.999999985               0.000647699              -0.000113684               0.999999985               0.000661602              -0.000113113               0.999999985               0.000674955              -0.000110476               0.999999985               0.000687364              -0.000105027               0.999999985               0.000454727              -0.000216553               0.999999985               0.000486202              -0.000180495               0.999999985               0.000499049              -0.000166967               0.999999985               0.000506702              -0.000164653               0.999999985               0.000513609              -0.000168029               0.999999985               0.000521346              -0.000174445               0.999999985               0.000530232              -0.000182534               0.999999985               0.000540170              -0.000191265               0.999999985               0.000550894              -0.000199981               0.999999985               0.000562211              -0.000208259               0.999999985               0.000573855              -0.000215786               0.999999985               0.000585622              -0.000222287               0.999999985               0.000597322              -0.000227276               0.999999985               0.000608683              -0.000230076               0.999999985               0.000619558              -0.000230079               0.999999985               0.000629791              -0.000226714               0.999999985               0.000639232              -0.000218953               0.999999985               0.000441587              -0.000321874               0.999999985               0.000459958              -0.000269096               0.999999985               0.000465741              -0.000250826               0.999999985               0.000469686              -0.000248915               0.999999985               0.000474642              -0.000255189               0.999999985               0.000481218              -0.000265617               0.999999985               0.000489176              -0.000278151               0.999999985               0.000498151              -0.000291369               0.999999985               0.000507664              -0.000304413               0.999999985               0.000517339              -0.000316766               0.999999985               0.000526853              -0.000328042               0.999999985               0.000536060              -0.000337796               0.999999985               0.000544689              -0.000345539               0.999999985               0.000552510              -0.000350586               0.999999985               0.000559434              -0.000352539               0.999999985               0.000565584              -0.000351167               0.999999985               0.000571336              -0.000345752               0.999999985               0.000423584              -0.000423756               0.999999985               0.000425351              -0.000356120               0.999999985               0.000423427              -0.000335065               0.999999985               0.000423909              -0.000334904               0.999999985               0.000427380              -0.000344837               0.999999985               0.000433161              -0.000359678               0.999999985               0.000440456              -0.000376828               0.999999985               0.000448485              -0.000394487               0.999999985               0.000456614              -0.000411769               0.999999985               0.000464356              -0.000428141               0.999999985               0.000471512              -0.000443114               0.999999985               0.000477747              -0.000456124               0.999999985               0.000482872              -0.000466741               0.999999985               0.000486882              -0.000474765               0.999999985               0.000490091              -0.000480175               0.999999985               0.000492811              -0.000483193               0.999999985               0.000495394              -0.000483838               0.999999985               0.000401365              -0.000521117               0.999999985               0.000384487              -0.000441324               0.999999985               0.000375491              -0.000419511               0.999999985               0.000373696              -0.000422204               0.999999985               0.000376651              -0.000436247               0.999999985               0.000382238              -0.000455548               0.999999985               0.000389109              -0.000477242               0.999999985               0.000396293              -0.000499328               0.999999985               0.000403177              -0.000520680               0.999999985               0.000409161              -0.000540720               0.999999985               0.000413881              -0.000558960               0.999999985               0.000417181              -0.000575036               0.999999985               0.000419222              -0.000588899               0.999999985               0.000420224              -0.000600734               0.999999985               0.000420552              -0.000610737               0.999999985               0.000420421              -0.000619295               0.999999985               0.000419904              -0.000626498               0.999999985               0.000375265              -0.000613123               0.999999985               0.000339462              -0.000524588               0.999999985               0.000325275              -0.000503577               0.999999985               0.000322803              -0.000509787               0.999999985               0.000326215              -0.000528024               0.999999985               0.000332188              -0.000551700               0.999999985               0.000339067              -0.000577720               0.999999985               0.000345732              -0.000603890               0.999999985               0.000351402              -0.000629032               0.999999985               0.000355525              -0.000652542               0.999999985               0.000357900              -0.000673885               0.999999985               0.000358598              -0.000693141               0.999999985               0.000357658              -0.000710701               0.999999985               0.000355482              -0.000726650               0.999999985               0.000352338              -0.000741315               0.999999985               0.000348262              -0.000754792               0.999999985               0.000343054              -0.000766543               0.999999985               0.000345921              -0.000698839               0.999999985               0.000292588              -0.000605604               0.999999985               0.000275603              -0.000586560               0.999999985               0.000274193              -0.000596266               0.999999985               0.000278941              -0.000618536               0.999999985               0.000285855              -0.000646293               0.999999985               0.000292945              -0.000676330               0.999999985               0.000299097              -0.000706399               0.999999985               0.000303347              -0.000735108               0.999999985               0.000305260              -0.000761891               0.999999985               0.000304695              -0.000786666               0.999999985               0.000301757              -0.000809462               0.999999985               0.000296990              -0.000830467               0.999999985               0.000290710              -0.000850058               0.999999985               0.000282968              -0.000868365               0.999999985               0.000273825              -0.000885142               0.999999985               0.000263183              -0.000900062               0.999999985               0.000314454              -0.000776853               0.999999985               0.000245368              -0.000684360               0.999999985               0.000229093              -0.000667401               0.999999985               0.000230006              -0.000680123               0.999999985               0.000236731              -0.000706078               0.999999985               0.000244715              -0.000737784               0.999999985               0.000251993              -0.000771667               0.999999985               0.000257204              -0.000805376               0.999999985               0.000259363              -0.000837531               0.999999985               0.000258000              -0.000867811               0.999999985               0.000253395              -0.000895602               0.999999985               0.000246074              -0.000921086               0.999999985               0.000236540              -0.000944859               0.999999985               0.000225127              -0.000967108               0.999999985               0.000212306              -0.000987895               0.999999985               0.000198343              -0.001007056               0.999999985               0.000183582              -0.001024761               0.999999985               0.000282429              -0.000850144               0.999999985               0.000206591              -0.000769862               0.999999985               0.000187327              -0.000748140               0.999999985               0.000186768              -0.000754951               0.999999985               0.000192720              -0.000775953               0.999999985               0.000200360              -0.000804190               0.999999985               0.000207580              -0.000835911               0.999999985               0.000213257              -0.000868778               0.999999985               0.000216215              -0.000901458               0.999999985               0.000215910              -0.000932817               0.999999985               0.000212111              -0.000962261               0.999999985               0.000205087              -0.000989634               0.999999985               0.000195267              -0.001015031               0.999999985               0.000183097              -0.001038901               0.999999985               0.000169319              -0.001061433               0.999999985               0.000154743              -0.001082758               0.999999985               0.000139744              -0.001102792               0.999999985               0.000247257              -0.000916457               0.999999985               0.000170604              -0.000851892               0.999999985               0.000148413              -0.000830213               0.999999985               0.000145777              -0.000832992               0.999999985               0.000150355              -0.000849867               0.999999985               0.000157111              -0.000874911               0.999999985               0.000163850              -0.000904561               0.999999985               0.000169464              -0.000936454               0.999999985               0.000172919              -0.000969246               0.999999985               0.000173492              -0.001001659               0.999999985               0.000170683              -0.001032542               0.999999985               0.000164307              -0.001061645               0.999999985               0.000154571              -0.001088867               0.999999985               0.000141742              -0.001114355               0.999999985               0.000126542              -0.001138398               0.999999985               0.000109804              -0.001161411               0.999999985               0.000092251              -0.001183675               0.999999985               0.000209750              -0.000974278               0.999999985               0.000137306              -0.000928164               0.999999985               0.000113487              -0.000910078               0.999999985               0.000108647              -0.000911478               0.999999985               0.000111344              -0.000925718               0.999999985               0.000116728              -0.000948247               0.999999985               0.000122515              -0.000976154               0.999999985               0.000127545              -0.001007254               0.999999985               0.000131049              -0.001040111               0.999999985               0.000132199              -0.001073441               0.999999985               0.000130228              -0.001106073               0.999999985               0.000124711              -0.001137247               0.999999985               0.000115557              -0.001166531               0.999999985               0.000102706              -0.001194115               0.999999985               0.000086384              -0.001220004               0.999999985               0.000067107              -0.001244578               0.999999985               0.000045604              -0.001268382               0.999999985               0.000170290              -0.001022711               0.999999985               0.000106611              -0.000995643               0.999999985               0.000083139              -0.000983861               0.999999985               0.000076640              -0.000986346               0.999999985               0.000077407              -0.000999734               0.999999985               0.000081034              -0.001020947               0.999999985               0.000085506              -0.001047680               0.999999985               0.000089752              -0.001078194               0.999999985               0.000092792              -0.001111272               0.999999985               0.000093971              -0.001145591               0.999999985               0.000092721              -0.001179939               0.999999985               0.000088310              -0.001213575               0.999999985               0.000080182              -0.001245752               0.999999985               0.000067998              -0.001276241               0.999999985               0.000051631              -0.001304946               0.999999985               0.000030870              -0.001332051               0.999999985               0.000005582              -0.001357958               0.999999985               0.000129229              -0.001061109               0.999999985               0.000078113              -0.001051492               0.999999985               0.000057407              -0.001047251               0.999999985               0.000050439              -0.001052570               0.999999985               0.000049725              -0.001066620               0.999999985               0.000051710              -0.001087681               0.999999985               0.000054727              -0.001114023               0.999999985               0.000057821              -0.001144470               0.999999985               0.000060170              -0.001178027               0.999999985               0.000061178              -0.001213360               0.999999985               0.000060409              -0.001249438               0.999999985               0.000057095              -0.001285487               0.999999985               0.000050452              -0.001320815               0.999999985               0.000040062              -0.001354860               0.999999985               0.000025270              -0.001387201               0.999999985               0.000005298              -0.001417910               0.999999985              -0.000020798              -0.001446993               0.999999985               0.000086927              -0.001088902               0.999999985               0.000051251              -0.001093260               0.999999985               0.000035729              -0.001096102               0.999999985               0.000029811              -0.001104800               0.999999985               0.000028491              -0.001120348               0.999999985               0.000029363              -0.001142033               0.999999985               0.000031047              -0.001168690               0.999999985               0.000032887              -0.001199451               0.999999985               0.000034433              -0.001233605               0.999999985               0.000035196              -0.001269977               0.999999985               0.000034730              -0.001307654               0.999999985               0.000032375              -0.001345945               0.999999985               0.000027710              -0.001384093               0.999999985               0.000020100              -0.001421610               0.999999985               0.000008729              -0.001457861               0.999999985              -0.000007255              -0.001492521               0.999999985              -0.000029221              -0.001525279               0.999999985               0.000043717              -0.001105748               0.999999985               0.000025391              -0.001119133               0.999999985               0.000017043              -0.001127004               0.999999985               0.000013624              -0.001138341               0.999999985               0.000012670              -0.001155231               0.999999985               0.000012938              -0.001177621               0.999999985               0.000013652              -0.001204784               0.999999985               0.000014498              -0.001236011               0.999999985               0.000015229              -0.001270699               0.999999985               0.000015640              -0.001307869               0.999999985               0.000015364              -0.001346715               0.999999985               0.000014178              -0.001386548               0.999999985               0.000011711              -0.001426753               0.999999985               0.000007575              -0.001466843               0.999999985               0.000001503              -0.001506105               0.999999985              -0.000007392              -0.001544013               0.999999985              -0.000020112              -0.001579862               0.999999985               0.000000000              -0.001111409               0.999999985               0.000000000              -0.001127907               0.999999985               0.000000000              -0.001137544               0.999999985              -0.000000000              -0.001149840               0.999999985               0.000000000              -0.001167343               0.999999985               0.000000000              -0.001190094               0.999999985              -0.000000000              -0.001217445               0.999999985               0.000000000              -0.001248851               0.999999985              -0.000000000              -0.001283776               0.999999985              -0.000000000              -0.001321302               0.999999985              -0.000000000              -0.001360570               0.999999985               0.000000000              -0.001400946               0.999999985              -0.000000000              -0.001441882               0.999999985              -0.000000000              -0.001482818               0.999999985              -0.000000000              -0.001523161               0.999999985               0.000000000              -0.001562296               0.999999985               0.000000000              -0.001599328               0.999999985               0.000465403               0.000000000               0.999999985               0.000508081               0.000000000               0.999999985               0.000527543               0.000000000               0.999999985               0.000539092              -0.000000000               0.999999985               0.000548442               0.000000000               0.999999985               0.000557669              -0.000000000               0.999999985               0.000567688              -0.000000000               0.999999985               0.000578699               0.000000000               0.999999985               0.000590742              -0.000000000               0.999999985               0.000603782               0.000000000               0.999999985               0.000617504               0.000000000               0.999999985               0.000631883              -0.000000000               0.999999985               0.000646759               0.000000000               0.999999985               0.000661816              -0.000000000               0.999999985               0.000676747              -0.000000000               0.999999985               0.000691197              -0.000000000               0.999999985               0.000704708               0.000000000               0.999999985               0.000462687               0.000108894               0.999999985               0.000502513               0.000090610               0.999999985               0.000520271               0.000083399               0.999999985               0.000530775               0.000081896               0.999999985               0.000539449               0.000083291               0.999999985               0.000548239               0.000086311               0.999999985               0.000557881               0.000090219               0.999999985               0.000568612               0.000094533               0.999999985               0.000580328               0.000098936               0.999999985               0.000592821               0.000103048               0.999999985               0.000605927               0.000106783               0.999999985               0.000619596               0.000110003               0.999999985               0.000633598               0.000112497               0.999999985               0.000647699               0.000113684               0.999999985               0.000661602               0.000113113               0.999999985               0.000674955               0.000110476               0.999999985               0.000687364               0.000105027               0.999999985               0.000454727               0.000216553               0.999999985               0.000486202               0.000180495               0.999999985               0.000499049               0.000166967               0.999999985               0.000506702               0.000164653               0.999999985               0.000513609               0.000168029               0.999999985               0.000521346               0.000174445               0.999999985               0.000530232               0.000182534               0.999999985               0.000540170               0.000191265               0.999999985               0.000550894               0.000199981               0.999999985               0.000562211               0.000208259               0.999999985               0.000573855               0.000215786               0.999999985               0.000585622               0.000222287               0.999999985               0.000597322               0.000227276               0.999999985               0.000608683               0.000230076               0.999999985               0.000619558               0.000230079               0.999999985               0.000629791               0.000226714               0.999999985               0.000639232               0.000218953               0.999999985               0.000441587               0.000321874               0.999999985               0.000459958               0.000269096               0.999999985               0.000465741               0.000250826               0.999999985               0.000469686               0.000248915               0.999999985               0.000474642               0.000255189               0.999999985               0.000481218               0.000265617               0.999999985               0.000489176               0.000278151               0.999999985               0.000498151               0.000291369               0.999999985               0.000507664               0.000304413               0.999999985               0.000517339               0.000316766               0.999999985               0.000526853               0.000328042               0.999999985               0.000536060               0.000337796               0.999999985               0.000544689               0.000345539               0.999999985               0.000552510               0.000350586               0.999999985               0.000559434               0.000352539               0.999999985               0.000565584               0.000351167               0.999999985               0.000571336               0.000345752               0.999999985               0.000423584               0.000423756               0.999999985               0.000425351               0.000356120               0.999999985               0.000423427               0.000335065               0.999999985               0.000423909               0.000334904               0.999999985               0.000427380               0.000344837               0.999999985               0.000433161               0.000359678               0.999999985               0.000440456               0.000376828               0.999999985               0.000448485               0.000394487               0.999999985               0.000456614               0.000411769               0.999999985               0.000464356               0.000428141               0.999999985               0.000471512               0.000443114               0.999999985               0.000477747               0.000456124               0.999999985               0.000482872               0.000466741               0.999999985               0.000486882               0.000474765               0.999999985               0.000490091               0.000480175               0.999999985               0.000492811               0.000483193               0.999999985               0.000495394               0.000483838               0.999999985               0.000401365               0.000521117               0.999999985               0.000384487               0.000441324               0.999999985               0.000375491               0.000419511               0.999999985               0.000373696               0.000422204               0.999999985               0.000376651               0.000436247               0.999999985               0.000382238               0.000455548               0.999999985               0.000389109               0.000477242               0.999999985               0.000396293               0.000499328               0.999999985               0.000403177               0.000520680               0.999999985               0.000409161               0.000540720               0.999999985               0.000413881               0.000558960               0.999999985               0.000417181               0.000575036               0.999999985               0.000419222               0.000588899               0.999999985               0.000420224               0.000600734               0.999999985               0.000420552               0.000610737               0.999999985               0.000420421               0.000619295               0.999999985               0.000419904               0.000626498               0.999999985               0.000375265               0.000613123               0.999999985               0.000339462               0.000524588               0.999999985               0.000325275               0.000503577               0.999999985               0.000322803               0.000509787               0.999999985               0.000326215               0.000528024               0.999999985               0.000332188               0.000551700               0.999999985               0.000339067               0.000577720               0.999999985               0.000345732               0.000603890               0.999999985               0.000351402               0.000629032               0.999999985               0.000355525               0.000652542               0.999999985               0.000357900               0.000673885               0.999999985               0.000358598               0.000693141               0.999999985               0.000357658               0.000710701               0.999999985               0.000355482               0.000726650               0.999999985               0.000352338               0.000741315               0.999999985               0.000348262               0.000754792               0.999999985               0.000343054               0.000766543               0.999999985               0.000345921               0.000698839               0.999999985               0.000292588               0.000605604               0.999999985               0.000275603               0.000586560               0.999999985               0.000274193               0.000596266               0.999999985               0.000278941               0.000618536               0.999999985               0.000285855               0.000646293               0.999999985               0.000292945               0.000676330               0.999999985               0.000299097               0.000706399               0.999999985               0.000303347               0.000735108               0.999999985               0.000305260               0.000761891               0.999999985               0.000304695               0.000786666               0.999999985               0.000301757               0.000809462               0.999999985               0.000296990               0.000830467               0.999999985               0.000290710               0.000850058               0.999999985               0.000282968               0.000868365               0.999999985               0.000273825               0.000885142               0.999999985               0.000263183               0.000900062               0.999999985               0.000314454               0.000776853               0.999999985               0.000245368               0.000684360               0.999999985               0.000229093               0.000667401               0.999999985               0.000230006               0.000680123               0.999999985               0.000236731               0.000706078               0.999999985               0.000244715               0.000737784               0.999999985               0.000251993               0.000771667               0.999999985               0.000257204               0.000805376               0.999999985               0.000259363               0.000837531               0.999999985               0.000258000               0.000867811               0.999999985               0.000253395               0.000895602               0.999999985               0.000246074               0.000921086               0.999999985               0.000236540               0.000944859               0.999999985               0.000225127               0.000967108               0.999999985               0.000212306               0.000987895               0.999999985               0.000198343               0.001007056               0.999999985               0.000183582               0.001024761               0.999999985               0.000282429               0.000850144               0.999999985               0.000206591               0.000769862               0.999999985               0.000187327               0.000748140               0.999999985               0.000186768               0.000754951               0.999999985               0.000192720               0.000775953               0.999999985               0.000200360               0.000804190               0.999999985               0.000207580               0.000835911               0.999999985               0.000213257               0.000868778               0.999999985               0.000216215               0.000901458               0.999999985               0.000215910               0.000932817               0.999999985               0.000212111               0.000962261               0.999999985               0.000205087               0.000989634               0.999999985               0.000195267               0.001015031               0.999999985               0.000183097               0.001038901               0.999999985               0.000169319               0.001061433               0.999999985               0.000154743               0.001082758               0.999999985               0.000139744               0.001102792               0.999999985               0.000247257               0.000916457               0.999999985               0.000170604               0.000851892               0.999999985               0.000148413               0.000830213               0.999999985               0.000145777               0.000832992               0.999999985               0.000150355               0.000849867               0.999999985               0.000157111               0.000874911               0.999999985               0.000163850               0.000904561               0.999999985               0.000169464               0.000936454               0.999999985               0.000172919               0.000969246               0.999999985               0.000173492               0.001001659               0.999999985               0.000170683               0.001032542               0.999999985               0.000164307               0.001061645               0.999999985               0.000154571               0.001088867               0.999999985               0.000141742               0.001114355               0.999999985               0.000126542               0.001138398               0.999999985               0.000109804               0.001161411               0.999999985               0.000092251               0.001183675               0.999999985               0.000209750               0.000974278               0.999999985               0.000137306               0.000928164               0.999999985               0.000113487               0.000910078               0.999999985               0.000108647               0.000911478               0.999999985               0.000111344               0.000925718               0.999999985               0.000116728               0.000948247               0.999999985               0.000122515               0.000976154               0.999999985               0.000127545               0.001007254               0.999999985               0.000131049               0.001040111               0.999999985               0.000132199               0.001073441               0.999999985               0.000130228               0.001106073               0.999999985               0.000124711               0.001137247               0.999999985               0.000115557               0.001166531               0.999999985               0.000102706               0.001194115               0.999999985               0.000086384               0.001220004               0.999999985               0.000067107               0.001244578               0.999999985               0.000045604               0.001268382               0.999999985               0.000170290               0.001022711               0.999999985               0.000106611               0.000995643               0.999999985               0.000083139               0.000983861               0.999999985               0.000076640               0.000986346               0.999999985               0.000077407               0.000999734               0.999999985               0.000081034               0.001020947               0.999999985               0.000085506               0.001047680               0.999999985               0.000089752               0.001078194               0.999999985               0.000092792               0.001111272               0.999999985               0.000093971               0.001145591               0.999999985               0.000092721               0.001179939               0.999999985               0.000088310               0.001213575               0.999999985               0.000080182               0.001245752               0.999999985               0.000067998               0.001276241               0.999999985               0.000051631               0.001304946               0.999999985               0.000030870               0.001332051               0.999999985               0.000005582               0.001357958               0.999999985               0.000129229               0.001061109               0.999999985               0.000078113               0.001051492               0.999999985               0.000057407               0.001047251               0.999999985               0.000050439               0.001052570               0.999999985               0.000049725               0.001066620               0.999999985               0.000051710               0.001087681               0.999999985               0.000054727               0.001114023               0.999999985               0.000057821               0.001144470               0.999999985               0.000060170               0.001178027               0.999999985               0.000061178               0.001213360               0.999999985               0.000060409               0.001249438               0.999999985               0.000057095               0.001285487               0.999999985               0.000050452               0.001320815               0.999999985               0.000040062               0.001354860               0.999999985               0.000025270               0.001387201               0.999999985               0.000005298               0.001417910               0.999999985              -0.000020798               0.001446993               0.999999985               0.000086927               0.001088902               0.999999985               0.000051251               0.001093260               0.999999985               0.000035729               0.001096102               0.999999985               0.000029811               0.001104800               0.999999985               0.000028491               0.001120348               0.999999985               0.000029363               0.001142033               0.999999985               0.000031047               0.001168690               0.999999985               0.000032887               0.001199451               0.999999985               0.000034433               0.001233605               0.999999985               0.000035196               0.001269977               0.999999985               0.000034730               0.001307654               0.999999985               0.000032375               0.001345945               0.999999985               0.000027710               0.001384093               0.999999985               0.000020100               0.001421610               0.999999985               0.000008729               0.001457861               0.999999985              -0.000007255               0.001492521               0.999999985              -0.000029221               0.001525279               0.999999985               0.000043717               0.001105748               0.999999985               0.000025391               0.001119133               0.999999985               0.000017043               0.001127004               0.999999985               0.000013624               0.001138341               0.999999985               0.000012670               0.001155231               0.999999985               0.000012938               0.001177621               0.999999985               0.000013652               0.001204784               0.999999985               0.000014498               0.001236011               0.999999985               0.000015229               0.001270699               0.999999985               0.000015640               0.001307869               0.999999985               0.000015364               0.001346715               0.999999985               0.000014178               0.001386548               0.999999985               0.000011711               0.001426753               0.999999985               0.000007575               0.001466843               0.999999985               0.000001503               0.001506105               0.999999985              -0.000007392               0.001544013               0.999999985              -0.000020112               0.001579862               0.999999985              -0.000000000               0.001111409               0.999999985              -0.000000000               0.001127907               0.999999985              -0.000000000               0.001137544               0.999999985              -0.000000000               0.001149840               0.999999985               0.000000000               0.001167343               0.999999985               0.000000000               0.001190094               0.999999985              -0.000000000               0.001217445               0.999999985               0.000000000               0.001248851               0.999999985               0.000000000               0.001283776               0.999999985               0.000000000               0.001321302               0.999999985              -0.000000000               0.001360570               0.999999985              -0.000000000               0.001400946               0.999999985               0.000000000               0.001441882               0.999999985               0.000000000               0.001482818               0.999999985               0.000000000               0.001523161               0.999999985              -0.000000000               0.001562296               0.999999985              -0.000000000               0.001599328               0.999999985 </DataArray>
<DataArray type="Float64"                                    Name="defo"                                                      NumberOfComponents=" 3" format="ascii">
             -0.000465403               0.000000000               0.999999985              -0.000508081               0.000000000               0.999999985              -0.000527543              -0.000000000               0.999999985              -0.000539092               0.000000000               0.999999985              -0.000548442               0.000000000               0.999999985              -0.000557669               0.000000000               0.999999985              -0.000567688              -0.000000000               0.999999985              -0.000578699               0.000000000               0.999999985              -0.000590742               0.000000000               0.999999985              -0.000603782               0.000000000               0.999999985              -0.000617504               0.000000000               0.999999985              -0.000631883               0.000000000               0.999999985              -0.000646759               0.000000000               0.999999985              -0.000661816               0.000000000               0.999999985              -0.000676747               0.000000000               0.999999985              -0.000691197               0.000000000               0.999999985              -0.000704708              -0.000000000               0.999999985              -0.000462687               0.000108894               0.999999985              -0.000502513               0.000090610               0.999999985              -0.000520271               0.000083399               0.999999985              -0.000530775               0.000081896               0.999999985              -0.000539449               0.000083291               0.999999985              -0.000548239               0.000086311               0.999999985              -0.000557881               0.000090219               0.999999985              -0.000568612               0.000094533               0.999999985              -0.000580328               0.000098936               0.999999985              -0.000592821               0.000103048               0.999999985              -0.000605927               0.000106783               0.999999985              -0.000619596               0.000110003               0.999999985              -0.000633598               0.000112497               0.999999985              -0.000647699               0.000113684               0.999999985              -0.000661602               0.000113113               0.999999985              -0.000674955               0.000110476               0.999999985              -0.000687364               0.000105027               0.999999985              -0.000454727               0.000216553               0.999999985              -0.000486202               0.000180495               0.999999985              -0.000499049               0.000166967               0.999999985              -0.000506702               0.000164653               0.999999985              -0.000513609               0.000168029               0.999999985              -0.000521346               0.000174445               0.999999985              -0.000530232               0.000182534               0.999999985              -0.000540170               0.000191265               0.999999985              -0.000550894               0.000199981               0.999999985              -0.000562211               0.000208259               0.999999985              -0.000573855               0.000215786               0.999999985              -0.000585622               0.000222287               0.999999985              -0.000597322               0.000227276               0.999999985              -0.000608683               0.000230076               0.999999985              -0.000619558               0.000230079               0.999999985              -0.000629791               0.000226714               0.999999985              -0.000639232               0.000218953               0.999999985              -0.000441587               0.000321874               0.999999985              -0.000459958               0.000269096               0.999999985              -0.000465741               0.000250826               0.999999985              -0.000469686               0.000248915               0.999999985              -0.000474642               0.000255189               0.999999985              -0.000481218               0.000265617               0.999999985              -0.000489176               0.000278151               0.999999985              -0.000498151               0.000291369               0.999999985              -0.000507664               0.000304413               0.999999985              -0.000517339               0.000316766               0.999999985              -0.000526853               0.000328042               0.999999985              -0.000536060               0.000337796               0.999999985              -0.000544689               0.000345539               0.999999985              -0.000552510               0.000350586               0.999999985              -0.000559434               0.000352539               0.999999985              -0.000565584               0.000351167               0.999999985              -0.000571336               0.000345752               0.999999985              -0.000423584               0.000423756               0.999999985              -0.000425351               0.000356120               0.999999985              -0.000423427               0.000335065               0.999999985              -0.000423909               0.000334904               0.999999985              -0.000427380               0.000344837               0.999999985              -0.000433161               0.000359678               0.999999985              -0.000440456               0.000376828               0.999999985              -0.000448485               0.000394487               0.999999985              -0.000456614               0.000411769               0.999999985              -0.000464356               0.000428141               0.999999985              -0.000471512               0.000443114               0.999999985              -0.000477747               0.000456124               0.999999985              -0.000482872               0.000466741               0.999999985              -0.000486882               0.000474765               0.999999985              -0.000490091               0.000480175               0.999999985              -0.000492811               0.000483193               0.999999985              -0.000495394               0.000483838               0.999999985              -0.000401365               0.000521117               0.999999985              -0.000384487               0.000441324               0.999999985              -0.000375491               0.000419511               0.999999985              -0.000373696               0.000422204               0.999999985              -0.000376651               0.000436247               0.999999985              -0.000382238               0.000455548               0.999999985              -0.000389109               0.000477242               0.999999985              -0.000396293               0.000499328               0.999999985              -0.000403177               0.000520680               0.999999985              -0.000409161               0.000540720               0.999999985              -0.000413881               0.000558960               0.999999985              -0.000417181               0.000575036               0.999999985              -0.000419222               0.000588899               0.999999985              -0.000420224               0.000600734               0.999999985              -0.000420552               0.000610737               0.999999985              -0.000420421               0.000619295               0.999999985              -0.000419904               0.000626498               0.999999985              -0.000375265               0.000613123               0.999999985              -0.000339462               0.000524588               0.999999985              -0.000325275               0.000503577               0.999999985              -0.000322803               0.000509787               0.999999985              -0.000326215               0.000528024               0.999999985              -0.000332188               0.000551700               0.999999985              -0.000339067               0.000577720               0.999999985              -0.000345732               0.000603890               0.999999985              -0.000351402               0.000629032               0.999999985              -0.000355525               0.000652542               0.999999985              -0.000357900               0.000673885               0.999999985              -0.000358598               0.000693141               0.999999985              -0.000357658               0.000710701               0.999999985              -0.000355482               0.000726650               0.999999985              -0.000352338               0.000741315               0.999999985              -0.000348262               0.000754792               0.999999985              -0.000343054               0.000766543               0.999999985              -0.000345921               0.000698839               0.999999985              -0.000292588               0.000605604               0.999999985              -0.000275603               0.000586560               0.999999985              -0.000274193               0.000596266               0.999999985              -0.000278941               0.000618536               0.999999985              -0.000285855               0.000646293               0.999999985              -0.000292945               0.000676330               0.999999985              -0.000299097               0.000706399               0.999999985              -0.000303347               0.000735108               0.999999985              -0.000305260               0.000761891               0.999999985              -0.000304695               0.000786666               0.999999985              -0.000301757               0.000809462               0.999999985              -0.000296990               0.000830467               0.999999985              -0.000290710               0.000850058               0.999999985              -0.000282968               0.000868365               0.999999985              -0.000273825               0.000885142               0.999999985              -0.000263183               0.000900062               0.999999985              -0.000314454               0.000776853               0.999999985              -0.000245368               0.000684360               0.999999985              -0.000229093               0.000667401               0.999999985              -0.000230006               0.000680123               0.999999985              -0.000236731               0.000706078               0.999999985              -0.000244715               0.000737784               0.999999985              -0.000251993               0.000771667               0.999999985              -0.000257204               0.000805376               0.999999985              -0.000259363               0.000837531               0.999999985              -0.000258000               0.000867811               0.999999985              -0.000253395               0.000895602               0.999999985              -0.000246074               0.000921086               0.999999985              -0.000236540               0.000944859               0.999999985              -0.000225127               0.000967108               0.999999985              -0.000212306               0.000987895               0.999999985              -0.000198343               0.001007056               0.999999985              -0.000183582               0.001024761               0.999999985              -0.000282429               0.000850144               0.999999985              -0.000206591               0.000769862               0.999999985              -0.000187327               0.000748140               0.999999985              -0.000186768               0.000754951               0.999999985              -0.000192720               0.000775953               0.999999985              -0.000200360               0.000804190               0.999999985              -0.000207580               0.000835911               0.999999985              -0.000213257               0.000868778               0.999999985              -0.000216215               0.000901458               0.999999985              -0.000215910               0.000932817               0.999999985              -0.000212111               0.000962261               0.999999985              -0.000205087               0.000989634               0.999999985              -0.000195267               0.001015031               0.999999985              -0.000183097               0.001038901               0.999999985              -0.000169319               0.001061433               0.999999985              -0.000154743               0.001082758               0.999999985              -0.000139744               0.001102792               0.999999985              -0.000247257               0.000916457               0.999999985              -0.000170604               0.000851892               0.999999985              -0.000148413               0.000830213               0.999999985              -0.000145777               0.000832992               0.999999985              -0.000150355               0.000849867               0.999999985              -0.000157111               0.000874911               0.999999985              -0.000163850               0.000904561               0.999999985              -0.000169464               0.000936454               0.999999985              -0.000172919               0.000969246               0.999999985              -0.000173492               0.001001659               0.999999985              -0.000170683               0.001032542               0.999999985              -0.000164307               0.001061645               0.999999985              -0.000154571               0.001088867               0.999999985              -0.000141742               0.001114355               0.999999985              -0.000126542               0.001138398               0.999999985              -0.000109804               0.001161411               0.999999985              -0.000092251               0.001183675               0.999999985              -0.000209750               0.000974278               0.999999985              -0.000137306               0.000928164               0.999999985              -0.000113487               0.000910078               0.999999985              -0.000108647               0.000911478               0.999999985              -0.000111344               0.000925718               0.999999985              -0.000116728               0.000948247               0.999999985              -0.000122515               0.000976154               0.999999985              -0.000127545               0.001007254               0.999999985              -0.000131049               0.001040111               0.999999985              -0.000132199               0.001073441               0.999999985              -0.000130228               0.001106073               0.999999985              -0.000124711               0.001137247               0.999999985              -0.000115557               0.001166531               0.999999985              -0.000102706               0.001194115               0.999999985              -0.000086384               0.001220004               0.999999985              -0.000067107               0.001244578               0.999999985              -0.000045604               0.001268382               0.999999985              -0.000170290               0.001022711               0.999999985              -0.000106611               0.000995643               0.999999985              -0.000083139               0.000983861               0.999999985              -0.000076640               0.000986346               0.999999985              -0.000077407               0.000999734               0.999999985              -0.000081034               0.001020947               0.999999985              -0.000085506               0.001047680               0.999999985              -0.000089752               0.001078194               0.999999985              -0.000092792               0.001111272               0.999999985              -0.000093971               0.001145591               0.999999985              -0.000092721               0.001179939               0.999999985              -0.000088310               0.001213575               0.999999985              -0.000080182               0.001245752               0.999999985              -0.000067998               0.001276241               0.999999985              -0.000051631               0.001304946               0.999999985              -0.000030870               0.001332051               0.999999985              -0.000005582               0.001357958               0.999999985              -0.000129229               0.001061109               0.999999985              -0.000078113               0.001051492               0.999999985              -0.000057407               0.001047251               0.999999985              -0.000050439               0.001052570               0.999999985              -0.000049725               0.001066620               0.999999985              -0.000051710               0.001087681               0.999999985              -0.000054727               0.001114023               0.999999985              -0.000057821               0.001144470               0.999999985              -0.000060170               0.001178027               0.999999985              -0.000061178               0.001213360               0.999999985              -0.000060409               0.001249438               0.999999985              -0.000057095               0.001285487               0.999999985              -0.000050452               0.001320815               0.999999985              -0.000040062               0.001354860               0.999999985              -0.000025270               0.001387201               0.999999985              -0.000005298               0.001417910               0.999999985               0.000020798               0.001446993               0.999999985              -0.000086927               0.001088902               0.999999985              -0.000051251               0.001093260               0.999999985              -0.000035729               0.001096102               0.999999985              -0.000029811               0.001104800               0.999999985              -0.000028491               0.001120348               0.999999985              -0.000029363               0.001142033               0.999999985              -0.000031047               0.001168690               0.999999985              -0.000032887               0.001199451               0.999999985              -0.000034433               0.001233605               0.999999985              -0.000035196               0.001269977               0.999999985              -0.000034730               0.001307654               0.999999985              -0.000032375               0.001345945               0.999999985              -0.000027710               0.001384093               0.999999985              -0.000020100               0.001421610               0.999999985              -0.000008729               0.001457861               0.999999985               0.000007255               0.001492521               0.999999985               0.000029221               0.001525279               0.999999985              -0.000043717               0.001105748               0.999999985              -0.000025391               0.001119133               0.999999985              -0.000017043               0.001127004               0.999999985              -0.000013624               0.001138341               0.999999985              -0.000012670               0.001155231               0.999999985              -0.000012938               0.001177621               0.999999985              -0.000013652               0.001204784               0.999999985              -0.000014498               0.001236011               0.999999985              -0.000015229               0.001270699               0.999999985              -0.000015640               0.001307869               0.999999985              -0.000015364               0.001346715               0.999999985              -0.000014178               0.001386548               0.999999985              -0.000011711               0.001426753               0.999999985              -0.000007575               0.001466843               0.999999985              -0.000001503               0.001506105               0.999999985               0.000007392               0.001544013               0.999999985               0.000020112               0.001579862               0.999999985              -0.000000000               0.001111409               0.999999985              -0.000000000               0.001127907               0.999999985              -0.000000000               0.001137544               0.999999985              -0.000000000               0.001149840               0.999999985               0.000000000               0.001167343               0.999999985               0.000000000               0.001190094               0.999999985              -0.000000000               0.001217445               0.999999985               0.000000000               0.001248851               0.999999985               0.000000000               0.001283776               0.999999985               0.000000000               0.001321302               0.999999985              -0.000000000               0.001360570               0.999999985              -0.000000000               0.001400946               0.999999985               0.000000000               0.001441882               0.999999985               0.000000000               0.001482818               0.999999985               0.000000000               0.001523161               0.999999985              -0.000000000               0.001562296               0.999999985              -0.000000000               0.001599328               0.999999985              -0.000465403               0.000000000               0.999999985              -0.000508081               0.000000000               0.999999985              -0.000527543              -0.000000000               0.999999985              -0.000539092               0.000000000               0.999999985              -0.000548442               0.000000000               0.999999985              -0.000557669               0.000000000               0.999999985              -0.000567688              -0.000000000               0.999999985              -0.000578699               0.000000000               0.999999985              -0.000590742               0.000000000               0.999999985              -0.000603782               0.000000000               0.999999985              -0.000617504               0.000000000               0.999999985              -0.000631883               0.000000000               0.999999985              -0.000646759               0.000000000               0.999999985              -0.000661816               0.000000000               0.999999985              -0.000676747               0.000000000               0.999999985              -0.000691197               0.000000000               0.999999985              -0.000704708              -0.000000000               0.999999985              -0.000462687              -0.000108894               0.999999985              -0.000502513              -0.000090610               0.999999985              -0.000520271              -0.000083399               0.999999985              -0.000530775              -0.000081896               0.999999985              -0.000539449              -0.000083291               0.999999985              -0.000548239              -0.000086311               0.999999985              -0.000557881              -0.000090219               0.999999985              -0.000568612              -0.000094533               0.999999985              -0.000580328              -0.000098936               0.999999985              -0.000592821              -0.000103048               0.999999985              -0.000605927              -0.000106783               0.999999985              -0.000619596              -0.000110003               0.999999985              -0.000633598              -0.000112497               0.999999985              -0.000647699              -0.000113684               0.999999985              -0.000661602              -0.000113113               0.999999985              -0.000674955              -0.000110476               0.999999985              -0.000687364              -0.000105027               0.999999985              -0.000454727              -0.000216553               0.999999985              -0.000486202              -0.000180495               0.999999985              -0.000499049              -0.000166967               0.999999985              -0.000506702              -0.000164653               0.999999985              -0.000513609              -0.000168029               0.999999985              -0.000521346              -0.000174445               0.999999985              -0.000530232              -0.000182534               0.999999985              -0.000540170              -0.000191265               0.999999985              -0.000550894              -0.000199981               0.999999985              -0.000562211              -0.000208259               0.999999985              -0.000573855              -0.000215786               0.999999985              -0.000585622              -0.000222287               0.999999985              -0.000597322              -0.000227276               0.999999985              -0.000608683              -0.000230076               0.999999985              -0.000619558              -0.000230079               0.999999985              -0.000629791              -0.000226714               0.999999985              -0.000639232              -0.000218953               0.999999985              -0.000441587              -0.000321874               0.999999985              -0.000459958              -0.000269096               0.999999985              -0.000465741              -0.000250826               0.999999985              -0.000469686              -0.000248915               0.999999985              -0.000474642              -0.000255189               0.999999985              -0.000481218              -0.000265617               0.999999985              -0.000489176              -0.000278151               0.999999985              -0.000498151              -0.000291369               0.999999985              -0.000507664              -0.000304413               0.999999985              -0.000517339              -0.000316766               0.999999985              -0.000526853              -0.000328042               0.999999985              -0.000536060              -0.000337796               0.999999985              -0.000544689              -0.000345539               0.999999985              -0.000552510              -0.000350586               0.999999985              -0.000559434              -0.000352539               0.999999985              -0.000565584              -0.000351167               0.999999985              -0.000571336              -0.000345752               0.999999985              -0.000423584              -0.000423756               0.999999985              -0.000425351              -0.000356120               0.999999985              -0.000423427              -0.000335065               0.999999985              -0.000423909              -0.000334904               0.999999985              -0.000427380              -0.000344837               0.999999985              -0.000433161              -0.000359678               0.999999985              -0.000440456              -0.000376828               0.999999985              -0.000448485              -0.000394487               0.999999985              -0.000456614              -0.000411769               0.999999985              -0.000464356              -0.000428141               0.999999985              -0.000471512              -0.000443114               0.999999985              -0.000477747              -0.000456124               0.999999985              -0.000482872              -0.000466741               0.999999985              -0.000486882              -0.000474765               0.999999985              -0.000490091              -0.000480175               0.999999985              -0.000492811              -0.000483193               0.999999985              -0.000495394              -0.000483838               0.999999985              -0.000401365              -0.000521117               0.999999985              -0.000384487              -0.000441324               0.999999985              -0.000375491              -0.000419511               0.999999985              -0.000373696              -0.000422204               0.999999985              -0.000376651              -0.000436247               0.999999985              -0.000382238              -0.000455548               0.999999985              -0.000389109              -0.000477242               0.999999985              -0.000396293              -0.000499328               0.999999985              -0.000403177              -0.000520680               0.999999985              -0.000409161              -0.000540720               0.999999985              -0.000413881              -0.000558960               0.999999985              -0.000417181              -0.000575036               0.999999985              -0.000419222              -0.000588899               0.999999985              -0.000420224              -0.000600734               0.999999985              -0.000420552              -0.000610737               0.999999985              -0.000420421              -0.000619295               0.999999985              -0.000419904              -0.000626498               0.999999985              -0.000375265              -0.000613123               0.999999985              -0.000339462              -0.000524588               0.999999985              -0.000325275              -0.000503577               0.999999985              -0.000322803              -0.000509787               0.999999985              -0.000326215              -0.000528024               0.999999985              -0.000332188              -0.000551700               0.999999985              -0.000339067              -0.000577720               0.999999985              -0.000345732              -0.000603890               0.999999985              -0.000351402              -0.000629032               0.999999985              -0.000355525              -0.000652542               0.999999985              -0.000357900              -0.000673885               0.999999985              -0.000358598              -0.000693141               0.999999985              -0.000357658              -0.000710701               0.999999985              -0.000355482              -0.000726650               0.999999985              -0.000352338              -0.000741315               0.999999985              -0.000348262              -0.000754792               0.999999985              -0.000343054              -0.000766543               0.999999985              -0.000345921              -0.000698839               0.999999985              -0.000292588              -0.000605604               0.999999985              -0.000275603              -0.000586560               0.999999985              -0.000274193              -0.000596266               0.999999985              -0.000278941              -0.000618536               0.999999985              -0.000285855              -0.000646293               0.999999985              -0.000292945              -0.000676330               0.999999985              -0.000299097              -0.000706399               0.999999985              -0.000303347              -0.000735108               0.999999985              -0.000305260              -0.000761891               0.999999985              -0.000304695              -0.000786666               0.999999985              -0.000301757              -0.000809462               0.999999985              -0.000296990              -0.000830467               0.999999985              -0.000290710              -0.000850058               0.999999985              -0.000282968              -0.000868365               0.999999985              -0.000273825              -0.000885142               0.999999985              -0.000263183              -0.000900062               0.999999985              -0.000314454              -0.000776853               0.999999985              -0.000245368              -0.000684360               0.999999985              -0.000229093              -0.000667401               0.999999985              -0.000230006              -0.000680123               0.999999985              -0.000236731              -0.000706078               0.999999985              -0.000244715              -0.000737784               0.999999985              -0.000251993              -0.000771667               0.999999985              -0.000257204              -0.000805376               0.999999985              -0.000259363              -0.000837531               0.999999985              -0.000258000              -0.000867811               0.999999985              -0.000253395              -0.000895602               0.999999985              -0.000246074              -0.000921086               0.999999985              -0.000236540              -0.000944859               0.999999985              -0.000225127              -0.000967108               0.999999985              -0.000212306              -0.000987895               0.999999985              -0.000198343              -0.001007056               0.999999985              -0.000183582              -0.001024761               0.999999985              -0.000282429              -0.000850144               0.999999985              -0.000206591              -0.000769862               0.999999985              -0.000187327              -0.000748140               0.999999985              -0.000186768              -0.000754951               0.999999985              -0.000192720              -0.000775953               0.999999985              -0.000200360              -0.000804190               0.999999985              -0.000207580              -0.000835911               0.999999985              -0.000213257              -0.000868778               0.999999985              -0.000216215              -0.000901458               0.999999985              -0.000215910              -0.000932817               0.999999985              -0.000212111              -0.000962261               0.999999985              -0.000205087              -0.000989634               0.999999985              -0.000195267              -0.001015031               0.999999985              -0.000183097              -0.001038901               0.999999985              -0.000169319              -0.001061433               0.999999985              -0.000154743              -0.001082758               0.999999985              -0.000139744              -0.001102792               0.999999985              -0.000247257              -0.000916457               0.999999985              -0.000170604              -0.000851892               0.999999985              -0.000148413              -0.000830213               0.999999985              -0.000145777              -0.000832992               0.999999985              -0.000150355              -0.000849867               0.999999985              -0.000157111              -0.000874911               0.999999985              -0.000163850              -0.000904561               0.999999985              -0.000169464              -0.000936454               0.999999985              -0.000172919              -0.000969246               0.999999985              -0.000173492              -0.001001659               0.999999985              -0.000170683              -0.001032542               0.999999985              -0.000164307              -0.001061645               0.999999985              -0.000154571              -0.001088867               0.999999985              -0.000141742              -0.001114355               0.999999985              -0.000126542              -0.001138398               0.999999985              -0.000109804              -0.001161411               0.999999985              -0.000092251              -0.001183675               0.999999985              -0.000209750              -0.000974278               0.999999985              -0.000137306              -0.000928164               0.999999985              -0.000113487              -0.000910078               0.999999985              -0.000108647              -0.000911478               0.999999985              -0.000111344              -0.000925718               0.999999985              -0.000116728              -0.000948247               0.999999985              -0.000122515              -0.000976154               0.999999985              -0.000127545              -0.001007254               0.999999985              -0.000131049              -0.001040111               0.999999985              -0.000132199              -0.001073441               0.999999985              -0.000130228              -0.001106073               0.999999985              -0.000124711              -0.001137247               0.999999985              -0.000115557              -0.001166531               0.999999985              -0.000102706              -0.001194115               0.999999985              -0.000086384              -0.001220004               0.999999985              -0.000067107              -0.001244578               0.999999985              -0.000045604              -0.001268382               0.999999985              -0.000170290              -0.001022711               0.999999985              -0.000106611              -0.000995643               0.999999985              -0.000083139              -0.000983861               0.999999985              -0.000076640              -0.000986346               0.999999985              -0.000077407              -0.000999734               0.999999985              -0.000081034              -0.001020947               0.999999985              -0.000085506              -0.001047680               0.999999985              -0.000089752              -0.001078194               0.999999985              -0.000092792              -0.001111272               0.999999985              -0.000093971              -0.001145591               0.999999985              -0.000092721              -0.001179939               0.999999985              -0.000088310              -0.001213575               0.999999985              -0.000080182              -0.001245752               0.999999985              -0.000067998              -0.001276241               0.999999985              -0.000051631              -0.001304946               0.999999985              -0.000030870              -0.001332051               0.999999985              -0.000005582              -0.001357958               0.999999985              -0.000129229              -0.001061109               0.999999985              -0.000078113              -0.001051492               0.999999985              -0.000057407              -0.001047251               0.999999985              -0.000050439              -0.001052570               0.999999985              -0.000049725              -0.001066620               0.999999985              -0.000051710              -0.001087681               0.999999985              -0.000054727              -0.001114023               0.999999985              -0.000057821              -0.001144470               0.999999985              -0.000060170              -0.001178027               0.999999985              -0.000061178              -0.001213360               0.999999985              -0.000060409              -0.001249438               0.999999985              -0.000057095              -0.001285487               0.999999985              -0.000050452              -0.001320815               0.999999985              -0.000040062              -0.001354860               0.999999985              -0.000025270              -0.001387201               0.999999985              -0.000005298              -0.001417910               0.999999985               0.000020798              -0.001446993               0.999999985              -0.000086927              -0.001088902               0.999999985              -0.000051251              -0.001093260               0.999999985              -0.000035729              -0.001096102               0.999999985              -0.000029811              -0.001104800               0.999999985              -0.000028491              -0.001120348               0.999999985              -0.000029363              -0.001142033               0.999999985              -0.000031047              -0.001168690               0.999999985              -0.000032887              -0.001199451               0.999999985              -0.000034433              -0.001233605               0.999999985              -0.000035196              -0.001269977               0.999999985              -0.000034730              -0.001307654               0.999999985              -0.000032375              -0.001345945               0.999999985              -0.000027710              -0.001384093               0.999999985              -0.000020100              -0.001421610               0.999999985              -0.000008729              -0.001457861               0.999999985               0.000007255              -0.001492521               0.999999985               0.000029221              -0.001525279               0.999999985              -0.000043717              -0.001105748               0.999999985              -0.000025391              -0.001119133               0.999999985              -0.000017043              -0.001127004               0.999999985              -0.000013624              -0.001138341               0.999999985              -0.000012670              -0.001155231               0.999999985              -0.000012938              -0.001177621               0.999999985              -0.000013652              -0.001204784               0.999999985              -0.000014498              -0.001236011               0.999999985              -0.000015229              -0.001270699               0.999999985              -0.000015640              -0.001307869               0.999999985              -0.000015364              -0.001346715               0.999999985              -0.000014178              -0.001386548               0.999999985              -0.000011711              -0.001426753               0.999999985              -0.000007575              -0.001466843               0.999999985              -0.000001503              -0.001506105               0.999999985               0.000007392              -0.001544013               0.999999985               0.000020112              -0.001579862               0.999999985               0.000000000              -0.001111409               0.999999985               0.000000000              -0.001127907               0.999999985               0.000000000              -0.001137544               0.999999985              -0.000000000              -0.001149840               0.999999985               0.000000000              -0.001167343               0.999999985               0.000000000              -0.001190094               0.999999985              -0.000000000              -0.001217445               0.999999985               0.000000000              -0.001248851               0.999999985              -0.000000000              -0.001283776               0.999999985              -0.000000000              -0.001321302               0.999999985              -0.000000000              -0.001360570               0.999999985               0.000000000              -0.001400946               0.999999985              -0.000000000              -0.001441882               0.999999985              -0.000000000              -0.001482818               0.999999985              -0.000000000              -0.001523161               0.999999985               0.000000000              -0.001562296               0.999999985               0.000000000              -0.001599328               0.999999985               0.000465403               0.000000000               0.999999985               0.000508081               0.000000000               0.999999985               0.000527543               0.000000000               0.999999985               0.000539092              -0.000000000               0.999999985               0.000548442               0.000000000               0.999999985               0.000557669              -0.000000000               0.999999985               0.000567688              -0.000000000               0.999999985               0.000578699               0.000000000               0.999999985               0.000590742              -0.000000000               0.999999985               0.000603782               0.000000000               0.999999985               0.000617504               0.000000000               0.999999985               0.000631883              -0.000000000               0.999999985               0.000646759               0.000000000               0.999999985               0.000661816              -0.000000000               0.999999985               0.000676747              -0.000000000               0.999999985               0.000691197              -0.000000000               0.999999985               0.000704708               0.000000000               0.999999985               0.000462687              -0.000108894               0.999999985               0.000502513              -0.000090610               0.999999985               0.000520271              -0.000083399               0.999999985               0.000530775              -0.000081896               0.999999985               0.000539449              -0.000083291               0.999999985               0.000548239              -0.000086311               0.999999985               0.000557881              -0.000090219               0.999999985               0.000568612              -0.000094533               0.999999985               0.000580328              -0.000098936               0.999999985               0.000592821              -0.000103048               0.999999985               0.000605927              -0.000106783               0.999999985               0.000619596              -0.000110003               0.999999985               0.000633598              -0.000112497               0.999999985               0.000647699              -0.000113684               0.999999985               0.000661602              -0.000113113               0.999999985               0.000674955              -0.000110476               0.999999985               0.000687364              -0.000105027               0.999999985               0.000454727              -0.000216553               0.999999985               0.000486202              -0.000180495               0.999999985               0.000499049              -0.000166967               0.999999985               0.000506702              -0.000164653               0.999999985               0.000513609              -0.000168029               0.999999985               0.000521346              -0.000174445               0.999999985               0.000530232              -0.000182534               0.999999985               0.000540170              -0.000191265               0.999999985               0.000550894              -0.000199981               0.999999985               0.000562211              -0.000208259               0.999999985               0.000573855              -0.000215786               0.999999985               0.000585622              -0.000222287               0.999999985               0.000597322              -0.000227276               0.999999985               0.000608683              -0.000230076               0.999999985               0.000619558              -0.000230079               0.999999985               0.000629791              -0.000226714               0.999999985               0.000639232              -0.000218953               0.999999985               0.000441587              -0.000321874               0.999999985               0.000459958              -0.000269096               0.999999985               0.000465741              -0.000250826               0.999999985               0.000469686              -0.000248915               0.999999985               0.000474642              -0.000255189               0.999999985               0.000481218              -0.000265617               0.999999985               0.000489176              -0.000278151               0.999999985               0.000498151              -0.000291369               0.999999985               0.000507664              -0.000304413               0.999999985               0.000517339              -0.000316766               0.999999985               0.000526853              -0.000328042               0.999999985               0.000536060              -0.000337796               0.999999985               0.000544689              -0.000345539               0.999999985               0.000552510              -0.000350586               0.999999985               0.000559434              -0.000352539               0.999999985               0.000565584              -0.000351167               0.999999985               0.000571336              -0.000345752               0.999999985               0.000423584              -0.000423756               0.999999985               0.000425351              -0.000356120               0.999999985               0.000423427              -0.000335065               0.999999985               0.000423909              -0.000334904               0.999999985               0.000427380              -0.000344837               0.999999985               0.000433161              -0.000359678               0.999999985               0.000440456              -0.000376828               0.999999985               0.000448485              -0.000394487               0.999999985               0.000456614              -0.000411769               0.999999985               0.000464356              -0.000428141               0.999999985               0.000471512              -0.000443114               0.999999985               0.000477747              -0.000456124               0.999999985               0.000482872              -0.000466741               0.999999985               0.000486882              -0.000474765               0.999999985               0.000490091              -0.000480175               0.999999985               0.000492811              -0.000483193               0.999999985               0.000495394              -0.000483838               0.999999985               0.000401365              -0.000521117               0.999999985               0.000384487              -0.000441324               0.999999985               0.000375491              -0.000419511               0.999999985               0.000373696              -0.000422204               0.999999985               0.000376651              -0.000436247               0.999999985               0.000382238              -0.000455548               0.999999985               0.000389109              -0.000477242               0.999999985               0.000396293              -0.000499328               0.999999985               0.000403177              -0.000520680               0.999999985               0.000409161              -0.000540720               0.999999985               0.000413881              -0.000558960               0.999999985               0.000417181              -0.000575036               0.999999985               0.000419222              -0.000588899               0.999999985               0.000420224              -0.000600734               0.999999985               0.000420552              -0.000610737               0.999999985               0.000420421              -0.000619295               0.999999985               0.000419904              -0.000626498               0.999999985               0.000375265              -0.000613123               0.999999985               0.000339462              -0.000524588               0.999999985               0.000325275              -0.000503577               0.999999985               0.000322803              -0.000509787               0.999999985               0.000326215              -0.000528024               0.999999985               0.000332188              -0.000551700               0.999999985               0.000339067              -0.000577720               0.999999985               0.000345732              -0.000603890               0.999999985               0.000351402              -0.000629032               0.999999985               0.000355525              -0.000652542               0.999999985               0.000357900              -0.000673885               0.999999985               0.000358598              -0.000693141               0.999999985               0.000357658              -0.000710701               0.999999985               0.000355482              -0.000726650               0.999999985               0.000352338              -0.000741315               0.999999985               0.000348262              -0.000754792               0.999999985               0.000343054              -0.000766543               0.999999985               0.000345921              -0.000698839               0.999999985               0.000292588              -0.000605604               0.999999985               0.000275603              -0.000586560               0.999999985               0.000274193              -0.000596266               0.999999985               0.000278941              -0.000618536               0.999999985               0.000285855              -0.000646293               0.999999985               0.000292945              -0.000676330               0.999999985               0.000299097              -0.000706399               0.999999985               0.000303347              -0.000735108               0.999999985               0.000305260              -0.000761891               0.999999985               0.000304695              -0.000786666               0.999999985               0.000301757              -0.000809462               0.999999985               0.000296990              -0.000830467               0.999999985               0.000290710              -0.000850058               0.999999985               0.000282968              -0.000868365               0.999999985               0.000273825              -0.000885142               0.999999985               0.000263183              -0.000900062               0.999999985               0.000314454              -0.000776853               0.999999985               0.000245368              -0.000684360               0.999999985               0.000229093              -0.000667401               0.999999985               0.000230006              -0.000680123               0.999999985               0.000236731              -0.000706078               0.999999985               0.000244715              -0.000737784               0.999999985               0.000251993              -0.000771667               0.999999985               0.000257204              -0.000805376               0.999999985               0.000259363              -0.000837531               0.999999985               0.000258000              -0.000867811               0.999999985               0.000253395              -0.000895602               0.999999985               0.000246074              -0.000921086               0.999999985               0.000236540              -0.000944859               0.999999985               0.000225127              -0.000967108               0.999999985               0.000212306              -0.000987895               0.999999985               0.000198343              -0.001007056               0.999999985               0.000183582              -0.001024761               0.999999985               0.000282429              -0.000850144               0.999999985               0.000206591              -0.000769862               0.999999985               0.000187327              -0.000748140               0.999999985               0.000186768              -0.000754951               0.999999985               0.000192720              -0.000775953               0.999999985               0.000200360              -0.000804190               0.999999985               0.000207580              -0.000835911               0.999999985               0.000213257              -0.000868778               0.999999985               0.000216215              -0.000901458               0.999999985               0.000215910              -0.000932817               0.999999985               0.000212111              -0.000962261               0.999999985               0.000205087              -0.000989634               0.999999985               0.000195267              -0.001015031               0.999999985               0.000183097              -0.001038901               0.999999985               0.000169319              -0.001061433               0.999999985               0.000154743              -0.001082758               0.999999985               0.000139744              -0.001102792               0.999999985               0.000247257              -0.000916457               0.999999985               0.000170604              -0.000851892               0.999999985               0.000148413              -0.000830213               0.999999985               0.000145777              -0.000832992               0.999999985               0.000150355              -0.000849867               0.999999985               0.000157111              -0.000874911               0.999999985               0.000163850              -0.000904561               0.999999985               0.000169464              -0.000936454               0.999999985               0.000172919              -0.000969246               0.999999985               0.000173492              -0.001001659               0.999999985               0.000170683              -0.001032542               0.999999985               0.000164307              -0.001061645               0.999999985               0.000154571              -0.001088867               0.999999985               0.000141742              -0.001114355               0.999999985               0.000126542              -0.001138398               0.999999985               0.000109804              -0.001161411               0.999999985               0.000092251              -0.001183675               0.999999985               0.000209750              -0.000974278               0.999999985               0.000137306              -0.000928164               0.999999985               0.000113487              -0.000910078               0.999999985               0.000108647              -0.000911478               0.999999985               0.000111344              -0.000925718               0.999999985               0.000116728              -0.000948247               0.999999985               0.000122515              -0.000976154               0.999999985               0.000127545              -0.001007254               0.999999985               0.000131049              -0.001040111               0.999999985               0.000132199              -0.001073441               0.999999985               0.000130228              -0.001106073               0.999999985               0.000124711              -0.001137247               0.999999985               0.000115557              -0.001166531               0.999999985               0.000102706              -0.001194115               0.999999985               0.000086384              -0.001220004               0.999999985               0.000067107              -0.001244578               0.999999985               0.000045604              -0.001268382               0.999999985               0.000170290              -0.001022711               0.999999985               0.000106611              -0.000995643               0.999999985               0.000083139              -0.000983861               0.999999985               0.000076640              -0.000986346               0.999999985               0.000077407              -0.000999734               0.999999985               0.000081034              -0.001020947               0.999999985               0.000085506              -0.001047680               0.999999985               0.000089752              -0.001078194               0.999999985               0.000092792              -0.001111272               0.999999985               0.000093971              -0.001145591               0.999999985               0.000092721              -0.001179939               0.999999985               0.000088310              -0.001213575               0.999999985               0.000080182              -0.001245752               0.999999985               0.000067998              -0.001276241               0.999999985               0.000051631              -0.001304946               0.999999985               0.000030870              -0.001332051               0.999999985               0.000005582              -0.001357958               0.999999985               0.000129229              -0.001061109               0.999999985               0.000078113              -0.001051492               0.999999985               0.000057407              -0.001047251               0.999999985               0.000050439              -0.001052570               0.999999985               0.000049725              -0.001066620               0.999999985               0.000051710              -0.001087681               0.999999985               0.000054727              -0.001114023               0.999999985               0.000057821              -0.001144470               0.999999985               0.000060170              -0.001178027               0.999999985               0.000061178              -0.001213360               0.999999985               0.000060409              -0.001249438               0.999999985               0.000057095              -0.001285487               0.999999985               0.000050452              -0.001320815               0.999999985               0.000040062              -0.001354860               0.999999985               0.000025270              -0.001387201               0.999999985               0.000005298              -0.001417910               0.999999985              -0.000020798              -0.001446993               0.999999985               0.000086927              -0.001088902               0.999999985               0.000051251              -0.001093260               0.999999985               0.000035729              -0.001096102               0.999999985               0.000029811              -0.001104800               0.999999985               0.000028491              -0.001120348               0.999999985               0.000029363              -0.001142033               0.999999985               0.000031047              -0.001168690               0.999999985               0.000032887              -0.001199451               0.999999985               0.000034433              -0.001233605               0.999999985               0.000035196              -0.001269977               0.999999985               0.000034730              -0.001307654               0.999999985               0.000032375              -0.001345945               0.999999985               0.000027710              -0.001384093               0.999999985               0.000020100              -0.001421610               0.999999985               0.000008729              -0.001457861               0.999999985              -0.000007255              -0.001492521               0.999999985              -0.000029221              -0.001525279               0.999999985               0.000043717              -0.001105748               0.999999985               0.000025391              -0.001119133               0.999999985               0.000017043              -0.001127004               0.999999985               0.000013624              -0.001138341               0.999999985               0.000012670              -0.001155231               0.999999985               0.000012938              -0.001177621               0.999999985               0.000013652              -0.001204784               0.999999985               0.000014498              -0.001236011               0.999999985               0.000015229              -0.001270699               0.999999985               0.000015640              -0.001307869               0.999999985               0.000015364              -0.001346715               0.999999985               0.000014178              -0.001386548               0.999999985               0.000011711              -0.001426753               0.999999985               0.000007575              -0.001466843               0.999999985               0.000001503              -0.001506105               0.999999985              -0.000007392              -0.001544013               0.999999985              -0.000020112              -0.001579862               0.999999985               0.000000000              -0.001111409               0.999999985               0.000000000              -0.001127907               0.999999985               0.000000000              -0.001137544               0.999999985              -0.000000000              -0.001149840               0.999999985               0.000000000              -0.001167343               0.999999985               0.000000000              -0.001190094               0.999999985              -0.000000000              -0.001217445               0.999999985               0.000000000              -0.001248851               0.999999985              -0.000000000              -0.001283776               0.999999985              -0.000000000              -0.001321302               0.999999985              -0.000000000              -0.001360570               0.999999985               0.000000000              -0.001400946               0.999999985              -0.000000000              -0.001441882               0.999999985              -0.000000000              -0.001482818               0.999999985              -0.000000000              -0.001523161               0.999999985               0.000000000              -0.001562296               0.999999985               0.000000000              -0.001599328               0.999999985               0.000465403               0.000000000               0.999999985               0.000508081               0.000000000               0.999999985               0.000527543               0.000000000               0.999999985               0.000539092              -0.000000000               0.999999985               0.000548442               0.000000000               0.999999985               0.000557669              -0.000000000               0.999999985               0.000567688              -0.000000000               0.999999985               0.000578699               0.000000000               0.999999985               0.000590742              -0.000000000               0.999999985               0.000603782               0.000000000               0.999999985               0.000617504               0.000000000               0.999999985               0.000631883              -0.000000000               0.999999985               0.000646759               0.000000000               0.999999985               0.000661816              -0.000000000               0.999999985               0.000676747              -0.000000000               0.999999985               0.000691197              -0.000000000               0.999999985               0.000704708               0.000000000               0.999999985               0.000462687               0.000108894               0.999999985               0.000502513               0.000090610               0.999999985               0.000520271               0.000083399               0.999999985               0.000530775               0.000081896               0.999999985               0.000539449               0.000083291               0.999999985               0.000548239               0.000086311               0.999999985               0.000557881               0.000090219               0.999999985               0.000568612               0.000094533               0.999999985               0.000580328               0.000098936               0.999999985               0.000592821               0.000103048               0.999999985               0.000605927               0.000106783               0.999999985               0.000619596               0.000110003               0.999999985               0.000633598               0.000112497               0.999999985               0.000647699               0.000113684               0.999999985               0.000661602               0.000113113               0.999999985               0.000674955               0.000110476               0.999999985               0.000687364               0.000105027               0.999999985               0.000454727               0.000216553               0.999999985               0.000486202               0.000180495               0.999999985               0.000499049               0.000166967               0.999999985               0.000506702               0.000164653               0.999999985               0.000513609               0.000168029               0.999999985               0.000521346               0.000174445               0.999999985               0.000530232               0.000182534               0.999999985               0.000540170               0.000191265               0.999999985               0.000550894               0.000199981               0.999999985               0.000562211               0.000208259               0.999999985               0.000573855               0.000215786               0.999999985               0.000585622               0.000222287               0.999999985               0.000597322               0.000227276               0.999999985               0.000608683               0.000230076               0.999999985               0.000619558               0.000230079               0.999999985               0.000629791               0.000226714               0.999999985               0.000639232               0.000218953               0.999999985               0.000441587               0.000321874               0.999999985               0.000459958               0.000269096               0.999999985               0.000465741               0.000250826               0.999999985               0.000469686               0.000248915               0.999999985               0.000474642               0.000255189               0.999999985               0.000481218               0.000265617               0.999999985               0.000489176               0.000278151               0.999999985               0.000498151               0.000291369               0.999999985               0.000507664               0.000304413               0.999999985               0.000517339               0.000316766               0.999999985               0.000526853               0.000328042               0.999999985               0.000536060               0.000337796               0.999999985               0.000544689               0.000345539               0.999999985               0.000552510               0.000350586               0.999999985               0.000559434               0.000352539               0.999999985               0.000565584               0.000351167               0.999999985               0.000571336               0.000345752               0.999999985               0.000423584               0.000423756               0.999999985               0.000425351               0.000356120               0.999999985               0.000423427               0.000335065               0.999999985               0.000423909               0.000334904               0.999999985               0.000427380               0.000344837               0.999999985               0.000433161               0.000359678               0.999999985               0.000440456               0.000376828               0.999999985               0.000448485               0.000394487               0.999999985               0.000456614               0.000411769               0.999999985               0.000464356               0.000428141               0.999999985               0.000471512               0.000443114               0.999999985               0.000477747               0.000456124               0.999999985               0.000482872               0.000466741               0.999999985               0.000486882               0.000474765               0.999999985               0.000490091               0.000480175               0.999999985               0.000492811               0.000483193               0.999999985               0.000495394               0.000483838               0.999999985               0.000401365               0.000521117               0.999999985               0.000384487               0.000441324               0.999999985               0.000375491               0.000419511               0.999999985               0.000373696               0.000422204               0.999999985               0.000376651               0.000436247               0.999999985               0.000382238               0.000455548               0.999999985               0.000389109               0.000477242               0.999999985               0.000396293               0.000499328               0.999999985               0.000403177               0.000520680               0.999999985               0.000409161               0.000540720               0.999999985               0.000413881               0.000558960               0.999999985               0.000417181               0.000575036               0.999999985               0.000419222               0.000588899               0.999999985               0.000420224               0.000600734               0.999999985               0.000420552               0.000610737               0.999999985               0.000420421               0.000619295               0.999999985               0.000419904               0.000626498               0.999999985               0.000375265               0.000613123               0.999999985               0.000339462               0.000524588               0.999999985               0.000325275               0.000503577               0.999999985               0.000322803               0.000509787               0.999999985               0.000326215               0.000528024               0.999999985               0.000332188               0.000551700               0.999999985               0.000339067               0.000577720               0.999999985               0.000345732               0.000603890               0.999999985               0.000351402               0.000629032               0.999999985               0.000355525               0.000652542               0.999999985               0.000357900               0.000673885               0.999999985               0.000358598               0.000693141               0.999999985               0.000357658               0.000710701               0.999999985               0.000355482               0.000726650               0.999999985               0.000352338               0.000741315               0.999999985               0.000348262               0.000754792               0.999999985               0.000343054               0.000766543               0.999999985               0.000345921               0.000698839               0.999999985               0.000292588               0.000605604               0.999999985               0.000275603               0.000586560               0.999999985               0.000274193               0.000596266               0.999999985               0.000278941               0.000618536               0.999999985               0.000285855               0.000646293               0.999999985               0.000292945               0.000676330               0.999999985               0.000299097               0.000706399               0.999999985               0.000303347               0.000735108               0.999999985               0.000305260               0.000761891               0.999999985               0.000304695               0.000786666               0.999999985               0.000301757               0.000809462               0.999999985               0.000296990               0.000830467               0.999999985               0.000290710               0.000850058               0.999999985               0.000282968               0.000868365               0.999999985               0.000273825               0.000885142               0.999999985               0.000263183               0.000900062               0.999999985               0.000314454               0.000776853               0.999999985               0.000245368               0.000684360               0.999999985               0.000229093               0.000667401               0.999999985               0.000230006               0.000680123               0.999999985               0.000236731               0.000706078               0.999999985               0.000244715               0.000737784               0.999999985               0.000251993               0.000771667               0.999999985               0.000257204               0.000805376               0.999999985               0.000259363               0.000837531               0.999999985               0.000258000               0.000867811               0.999999985               0.000253395               0.000895602               0.999999985               0.000246074               0.000921086               0.999999985               0.000236540               0.000944859               0.999999985               0.000225127               0.000967108               0.999999985               0.000212306               0.000987895               0.999999985               0.000198343               0.001007056               0.999999985               0.000183582               0.001024761               0.999999985               0.000282429               0.000850144               0.999999985               0.000206591               0.000769862               0.999999985               0.000187327               0.000748140               0.999999985               0.000186768               0.000754951               0.999999985               0.000192720               0.000775953               0.999999985               0.000200360               0.000804190               0.999999985               0.000207580               0.000835911               0.999999985               0.000213257               0.000868778               0.999999985               0.000216215               0.000901458               0.999999985               0.000215910               0.000932817               0.999999985               0.000212111               0.000962261               0.999999985               0.000205087               0.000989634               0.999999985               0.000195267               0.001015031               0.999999985               0.000183097               0.001038901               0.999999985               0.000169319               0.001061433               0.999999985               0.000154743               0.001082758               0.999999985               0.000139744               0.001102792               0.999999985               0.000247257               0.000916457               0.999999985               0.000170604               0.000851892               0.999999985               0.000148413               0.000830213               0.999999985               0.000145777               0.000832992               0.999999985               0.000150355               0.000849867               0.999999985               0.000157111               0.000874911               0.999999985               0.000163850               0.000904561               0.999999985               0.000169464               0.000936454               0.999999985               0.000172919               0.000969246               0.999999985               0.000173492               0.001001659               0.999999985               0.000170683               0.001032542               0.999999985               0.000164307               0.001061645               0.999999985               0.000154571               0.001088867               0.999999985               0.000141742               0.001114355               0.999999985               0.000126542               0.001138398               0.999999985               0.000109804               0.001161411               0.999999985               0.000092251               0.001183675               0.999999985               0.000209750               0.000974278               0.999999985               0.000137306               0.000928164               0.999999985               0.000113487               0.000910078               0.999999985               0.000108647               0.000911478               0.999999985               0.000111344               0.000925718               0.999999985               0.000116728               0.000948247               0.999999985               0.000122515               0.000976154               0.999999985               0.000127545               0.001007254               0.999999985               0.000131049               0.001040111               0.999999985               0.000132199               0.001073441               0.999999985               0.000130228               0.001106073               0.999999985               0.000124711               0.001137247               0.999999985               0.000115557               0.001166531               0.999999985               0.000102706               0.001194115               0.999999985               0.000086384               0.001220004               0.999999985               0.000067107               0.001244578               0.999999985               0.000045604               0.001268382               0.999999985               0.000170290               0.001022711               0.999999985               0.000106611               0.000995643               0.999999985               0.000083139               0.000983861               0.999999985               0.000076640               0.000986346               0.999999985               0.000077407               0.000999734               0.999999985               0.000081034               0.001020947               0.999999985               0.000085506               0.001047680               0.999999985               0.000089752               0.001078194               0.999999985               0.000092792               0.001111272               0.999999985               0.000093971               0.001145591               0.999999985               0.000092721               0.001179939               0.999999985               0.000088310               0.001213575               0.999999985               0.000080182               0.001245752               0.999999985               0.000067998               0.001276241               0.999999985               0.000051631               0.001304946               0.999999985               0.000030870               0.001332051               0.999999985               0.000005582               0.001357958               0.999999985               0.000129229               0.001061109               0.999999985               0.000078113               0.001051492               0.999999985               0.000057407               0.001047251               0.999999985               0.000050439               0.001052570               0.999999985               0.000049725               0.001066620               0.999999985               0.000051710               0.001087681               0.999999985               0.000054727               0.001114023               0.999999985               0.000057821               0.001144470               0.999999985               0.000060170               0.001178027               0.999999985               0.000061178               0.001213360               0.999999985               0.000060409               0.001249438               0.999999985               0.000057095               0.001285487               0.999999985               0.000050452               0.001320815               0.999999985               0.000040062               0.001354860               0.999999985               0.000025270               0.001387201               0.999999985               0.000005298               0.001417910               0.999999985              -0.000020798               0.001446993               0.999999985               0.000086927               0.001088902               0.999999985               0.000051251               0.001093260               0.999999985               0.000035729               0.001096102               0.999999985               0.000029811               0.001104800               0.999999985               0.000028491               0.001120348               0.999999985               0.000029363               0.001142033               0.999999985               0.000031047               0.001168690               0.999999985               0.000032887               0.001199451               0.999999985               0.000034433               0.001233605               0.999999985               0.000035196               0.001269977               0.999999985               0.000034730               0.001307654               0.999999985               0.000032375               0.001345945               0.999999985               0.000027710               0.001384093               0.999999985               0.000020100               0.001421610               0.999999985               0.000008729               0.001457861               0.999999985              -0.000007255               0.001492521               0.999999985              -0.000029221               0.001525279               0.999999985               0.000043717               0.001105748               0.999999985               0.000025391               0.001119133               0.999999985               0.000017043               0.001127004               0.999999985               0.000013624               0.001138341               0.999999985               0.000012670               0.001155231               0.999999985               0.000012938               0.001177621               0.999999985               0.000013652               0.001204784               0.999999985               0.000014498               0.001236011               0.999999985               0.000015229               0.001270699               0.999999985               0.000015640               0.001307869               0.999999985               0.000015364               0.001346715               0.999999985               0.000014178               0.001386548               0.999999985               0.000011711               0.001426753               0.999999985               0.000007575               0.001466843               0.999999985               0.000001503               0.001506105               0.999999985              -0.000007392               0.001544013               0.999999985              -0.000020112               0.001579862               0.999999985              -0.000000000               0.001111409               0.999999985              -0.000000000               0.001127907               0.999999985              -0.000000000               0.001137544               0.999999985              -0.000000000               0.001149840               0.999999985               0.000000000               0.001167343               0.999999985               0.000000000               0.001190094               0.999999985              -0.000000000               0.001217445               0.999999985               0.000000000               0.001248851               0.999999985               0.000000000               0.001283776               0.999999985               0.000000000               0.001321302               0.999999985              -0.000000000               0.001360570               0.999999985              -0.000000000               0.001400946               0.999999985               0.000000000               0.001441882               0.999999985               0.000000000               0.001482818               0.999999985               0.000000000               0.001523161               0.999999985              -0.000000000               0.001562296               0.999999985              -0.000000000               0.001599328               0.999999985 </DataArray>
<DataArray type="Float64"                                    Name="stress"                                                      NumberOfComponents="10" format="ascii">
              0.001803061               0.020018606              -0.000000000              -0.001826173               0.007281526               0.005455353               0.000000000               0.000000000               0.000000000               0.000000000               0.001811153               0.015846940              -0.000000000              -0.001301682               0.005716154               0.004414473               0.000000000               0.000000000               0.000000000               0.000000000               0.002393742               0.012481270               0.000000000              -0.000662504               0.004381216               0.003718713               0.000000000               0.000000000               0.000000000               0.000000000               0.002317921               0.010608606               0.000000000              -0.000456854               0.003688451               0.003231597               0.000000000               0.000000000               0.000000000               0.000000000               0.002051179               0.009450107               0.000000000              -0.000412070               0.003287361               0.002875291               0.000000000               0.000000000               0.000000000               0.000000000               0.001747330               0.008670489              -0.000000000              -0.000428561               0.003032988               0.002604426               0.000000000               0.000000000               0.000000000               0.000000000               0.001454379               0.008105253              -0.000000000              -0.000467763               0.002857645               0.002389882               0.000000000               0.000000000               0.000000000               0.000000000               0.001191957               0.007666554               0.000000000              -0.000511334               0.002725937               0.002214603               0.000000000               0.000000000               0.000000000               0.000000000               0.000959216               0.007300637               0.000000000              -0.000552872               0.002617812               0.002064940               0.000000000               0.000000000               0.000000000               0.000000000               0.000759650               0.006973486               0.000000000              -0.000586816               0.002520077               0.001933262               0.000000000               0.000000000               0.000000000               0.000000000               0.000583582               0.006667417              -0.000000000              -0.000614582               0.002427311               0.001812728               0.000000000               0.000000000               0.000000000               0.000000000               0.000422484               0.006368946               0.000000000              -0.000637685               0.002335522               0.001697837               0.000000000               0.000000000               0.000000000               0.000000000               0.000287583               0.006067487              -0.000000000              -0.000650591               0.002239339               0.001588748               0.000000000               0.000000000               0.000000000               0.000000000               0.000178115               0.005739915              -0.000000000              -0.000650695               0.002130184               0.001479489               0.000000000               0.000000000               0.000000000               0.000000000               0.000092764               0.005370260              -0.000000000              -0.000636494               0.002002233               0.001365739               0.000000000               0.000000000               0.000000000               0.000000000               0.000036424               0.004949848              -0.000000000              -0.000605071               0.001851623               0.001246553               0.000000000               0.000000000               0.000000000               0.000000000              -0.000017087               0.004629341               0.000000000              -0.000585074               0.001738123               0.001153049               0.000000000               0.000000000               0.000000000               0.000000000               0.001873517               0.019610897              -0.001384451              -0.001748789               0.007119830               0.005371041               0.000000000               0.000000000               0.000000000               0.000000000               0.001783450               0.015579374              -0.000726977              -0.001278625               0.005619281               0.004340656               0.000000000               0.000000000               0.000000000               0.000000000               0.002263203               0.012361296              -0.000070917              -0.000696459               0.004352544               0.003656085               0.000000000               0.000000000               0.000000000               0.000000000               0.002150762               0.010564674               0.000206471              -0.000514047               0.003692872               0.003178824               0.000000000               0.000000000               0.000000000               0.000000000               0.001874910               0.009447224               0.000320908              -0.000477811               0.003308314               0.002830503               0.000000000               0.000000000               0.000000000               0.000000000               0.001576288               0.008689209               0.000362932              -0.000495042               0.003061388               0.002566346               0.000000000               0.000000000               0.000000000               0.000000000               0.001295653               0.008135247               0.000370830              -0.000531035               0.002888734               0.002357699               0.000000000               0.000000000               0.000000000               0.000000000               0.001047839               0.007699390               0.000362728              -0.000569483               0.002756265               0.002186783               0.000000000               0.000000000               0.000000000               0.000000000               0.000835996               0.007333086               0.000346773              -0.000603136               0.002645383               0.002042247               0.000000000               0.000000000               0.000000000               0.000000000               0.000656768               0.007008204               0.000328668              -0.000629736               0.002545957               0.001916221               0.000000000               0.000000000               0.000000000               0.000000000               0.000497412               0.006704495               0.000311518              -0.000651531               0.002451986               0.001800455               0.000000000               0.000000000               0.000000000               0.000000000               0.000354407               0.006408992               0.000293279              -0.000668220               0.002359049               0.001690829               0.000000000               0.000000000               0.000000000               0.000000000               0.000234956               0.006110751               0.000265800              -0.000675734               0.002262141               0.001586407               0.000000000               0.000000000               0.000000000               0.000000000               0.000138580               0.005795750               0.000224284              -0.000672500               0.002156064               0.001483564               0.000000000               0.000000000               0.000000000               0.000000000               0.000066836               0.005454289               0.000171440              -0.000656721               0.002036985               0.001380264               0.000000000               0.000000000               0.000000000               0.000000000               0.000023202               0.005078445               0.000099512              -0.000626103               0.001901499               0.001275396               0.000000000               0.000000000               0.000000000               0.000000000              -0.000020112               0.004798448               0.000062068              -0.000607347               0.001801915               0.001194569               0.000000000               0.000000000               0.000000000               0.000000000               0.002052963               0.018452141              -0.002580628              -0.001536654               0.006662870               0.005126216               0.000000000               0.000000000               0.000000000               0.000000000               0.001695492               0.014823953              -0.001356711              -0.001217182               0.005346995               0.004129814               0.000000000               0.000000000               0.000000000               0.000000000               0.001891862               0.012023418              -0.000145186              -0.000793477               0.004272258               0.003478781               0.000000000               0.000000000               0.000000000               0.000000000               0.001682981               0.010438023               0.000351331              -0.000673633               0.003703851               0.003030217               0.000000000               0.000000000               0.000000000               0.000000000               0.001391016               0.009432710               0.000547758              -0.000657456               0.003363357               0.002705901               0.000000000               0.000000000               0.000000000               0.000000000               0.001110343               0.008731899               0.000616146              -0.000675107               0.003135640               0.002460532               0.000000000               0.000000000               0.000000000               0.000000000               0.000869639               0.008204729               0.000626146              -0.000699475               0.002968041               0.002268566               0.000000000               0.000000000               0.000000000               0.000000000               0.000671806               0.007778099               0.000608238              -0.000720333               0.002832785               0.002112451               0.000000000               0.000000000               0.000000000               0.000000000               0.000510594               0.007412517               0.000579476              -0.000735090               0.002715844               0.001980754               0.000000000               0.000000000               0.000000000               0.000000000               0.000379753               0.007088801               0.000547482              -0.000743691               0.002610807               0.001867116               0.000000000               0.000000000               0.000000000               0.000000000               0.000271493               0.006790085               0.000515157              -0.000746949               0.002512322               0.001765373               0.000000000               0.000000000               0.000000000               0.000000000               0.000180249               0.006502816               0.000478537              -0.000745257               0.002416002               0.001670746               0.000000000               0.000000000               0.000000000               0.000000000               0.000110378               0.006220807               0.000428208              -0.000736207               0.002318984               0.001582777               0.000000000               0.000000000               0.000000000               0.000000000               0.000059785               0.005941529               0.000360001              -0.000720270               0.002220580               0.001500310               0.000000000               0.000000000               0.000000000               0.000000000               0.000024426               0.005665644               0.000274387              -0.000699044               0.002121544               0.001422500               0.000000000               0.000000000               0.000000000               0.000000000               0.000005145               0.005395614               0.000157695              -0.000672521               0.002022694               0.001350173               0.000000000               0.000000000               0.000000000               0.000000000              -0.000017530               0.005214558               0.000094679              -0.000658392               0.001957633               0.001299241               0.000000000               0.000000000               0.000000000               0.000000000               0.002249813               0.016699905              -0.003445906              -0.001243807               0.005981181               0.004737374               0.000000000               0.000000000               0.000000000               0.000000000               0.001525037               0.013700603              -0.001826394              -0.001140684               0.004947050               0.003806365               0.000000000               0.000000000               0.000000000               0.000000000               0.001330670               0.011525761              -0.000242741              -0.000941716               0.004155787               0.003214071               0.000000000               0.000000000               0.000000000               0.000000000               0.001005022               0.010238834               0.000377808              -0.000902969               0.003713900               0.002810931               0.000000000               0.000000000               0.000000000               0.000000000               0.000714044               0.009381425               0.000612918              -0.000904909               0.003428747               0.002523838               0.000000000               0.000000000               0.000000000               0.000000000               0.000482690               0.008754195               0.000690204              -0.000913264               0.003222457               0.002309194               0.000000000               0.000000000               0.000000000               0.000000000               0.000308645               0.008259089               0.000698320              -0.000916642               0.003058549               0.002141907               0.000000000               0.000000000               0.000000000               0.000000000               0.000182502               0.007843454               0.000674669              -0.000911991               0.002918455               0.002006464               0.000000000               0.000000000               0.000000000               0.000000000               0.000096190               0.007484186               0.000640523              -0.000899450               0.002794520               0.001895070               0.000000000               0.000000000               0.000000000               0.000000000               0.000037781               0.007165652               0.000603933              -0.000881537               0.002682372               0.001800836               0.000000000               0.000000000               0.000000000               0.000000000              -0.000002675               0.006873493               0.000563440              -0.000860188               0.002577871               0.001717683               0.000000000               0.000000000               0.000000000               0.000000000              -0.000028566               0.006597297               0.000515945              -0.000835373               0.002477535               0.001642162               0.000000000               0.000000000               0.000000000               0.000000000              -0.000035453               0.006338961               0.000454786              -0.000805663               0.002381520               0.001575857               0.000000000               0.000000000               0.000000000               0.000000000              -0.000027767               0.006106548               0.000376337              -0.000773729               0.002293405               0.001519676               0.000000000               0.000000000               0.000000000               0.000000000              -0.000014559               0.005908795               0.000282101              -0.000744057               0.002217598               0.001473541               0.000000000               0.000000000               0.000000000               0.000000000              -0.000006327               0.005755520               0.000159653              -0.000721811               0.002159091               0.001437280               0.000000000               0.000000000               0.000000000               0.000000000              -0.000008172               0.005680344               0.000090424              -0.000713106               0.002131131               0.001418025               0.000000000               0.000000000               0.000000000               0.000000000               0.002359947               0.014560216              -0.003920672              -0.000935048               0.005165039               0.004229991               0.000000000               0.000000000               0.000000000               0.000000000               0.001255553               0.012355377              -0.002122021              -0.001073588               0.004476280               0.003402692               0.000000000               0.000000000               0.000000000               0.000000000               0.000654680               0.010930442              -0.000384022              -0.001120797               0.004017043               0.002896246               0.000000000               0.000000000               0.000000000               0.000000000               0.000247064               0.009973042               0.000263050              -0.001153978               0.003708973               0.002554995               0.000000000               0.000000000               0.000000000               0.000000000              -0.000006000               0.009264362               0.000502412              -0.001160292               0.003474854               0.002314562               0.000000000               0.000000000               0.000000000               0.000000000              -0.000159360               0.008704678               0.000582589              -0.001147842               0.003284144               0.002136302               0.000000000               0.000000000               0.000000000               0.000000000              -0.000245307               0.008242567               0.000593275              -0.001122308               0.003121597               0.001999289               0.000000000               0.000000000               0.000000000               0.000000000              -0.000282571               0.007845417               0.000572216              -0.001086639               0.002977326               0.001890687               0.000000000               0.000000000               0.000000000               0.000000000              -0.000282059               0.007496741               0.000541696              -0.001042862               0.002846509               0.001803647               0.000000000               0.000000000               0.000000000               0.000000000              -0.000261891               0.007182723               0.000507676              -0.000996047               0.002726233               0.001730186               0.000000000               0.000000000               0.000000000               0.000000000              -0.000230543               0.006894244               0.000467338              -0.000948232               0.002614136               0.001665904               0.000000000               0.000000000               0.000000000               0.000000000              -0.000187185               0.006631898               0.000418177              -0.000899179               0.002510337               0.001611158               0.000000000               0.000000000               0.000000000               0.000000000              -0.000134916               0.006403994               0.000358017              -0.000851091               0.002418340               0.001567250               0.000000000               0.000000000               0.000000000               0.000000000              -0.000084908               0.006221153               0.000285327              -0.000809483               0.002343524               0.001534042               0.000000000               0.000000000               0.000000000               0.000000000              -0.000045254               0.006089067               0.000203045              -0.000778102               0.002289036               0.001510934               0.000000000               0.000000000               0.000000000               0.000000000              -0.000016886               0.006013597               0.000108632              -0.000758030               0.002257189               0.001499159               0.000000000               0.000000000               0.000000000               0.000000000              -0.000003606               0.005994504               0.000056351              -0.000750663               0.002248369               0.001497706               0.000000000               0.000000000               0.000000000               0.000000000               0.002288044               0.012261148              -0.004005786              -0.000674629               0.004311884               0.003637255               0.000000000               0.000000000               0.000000000               0.000000000               0.000883274               0.010929649              -0.002254971              -0.001034977               0.003988172               0.002953195               0.000000000               0.000000000               0.000000000               0.000000000              -0.000055492               0.010275906              -0.000574291              -0.001305295               0.003860366               0.002555071               0.000000000               0.000000000               0.000000000               0.000000000              -0.000477565               0.009631416               0.000026365              -0.001383010               0.003671443               0.002288433               0.000000000               0.000000000               0.000000000               0.000000000              -0.000647942               0.009059111               0.000252927              -0.001375364               0.003478128               0.002102764               0.000000000               0.000000000               0.000000000               0.000000000              -0.000696744               0.008563988               0.000339726              -0.001331774               0.003298559               0.001966785               0.000000000               0.000000000               0.000000000               0.000000000              -0.000682789               0.008135204               0.000363374              -0.001272943               0.003136022               0.001863079               0.000000000               0.000000000               0.000000000               0.000000000              -0.000631831               0.007756631               0.000353055              -0.001206513               0.002987689               0.001781176               0.000000000               0.000000000               0.000000000               0.000000000              -0.000553744               0.007418609               0.000331295              -0.001134977               0.002851171               0.001716194               0.000000000               0.000000000               0.000000000               0.000000000              -0.000458111               0.007112808               0.000304713              -0.001060890               0.002724542               0.001663652               0.000000000               0.000000000               0.000000000               0.000000000              -0.000359000               0.006833574               0.000272561              -0.000988819               0.002607442               0.001618622               0.000000000               0.000000000               0.000000000               0.000000000              -0.000262369               0.006591966               0.000234131              -0.000922382               0.002504760               0.001582379               0.000000000               0.000000000               0.000000000               0.000000000              -0.000176529               0.006398144               0.000190158              -0.000865964               0.002421348               0.001555384               0.000000000               0.000000000               0.000000000               0.000000000              -0.000109947               0.006250544               0.000141357              -0.000822546               0.002357676               0.001535130               0.000000000               0.000000000               0.000000000               0.000000000              -0.000062686               0.006146832               0.000092717              -0.000791859               0.002312877               0.001521017               0.000000000               0.000000000               0.000000000               0.000000000              -0.000026604               0.006078989               0.000044792              -0.000769848               0.002282925               0.001513077               0.000000000               0.000000000               0.000000000               0.000000000              -0.000017772               0.006042274               0.000024429              -0.000761947               0.002268054               0.001506107               0.000000000               0.000000000               0.000000000               0.000000000               0.001971786               0.009990584              -0.003761978              -0.000509406               0.003499962               0.002990556               0.000000000               0.000000000               0.000000000               0.000000000               0.000418328               0.009530850              -0.002264238              -0.001034482               0.003521745               0.002487263               0.000000000               0.000000000               0.000000000               0.000000000              -0.000723513               0.009590501              -0.000812784              -0.001470126               0.003686844               0.002216717               0.000000000               0.000000000               0.000000000               0.000000000              -0.001077508               0.009212193              -0.000292005              -0.001555586               0.003589229               0.002033643               0.000000000               0.000000000               0.000000000               0.000000000              -0.001130284               0.008759851              -0.000076226              -0.001518834               0.003426199               0.001907365               0.000000000               0.000000000               0.000000000               0.000000000              -0.001067728               0.008327066               0.000024793              -0.001441278               0.003256087               0.001814809               0.000000000               0.000000000               0.000000000               0.000000000              -0.000960727               0.007932370               0.000069041              -0.001351816               0.003094702               0.001742887               0.000000000               0.000000000               0.000000000               0.000000000              -0.000827148               0.007576793               0.000078666              -0.001257276               0.002944664               0.001687388               0.000000000               0.000000000               0.000000000               0.000000000              -0.000680032               0.007256393               0.000076826              -0.001162058               0.002806126               0.001644068               0.000000000               0.000000000               0.000000000               0.000000000              -0.000531154               0.006968356               0.000068602              -0.001070224               0.002679504               0.001609279               0.000000000               0.000000000               0.000000000               0.000000000              -0.000394164               0.006715723               0.000055685              -0.000987274               0.002567643               0.001580369               0.000000000               0.000000000               0.000000000               0.000000000              -0.000274619               0.006502358               0.000045432              -0.000915775               0.002472689               0.001556914               0.000000000               0.000000000               0.000000000               0.000000000              -0.000180855               0.006324381               0.000036368              -0.000858366               0.002394228               0.001535862               0.000000000               0.000000000               0.000000000               0.000000000              -0.000117500               0.006176432               0.000028124              -0.000816114               0.002330828               0.001514714               0.000000000               0.000000000               0.000000000               0.000000000              -0.000074609               0.006052360               0.000023840              -0.000784521               0.002278940               0.001494419               0.000000000               0.000000000               0.000000000               0.000000000              -0.000036533               0.005941002               0.000015329              -0.000756323               0.002232422               0.001476099               0.000000000               0.000000000               0.000000000               0.000000000              -0.000034615               0.005862080               0.000018658              -0.000745739               0.002202587               0.001456848               0.000000000               0.000000000               0.000000000               0.000000000               0.001434182               0.007884289              -0.003275038              -0.000447720               0.002777309               0.002329589               0.000000000               0.000000000               0.000000000               0.000000000              -0.000108203               0.008242190              -0.002191105              -0.001070849               0.003104318               0.002033469               0.000000000               0.000000000               0.000000000               0.000000000              -0.001279314               0.008892670              -0.001093795              -0.001591323               0.003494635               0.001903312               0.000000000               0.000000000               0.000000000               0.000000000              -0.001494829               0.008722630              -0.000649592              -0.001650886               0.003457809               0.001806924               0.000000000               0.000000000               0.000000000               0.000000000              -0.001415488               0.008377782              -0.000429354              -0.001578027               0.003318575               0.001740548               0.000000000               0.000000000               0.000000000               0.000000000              -0.001250968               0.008010773              -0.000304368              -0.001470456               0.003160383               0.001689927               0.000000000               0.000000000               0.000000000               0.000000000              -0.001065061               0.007658254              -0.000229664              -0.001356676               0.003004951               0.001648275               0.000000000               0.000000000               0.000000000               0.000000000              -0.000868107               0.007332417              -0.000188499              -0.001242089               0.002858144               0.001616055               0.000000000               0.000000000               0.000000000               0.000000000              -0.000670192               0.007038412              -0.000160088              -0.001131121               0.002723154               0.001592033               0.000000000               0.000000000               0.000000000               0.000000000              -0.000491692               0.006776461              -0.000135418              -0.001031440               0.002602611               0.001571171               0.000000000               0.000000000               0.000000000               0.000000000              -0.000343695               0.006539557              -0.000111501              -0.000946328               0.002495273               0.001548945               0.000000000               0.000000000               0.000000000               0.000000000              -0.000238095               0.006321923              -0.000084856              -0.000879524               0.002400461               0.001520937               0.000000000               0.000000000               0.000000000               0.000000000              -0.000173113               0.006123087              -0.000055190              -0.000830301               0.002317775               0.001487474               0.000000000               0.000000000               0.000000000               0.000000000              -0.000131750               0.005943979              -0.000023937              -0.000792402               0.002245441               0.001453039               0.000000000               0.000000000               0.000000000               0.000000000              -0.000099149               0.005779616               0.000001245              -0.000759631               0.002179730               0.001420099               0.000000000               0.000000000               0.000000000               0.000000000              -0.000058984               0.005630592               0.000011041              -0.000725941               0.002118826               0.001392884               0.000000000               0.000000000               0.000000000               0.000000000              -0.000047466               0.005537058               0.000020183              -0.000709930               0.002082311               0.001372381               0.000000000               0.000000000               0.000000000               0.000000000               0.000767743               0.006095525              -0.002640473              -0.000474038               0.002189833               0.001715795               0.000000000               0.000000000               0.000000000               0.000000000              -0.000616516               0.007092464              -0.002084999              -0.001117750               0.002736714               0.001618964               0.000000000               0.000000000               0.000000000               0.000000000              -0.001686570               0.008211623              -0.001422185              -0.001658913               0.003290151               0.001631238               0.000000000               0.000000000               0.000000000               0.000000000              -0.001749191               0.008254928              -0.001029081              -0.001687809               0.003314218               0.001626409               0.000000000               0.000000000               0.000000000               0.000000000              -0.001561890               0.008031555              -0.000784795              -0.001589649               0.003207041               0.001617392               0.000000000               0.000000000               0.000000000               0.000000000              -0.001320164               0.007745202              -0.000625524              -0.001463208               0.003069444               0.001606236               0.000000000               0.000000000               0.000000000               0.000000000              -0.001076245               0.007446022              -0.000515673              -0.001334341               0.002926763               0.001592422               0.000000000               0.000000000               0.000000000               0.000000000              -0.000833731               0.007155112              -0.000435573              -0.001207035               0.002787358               0.001580323               0.000000000               0.000000000               0.000000000               0.000000000              -0.000599914               0.006892793              -0.000368054              -0.001086564               0.002659763               0.001573199               0.000000000               0.000000000               0.000000000               0.000000000              -0.000404148               0.006639820              -0.000306852              -0.000981531               0.002540428               0.001558897               0.000000000               0.000000000               0.000000000               0.000000000              -0.000265806               0.006383970              -0.000249750              -0.000897671               0.002427193               0.001529521               0.000000000               0.000000000               0.000000000               0.000000000              -0.000179991               0.006142694              -0.000190642              -0.000835331               0.002325988               0.001490657               0.000000000               0.000000000               0.000000000               0.000000000              -0.000139405               0.005918623              -0.000127412              -0.000792103               0.002236889               0.001444786               0.000000000               0.000000000               0.000000000               0.000000000              -0.000132529               0.005705766              -0.000067434              -0.000762917               0.002156209               0.001393292               0.000000000               0.000000000               0.000000000               0.000000000              -0.000139477               0.005502429              -0.000022499              -0.000740106               0.002080827               0.001340721               0.000000000               0.000000000               0.000000000               0.000000000              -0.000136589               0.005320958               0.000000915              -0.000716339               0.002012415               0.001296076               0.000000000               0.000000000               0.000000000               0.000000000              -0.000128327               0.005227312               0.000009523              -0.000701535               0.001976265               0.001274730               0.000000000               0.000000000               0.000000000               0.000000000              -0.000047296               0.004415307              -0.001952776              -0.000569650               0.001661637               0.001091987               0.000000000               0.000000000               0.000000000               0.000000000              -0.001025149               0.005763671              -0.001962005              -0.001104888               0.002289500               0.001184612               0.000000000               0.000000000               0.000000000               0.000000000              -0.001891440               0.007220167              -0.001777979              -0.001611807               0.002943967               0.001332160               0.000000000               0.000000000               0.000000000               0.000000000              -0.001873448               0.007568908              -0.001449135              -0.001648653               0.003072495               0.001423842               0.000000000               0.000000000               0.000000000               0.000000000              -0.001642159               0.007553291              -0.001178661              -0.001559968               0.003037728               0.001477760               0.000000000               0.000000000               0.000000000               0.000000000              -0.001371003               0.007415987              -0.000976471              -0.001441121               0.002952344               0.001511223               0.000000000               0.000000000               0.000000000               0.000000000              -0.001110587               0.007226899              -0.000826261              -0.001319829               0.002848885               0.001529056               0.000000000               0.000000000               0.000000000               0.000000000              -0.000859699               0.007022988              -0.000706315              -0.001200258               0.002741058               0.001540801               0.000000000               0.000000000               0.000000000               0.000000000              -0.000622661               0.006815805              -0.000602291              -0.001085471               0.002633736               0.001548265               0.000000000               0.000000000               0.000000000               0.000000000              -0.000422467               0.006580271              -0.000505955              -0.000980957               0.002520387               0.001539430               0.000000000               0.000000000               0.000000000               0.000000000              -0.000275278               0.006325183              -0.000412235              -0.000893875               0.002406331               0.001512457               0.000000000               0.000000000               0.000000000               0.000000000              -0.000185876               0.006070649              -0.000319665              -0.000828533               0.002299707               0.001471174               0.000000000               0.000000000               0.000000000               0.000000000              -0.000149088               0.005827025              -0.000225179              -0.000784284               0.002203750               0.001419466               0.000000000               0.000000000               0.000000000               0.000000000              -0.000155385               0.005597566              -0.000136775              -0.000757963               0.002118491               0.001360528               0.000000000               0.000000000               0.000000000               0.000000000              -0.000190888               0.005381090              -0.000068305              -0.000744217               0.002041751               0.001297534               0.000000000               0.000000000               0.000000000               0.000000000              -0.000236017               0.005183447              -0.000023838              -0.000736435               0.001973277               0.001236841               0.000000000               0.000000000               0.000000000               0.000000000              -0.000257502               0.005086160              -0.000006255              -0.000732331               0.001939480               0.001207149               0.000000000               0.000000000               0.000000000               0.000000000              -0.001134692               0.002877805              -0.001253789              -0.000785234               0.001221003               0.000435769               0.000000000               0.000000000               0.000000000               0.000000000              -0.001489082               0.004432024              -0.001773626              -0.001112407               0.001848128               0.000735721               0.000000000               0.000000000               0.000000000               0.000000000              -0.002012531               0.006082877              -0.002056142              -0.001515056               0.002532623               0.001017568               0.000000000               0.000000000               0.000000000               0.000000000              -0.001924953               0.006722000              -0.001850054              -0.001562104               0.002761345               0.001199241               0.000000000               0.000000000               0.000000000               0.000000000              -0.001675652               0.006946234              -0.001583049              -0.001496646               0.002814270               0.001317624               0.000000000               0.000000000               0.000000000               0.000000000              -0.001398008               0.006989769              -0.001349026              -0.001397971               0.002795890               0.001397919               0.000000000               0.000000000               0.000000000               0.000000000              -0.001134960               0.006940638              -0.001162388              -0.001293187               0.002744585               0.001451398               0.000000000               0.000000000               0.000000000               0.000000000              -0.000887927               0.006846897              -0.001009404              -0.001188832               0.002678553               0.001489721               0.000000000               0.000000000               0.000000000               0.000000000              -0.000651171               0.006721042              -0.000876387              -0.001084317               0.002601764               0.001517447               0.000000000               0.000000000               0.000000000               0.000000000              -0.000444466               0.006539608              -0.000754380              -0.000984123               0.002507889               0.001523765               0.000000000               0.000000000               0.000000000               0.000000000              -0.000279798               0.006317566              -0.000634353              -0.000894618               0.002404040               0.001509422               0.000000000               0.000000000               0.000000000               0.000000000              -0.000164638               0.006078597              -0.000513963              -0.000821562               0.002300033               0.001478471               0.000000000               0.000000000               0.000000000               0.000000000              -0.000102397               0.005835177              -0.000391590              -0.000767794               0.002200971               0.001433177               0.000000000               0.000000000               0.000000000               0.000000000              -0.000093705               0.005598355              -0.000271891              -0.000734932               0.002111077               0.001376145               0.000000000               0.000000000               0.000000000               0.000000000              -0.000138159               0.005375336              -0.000164285              -0.000723725               0.002033002               0.001309277               0.000000000               0.000000000               0.000000000               0.000000000              -0.000227357               0.005175813              -0.000073113              -0.000732234               0.001969332               0.001237098               0.000000000               0.000000000               0.000000000               0.000000000              -0.000297824               0.005070764              -0.000025438              -0.000745528               0.001938747               0.001193219               0.000000000               0.000000000               0.000000000               0.000000000              -0.002413766               0.001599677              -0.000595022              -0.001105120               0.000901593              -0.000203527               0.000000000               0.000000000               0.000000000               0.000000000              -0.002057820               0.003176371              -0.001494474              -0.001168727               0.001448354               0.000279628               0.000000000               0.000000000               0.000000000               0.000000000              -0.002088256               0.004817985              -0.002157082              -0.001385342               0.002067759               0.000682417               0.000000000               0.000000000               0.000000000               0.000000000              -0.001875144               0.005667210              -0.002108863              -0.001411578               0.002359576               0.000947999               0.000000000               0.000000000               0.000000000               0.000000000              -0.001599668               0.006114268              -0.001890587              -0.001364156               0.002492787               0.001128631               0.000000000               0.000000000               0.000000000               0.000000000              -0.001323019               0.006348648              -0.001657650              -0.001289711               0.002546098               0.001256387               0.000000000               0.000000000               0.000000000               0.000000000              -0.001062952               0.006459966              -0.001453445              -0.001206100               0.002555334               0.001349233               0.000000000               0.000000000               0.000000000               0.000000000              -0.000820361               0.006497100              -0.001281740              -0.001119771               0.002538935               0.001419165               0.000000000               0.000000000               0.000000000               0.000000000              -0.000594864               0.006475046              -0.001131217              -0.001032453               0.002502478               0.001470025               0.000000000               0.000000000               0.000000000               0.000000000              -0.000393463               0.006379550              -0.000991022              -0.000944990               0.002441492               0.001496502               0.000000000               0.000000000               0.000000000               0.000000000              -0.000218476               0.006224533              -0.000855145              -0.000859993               0.002361488               0.001501495               0.000000000               0.000000000               0.000000000               0.000000000              -0.000079826               0.006027105              -0.000720043              -0.000783321               0.002270122               0.001486801               0.000000000               0.000000000               0.000000000               0.000000000               0.000014727               0.005811655              -0.000580038              -0.000720933               0.002177510               0.001456577               0.000000000               0.000000000               0.000000000               0.000000000               0.000058638               0.005591671              -0.000434593              -0.000676968               0.002089528               0.001412560               0.000000000               0.000000000               0.000000000               0.000000000               0.000040941               0.005371229              -0.000287571              -0.000656049               0.002009075               0.001353026               0.000000000               0.000000000               0.000000000               0.000000000              -0.000043763               0.005170576              -0.000141712              -0.000662732               0.001944419               0.001281687               0.000000000               0.000000000               0.000000000               0.000000000              -0.000131942               0.005059008              -0.000059698              -0.000681852               0.001913603               0.001231751               0.000000000               0.000000000               0.000000000               0.000000000              -0.003785498               0.000649008              -0.000063120              -0.001500686               0.000716560              -0.000784126               0.000000000               0.000000000               0.000000000               0.000000000              -0.002694661               0.002065299              -0.001158175              -0.001268658               0.001111311              -0.000157347               0.000000000               0.000000000               0.000000000               0.000000000              -0.002141377               0.003530393              -0.002054308              -0.001244313               0.001591556               0.000347243               0.000000000               0.000000000               0.000000000               0.000000000              -0.001743517               0.004487811              -0.002153495              -0.001214793               0.001900852               0.000686059               0.000000000               0.000000000               0.000000000               0.000000000              -0.001416739               0.005109762              -0.002011005              -0.001169996               0.002093235               0.000923239               0.000000000               0.000000000               0.000000000               0.000000000              -0.001136387               0.005515773              -0.001812904              -0.001115615               0.002210443               0.001094829               0.000000000               0.000000000               0.000000000               0.000000000              -0.000885495               0.005782135              -0.001621225              -0.001054826               0.002278967               0.001224142               0.000000000               0.000000000               0.000000000               0.000000000              -0.000651328               0.005962780              -0.001449334              -0.000989594               0.002317438               0.001327844               0.000000000               0.000000000               0.000000000               0.000000000              -0.000437599               0.006063570              -0.001294299              -0.000922044               0.002328518               0.001406474               0.000000000               0.000000000               0.000000000               0.000000000              -0.000246927               0.006070392              -0.001152515              -0.000851395               0.002307242               0.001455847               0.000000000               0.000000000               0.000000000               0.000000000              -0.000068421               0.006007220              -0.001015834              -0.000776559               0.002261239               0.001484681               0.000000000               0.000000000               0.000000000               0.000000000               0.000091066               0.005888780              -0.000876185              -0.000701946               0.002196889               0.001494943               0.000000000               0.000000000               0.000000000               0.000000000               0.000219674               0.005730448              -0.000730397              -0.000633927               0.002121439               0.001487512               0.000000000               0.000000000               0.000000000               0.000000000               0.000312233               0.005548759              -0.000575124              -0.000576506               0.002041736               0.001465230               0.000000000               0.000000000               0.000000000               0.000000000               0.000356444               0.005355959              -0.000404438              -0.000535827               0.001963911               0.001428084               0.000000000               0.000000000               0.000000000               0.000000000               0.000335781               0.005169756              -0.000211377              -0.000520300               0.001896668               0.001376368               0.000000000               0.000000000               0.000000000               0.000000000               0.000286307               0.005067340              -0.000102588              -0.000526051               0.001864447               0.001338396               0.000000000               0.000000000               0.000000000               0.000000000              -0.005114006               0.000017406               0.000266136              -0.001919926               0.000645773              -0.001274153               0.000000000               0.000000000               0.000000000               0.000000000              -0.003341101               0.001161598              -0.000812166              -0.001398111               0.000853230              -0.000544881               0.000000000               0.000000000               0.000000000               0.000000000              -0.002190683               0.002341811              -0.001747387              -0.001114231               0.001152005               0.000037774               0.000000000               0.000000000               0.000000000               0.000000000              -0.001569013               0.003311481              -0.001939401              -0.001002314               0.001437920               0.000435606               0.000000000               0.000000000               0.000000000               0.000000000              -0.001163781               0.004044787              -0.001874132              -0.000942015               0.001662253               0.000720238               0.000000000               0.000000000               0.000000000               0.000000000              -0.000861827               0.004585184              -0.001731341              -0.000896332               0.001827156               0.000930824               0.000000000               0.000000000               0.000000000               0.000000000              -0.000617410               0.004987641              -0.001576091              -0.000854983               0.001947524               0.001092542               0.000000000               0.000000000               0.000000000               0.000000000              -0.000399097               0.005302721              -0.001427421              -0.000812500               0.002038389               0.001225889               0.000000000               0.000000000               0.000000000               0.000000000              -0.000197323               0.005522681              -0.001289908              -0.000764330               0.002095652               0.001331322               0.000000000               0.000000000               0.000000000               0.000000000              -0.000013892               0.005637322              -0.001164315              -0.000709873               0.002115713               0.001405839               0.000000000               0.000000000               0.000000000               0.000000000               0.000160285               0.005675546              -0.001041936              -0.000649335               0.002108275               0.001458939               0.000000000               0.000000000               0.000000000               0.000000000               0.000328670               0.005651455              -0.000912781              -0.000583180               0.002078193               0.001495013               0.000000000               0.000000000               0.000000000               0.000000000               0.000491798               0.005575045              -0.000777996              -0.000512455               0.002029148               0.001516693               0.000000000               0.000000000               0.000000000               0.000000000               0.000642178               0.005454779              -0.000632028              -0.000441030               0.001965251               0.001524222               0.000000000               0.000000000               0.000000000               0.000000000               0.000771099               0.005310903              -0.000460630              -0.000374700               0.001895183               0.001520483               0.000000000               0.000000000               0.000000000               0.000000000               0.000867841               0.005157871              -0.000249764              -0.000319293               0.001825704               0.001506411               0.000000000               0.000000000               0.000000000               0.000000000               0.000917499               0.005080984              -0.000134400              -0.000291060               0.001790665               0.001499604               0.000000000               0.000000000               0.000000000               0.000000000              -0.006240013              -0.000348624               0.000359340              -0.002296425               0.000649262              -0.001647163               0.000000000               0.000000000               0.000000000               0.000000000              -0.003912288               0.000504864              -0.000497645              -0.001530214               0.000678354              -0.000851860               0.000000000               0.000000000               0.000000000               0.000000000              -0.002241129               0.001379073              -0.001267561              -0.001012806               0.000797287              -0.000215519               0.000000000               0.000000000               0.000000000               0.000000000              -0.001397962               0.002299345              -0.001468335              -0.000811653               0.001036991               0.000225338               0.000000000               0.000000000               0.000000000               0.000000000              -0.000902709               0.003086587              -0.001456449              -0.000724338               0.001270297               0.000545959               0.000000000               0.000000000               0.000000000               0.000000000              -0.000570146               0.003718200              -0.001369678              -0.000678579               0.001465580               0.000787001               0.000000000               0.000000000               0.000000000               0.000000000              -0.000322016               0.004222573              -0.001263011              -0.000648577               0.001623702               0.000975126               0.000000000               0.000000000               0.000000000               0.000000000              -0.000111789               0.004640329              -0.001157388              -0.000621961               0.001754081               0.001132120               0.000000000               0.000000000               0.000000000               0.000000000               0.000076763               0.004958907              -0.001057536              -0.000591076               0.001849978               0.001258901               0.000000000               0.000000000               0.000000000               0.000000000               0.000249420               0.005169698              -0.000963467              -0.000552679               0.001907441               0.001354763               0.000000000               0.000000000               0.000000000               0.000000000               0.000417022               0.005300725              -0.000869006              -0.000506207               0.001935626               0.001429419               0.000000000               0.000000000               0.000000000               0.000000000               0.000591468               0.005364309              -0.000770947              -0.000448737               0.001937664               0.001488927               0.000000000               0.000000000               0.000000000               0.000000000               0.000780765               0.005372959              -0.000667986              -0.000378832               0.001917246               0.001538413               0.000000000               0.000000000               0.000000000               0.000000000               0.000983808               0.005330399              -0.000552270              -0.000297371               0.001875906               0.001578534               0.000000000               0.000000000               0.000000000               0.000000000               0.001204253               0.005246883              -0.000412834              -0.000204265               0.001817032               0.001612767               0.000000000               0.000000000               0.000000000               0.000000000               0.001439913               0.005133431              -0.000231243              -0.000101711               0.001745030               0.001643319               0.000000000               0.000000000               0.000000000               0.000000000               0.001615681               0.005088414              -0.000134117              -0.000030171               0.001706178               0.001676007               0.000000000               0.000000000               0.000000000               0.000000000              -0.007003657              -0.000524382               0.000241316              -0.002560822               0.000678809              -0.001882013               0.000000000               0.000000000               0.000000000               0.000000000              -0.004310692               0.000109681              -0.000231714              -0.001630218               0.000579962              -0.001050256               0.000000000               0.000000000               0.000000000               0.000000000              -0.002278945               0.000750278              -0.000664482              -0.000948388               0.000566218              -0.000382170               0.000000000               0.000000000               0.000000000               0.000000000              -0.001268551               0.001610991              -0.000790660              -0.000677079               0.000762684               0.000085605               0.000000000               0.000000000               0.000000000               0.000000000              -0.000701989               0.002416143              -0.000797969              -0.000565263               0.000993793               0.000428531               0.000000000               0.000000000               0.000000000               0.000000000              -0.000345577               0.003097974              -0.000758698              -0.000516837               0.001204927               0.000688089               0.000000000               0.000000000               0.000000000               0.000000000              -0.000089361               0.003665356              -0.000704872              -0.000491679               0.001385666               0.000893987               0.000000000               0.000000000               0.000000000               0.000000000               0.000119891               0.004146543              -0.000650793              -0.000473358               0.001539953               0.001066595               0.000000000               0.000000000               0.000000000               0.000000000               0.000299419               0.004529077              -0.000599289              -0.000453852               0.001660961               0.001207109               0.000000000               0.000000000               0.000000000               0.000000000               0.000461149               0.004804849              -0.000548928              -0.000427674               0.001744158               0.001316484               0.000000000               0.000000000               0.000000000               0.000000000               0.000624065               0.004998021              -0.000497589              -0.000390727               0.001796233               0.001405505               0.000000000               0.000000000               0.000000000               0.000000000               0.000804375               0.005125069              -0.000444491              -0.000338992               0.001821337               0.001482344               0.000000000               0.000000000               0.000000000               0.000000000               0.001012406               0.005199724              -0.000387110              -0.000270313               0.001823328               0.001553016               0.000000000               0.000000000               0.000000000               0.000000000               0.001255357               0.005220379              -0.000324296              -0.000181788               0.001800705               0.001618917               0.000000000               0.000000000               0.000000000               0.000000000               0.001544050               0.005189793              -0.000246878              -0.000069705               0.001753149               0.001683443               0.000000000               0.000000000               0.000000000               0.000000000               0.001890285               0.005110654              -0.000139290               0.000070024               0.001680193               0.001750217               0.000000000               0.000000000               0.000000000               0.000000000               0.002172300               0.005090542              -0.000082677               0.000178293               0.001637399               0.001815692               0.000000000               0.000000000               0.000000000               0.000000000              -0.007275443              -0.000575411              -0.000000000              -0.002656363               0.000693646              -0.001962717               0.000000000               0.000000000               0.000000000               0.000000000              -0.004454330              -0.000023695               0.000000000              -0.001667410               0.000547901              -0.001119509               0.000000000               0.000000000               0.000000000               0.000000000              -0.002292212               0.000529601               0.000000000              -0.000925779               0.000485123              -0.000440655               0.000000000               0.000000000               0.000000000               0.000000000              -0.001217531               0.001368714               0.000000000              -0.000627662               0.000665454               0.000037792               0.000000000               0.000000000               0.000000000               0.000000000              -0.000623610               0.002179293               0.000000000              -0.000506264               0.000895178               0.000388914               0.000000000               0.000000000               0.000000000               0.000000000              -0.000259335               0.002873690              -0.000000000              -0.000456461               0.001110041               0.000653580               0.000000000               0.000000000               0.000000000               0.000000000              -0.000000891               0.003459861              -0.000000000              -0.000432816               0.001297547               0.000864732               0.000000000               0.000000000               0.000000000               0.000000000               0.000207892               0.003963362               0.000000000              -0.000417460               0.001460261               0.001042801               0.000000000               0.000000000               0.000000000               0.000000000               0.000385390               0.004370005              -0.000000000              -0.000401728               0.001590563               0.001188835               0.000000000               0.000000000               0.000000000               0.000000000               0.000542972               0.004667870              -0.000000000              -0.000379868               0.001682564               0.001302696               0.000000000               0.000000000               0.000000000               0.000000000               0.000704469               0.004881236              -0.000000000              -0.000345978               0.001742388               0.001396410               0.000000000               0.000000000               0.000000000               0.000000000               0.000885839               0.005030945              -0.000000000              -0.000296678               0.001775857               0.001479180               0.000000000               0.000000000               0.000000000               0.000000000               0.001101917               0.005128626               0.000000000              -0.000227859               0.001785478               0.001557619               0.000000000               0.000000000               0.000000000               0.000000000               0.001361555               0.005173287              -0.000000000              -0.000136077               0.001769771               0.001633694               0.000000000               0.000000000               0.000000000               0.000000000               0.001673211               0.005165059              -0.000000000              -0.000018178               0.001727728               0.001709550               0.000000000               0.000000000               0.000000000               0.000000000               0.002060591               0.005099763              -0.000000000               0.000135250               0.001654821               0.001790070               0.000000000               0.000000000               0.000000000               0.000000000               0.002385023               0.005089091              -0.000000000               0.000258245               0.001610265               0.001868510               0.000000000               0.000000000               0.000000000               0.000000000               0.000000000               0.000000000               0.000000000               0.000000000               0.000000000               0.000000000               0.000000000               0.000000000               0.000000000               0.000000000               0.000000000               0.000000000               0.000000000               0.000000000               0.000000000               0.000000000               0.000000000               0.000000000               0.000000000               0.000000000               0.000000000               0.000000000               0.000000000               0.000000000               0.000000000               0.000000000               0.000000000               0.000000000               0.000000000               0.000000000               0.000000000               0.000000000               0.000000000               0.000000000               0.000000000               0.000000000               0.000000000               0.000000000               0.000000000               0.000000000               0.000000000               0.000000000               0.000000000               0.000000000               0.000000000               0.000000000               0.000000000               0.000000000               0.000000000               0.000000000               0.000000000               0.000000000               0.000000000               0.000000000               0.000000000               0.000000000               0.000000000               0.000000000               0.000000000               0.000000000               0.000000000               0.000000000               0.000000000               0.000000000               0.000000000               0.000000000               0.000000000               0.000000000               0.000000000               0.000000000               0.000000000               0.000000000               0.000000000               0.000000000               0.000000000               0.000000000               0.000000000               0.000000000               0.000000000               0.000000000               0.000000000               0.000000000               0.000000000               0.000000000               0.000000000               0.000000000               0.000000000               0.000000000               0.000000000               0.000000000               0.000000000               0.000000000               0.000000000               0.000000000               0.000000000               0.000000000               0.000000000               0.000000000               0.000000000               0.000000000               0.000000000               0.000000000               0.000000000               0.000000000               0.000000000               0.000000000               0.000000000               0.000000000               0.000000000               0.000000000               0.000000000               0.000000000               0.000000000               0.000000000               0.000000000               0.000000000               0.000000000               0.000000000               0.000000000               0.000000000               0.000000000               0.000000000               0.000000000               0.000000000               0.000000000               0.000000000               0.000000000               0.000000000               0.000000000               0.000000000               0.000000000               0.000000000               0.000000000               0.000000000               0.000000000               0.000000000               0.000000000               0.000000000               0.000000000               0.000000000               0.000000000               0.000000000               0.000000000               0.000000000               0.000000000               0.000000000               0.000000000               0.000000000               0.000000000               0.000000000               0.000000000               0.000000000               0.000000000               0.000000000               0.000000000               0.000000000               0.000000000               0.000000000               0.000000000               0.000000000               0.000000000               0.000000000               0.000000000               0.000000000               0.000000000               0.000000000               0.000000000               0.000000000               0.000000000               0.000000000               0.001873517               0.019610897               0.001384451              -0.001748789               0.007119830               0.005371041               0.000000000               0.000000000               0.000000000               0.000000000               0.001783450               0.015579374               0.000726977              -0.001278625               0.005619281               0.004340656               0.000000000               0.000000000               0.000000000               0.000000000               0.002263203               0.012361296               0.000070917              -0.000696459               0.004352544               0.003656085               0.000000000               0.000000000               0.000000000               0.000000000               0.002150762               0.010564674              -0.000206471              -0.000514047               0.003692872               0.003178824               0.000000000               0.000000000               0.000000000               0.000000000               0.001874910               0.009447224              -0.000320908              -0.000477811               0.003308314               0.002830503               0.000000000               0.000000000               0.000000000               0.000000000               0.001576288               0.008689209              -0.000362932              -0.000495042               0.003061388               0.002566346               0.000000000               0.000000000               0.000000000               0.000000000               0.001295653               0.008135247              -0.000370830              -0.000531035               0.002888734               0.002357699               0.000000000               0.000000000               0.000000000               0.000000000               0.001047839               0.007699390              -0.000362728              -0.000569483               0.002756265               0.002186783               0.000000000               0.000000000               0.000000000               0.000000000               0.000835996               0.007333086              -0.000346773              -0.000603136               0.002645383               0.002042247               0.000000000               0.000000000               0.000000000               0.000000000               0.000656768               0.007008204              -0.000328668              -0.000629736               0.002545957               0.001916221               0.000000000               0.000000000               0.000000000               0.000000000               0.000497412               0.006704495              -0.000311518              -0.000651531               0.002451986               0.001800455               0.000000000               0.000000000               0.000000000               0.000000000               0.000354407               0.006408992              -0.000293279              -0.000668220               0.002359049               0.001690829               0.000000000               0.000000000               0.000000000               0.000000000               0.000234956               0.006110751              -0.000265800              -0.000675734               0.002262141               0.001586407               0.000000000               0.000000000               0.000000000               0.000000000               0.000138580               0.005795750              -0.000224284              -0.000672500               0.002156064               0.001483564               0.000000000               0.000000000               0.000000000               0.000000000               0.000066836               0.005454289              -0.000171440              -0.000656721               0.002036985               0.001380264               0.000000000               0.000000000               0.000000000               0.000000000               0.000023202               0.005078445              -0.000099512              -0.000626103               0.001901499               0.001275396               0.000000000               0.000000000               0.000000000               0.000000000              -0.000020112               0.004798448              -0.000062068              -0.000607347               0.001801915               0.001194569               0.000000000               0.000000000               0.000000000               0.000000000               0.002052963               0.018452141               0.002580628              -0.001536654               0.006662870               0.005126216               0.000000000               0.000000000               0.000000000               0.000000000               0.001695492               0.014823953               0.001356711              -0.001217182               0.005346995               0.004129814               0.000000000               0.000000000               0.000000000               0.000000000               0.001891862               0.012023418               0.000145186              -0.000793477               0.004272258               0.003478781               0.000000000               0.000000000               0.000000000               0.000000000               0.001682981               0.010438023              -0.000351331              -0.000673633               0.003703851               0.003030217               0.000000000               0.000000000               0.000000000               0.000000000               0.001391016               0.009432710              -0.000547758              -0.000657456               0.003363357               0.002705901               0.000000000               0.000000000               0.000000000               0.000000000               0.001110343               0.008731899              -0.000616146              -0.000675107               0.003135640               0.002460532               0.000000000               0.000000000               0.000000000               0.000000000               0.000869639               0.008204729              -0.000626146              -0.000699475               0.002968041               0.002268566               0.000000000               0.000000000               0.000000000               0.000000000               0.000671806               0.007778099              -0.000608238              -0.000720333               0.002832785               0.002112451               0.000000000               0.000000000               0.000000000               0.000000000               0.000510594               0.007412517              -0.000579476              -0.000735090               0.002715844               0.001980754               0.000000000               0.000000000               0.000000000               0.000000000               0.000379753               0.007088801              -0.000547482              -0.000743691               0.002610807               0.001867116               0.000000000               0.000000000               0.000000000               0.000000000               0.000271493               0.006790085              -0.000515157              -0.000746949               0.002512322               0.001765373               0.000000000               0.000000000               0.000000000               0.000000000               0.000180249               0.006502816              -0.000478537              -0.000745257               0.002416002               0.001670746               0.000000000               0.000000000               0.000000000               0.000000000               0.000110378               0.006220807              -0.000428208              -0.000736207               0.002318984               0.001582777               0.000000000               0.000000000               0.000000000               0.000000000               0.000059785               0.005941529              -0.000360001              -0.000720270               0.002220580               0.001500310               0.000000000               0.000000000               0.000000000               0.000000000               0.000024426               0.005665644              -0.000274387              -0.000699044               0.002121544               0.001422500               0.000000000               0.000000000               0.000000000               0.000000000               0.000005145               0.005395614              -0.000157695              -0.000672521               0.002022694               0.001350173               0.000000000               0.000000000               0.000000000               0.000000000              -0.000017530               0.005214558              -0.000094679              -0.000658392               0.001957633               0.001299241               0.000000000               0.000000000               0.000000000               0.000000000               0.002249813               0.016699905               0.003445906              -0.001243807               0.005981181               0.004737374               0.000000000               0.000000000               0.000000000               0.000000000               0.001525037               0.013700603               0.001826394              -0.001140684               0.004947050               0.003806365               0.000000000               0.000000000               0.000000000               0.000000000               0.001330670               0.011525761               0.000242741              -0.000941716               0.004155787               0.003214071               0.000000000               0.000000000               0.000000000               0.000000000               0.001005022               0.010238834              -0.000377808              -0.000902969               0.003713900               0.002810931               0.000000000               0.000000000               0.000000000               0.000000000               0.000714044               0.009381425              -0.000612918              -0.000904909               0.003428747               0.002523838               0.000000000               0.000000000               0.000000000               0.000000000               0.000482690               0.008754195              -0.000690204              -0.000913264               0.003222457               0.002309194               0.000000000               0.000000000               0.000000000               0.000000000               0.000308645               0.008259089              -0.000698320              -0.000916642               0.003058549               0.002141907               0.000000000               0.000000000               0.000000000               0.000000000               0.000182502               0.007843454              -0.000674669              -0.000911991               0.002918455               0.002006464               0.000000000               0.000000000               0.000000000               0.000000000               0.000096190               0.007484186              -0.000640523              -0.000899450               0.002794520               0.001895070               0.000000000               0.000000000               0.000000000               0.000000000               0.000037781               0.007165652              -0.000603933              -0.000881537               0.002682372               0.001800836               0.000000000               0.000000000               0.000000000               0.000000000              -0.000002675               0.006873493              -0.000563440              -0.000860188               0.002577871               0.001717683               0.000000000               0.000000000               0.000000000               0.000000000              -0.000028566               0.006597297              -0.000515945              -0.000835373               0.002477535               0.001642162               0.000000000               0.000000000               0.000000000               0.000000000              -0.000035453               0.006338961              -0.000454786              -0.000805663               0.002381520               0.001575857               0.000000000               0.000000000               0.000000000               0.000000000              -0.000027767               0.006106548              -0.000376337              -0.000773729               0.002293405               0.001519676               0.000000000               0.000000000               0.000000000               0.000000000              -0.000014559               0.005908795              -0.000282101              -0.000744057               0.002217598               0.001473541               0.000000000               0.000000000               0.000000000               0.000000000              -0.000006327               0.005755520              -0.000159653              -0.000721811               0.002159091               0.001437280               0.000000000               0.000000000               0.000000000               0.000000000              -0.000008172               0.005680344              -0.000090424              -0.000713106               0.002131131               0.001418025               0.000000000               0.000000000               0.000000000               0.000000000               0.002359947               0.014560216               0.003920672              -0.000935048               0.005165039               0.004229991               0.000000000               0.000000000               0.000000000               0.000000000               0.001255553               0.012355377               0.002122021              -0.001073588               0.004476280               0.003402692               0.000000000               0.000000000               0.000000000               0.000000000               0.000654680               0.010930442               0.000384022              -0.001120797               0.004017043               0.002896246               0.000000000               0.000000000               0.000000000               0.000000000               0.000247064               0.009973042              -0.000263050              -0.001153978               0.003708973               0.002554995               0.000000000               0.000000000               0.000000000               0.000000000              -0.000006000               0.009264362              -0.000502412              -0.001160292               0.003474854               0.002314562               0.000000000               0.000000000               0.000000000               0.000000000              -0.000159360               0.008704678              -0.000582589              -0.001147842               0.003284144               0.002136302               0.000000000               0.000000000               0.000000000               0.000000000              -0.000245307               0.008242567              -0.000593275              -0.001122308               0.003121597               0.001999289               0.000000000               0.000000000               0.000000000               0.000000000              -0.000282571               0.007845417              -0.000572216              -0.001086639               0.002977326               0.001890687               0.000000000               0.000000000               0.000000000               0.000000000              -0.000282059               0.007496741              -0.000541696              -0.001042862               0.002846509               0.001803647               0.000000000               0.000000000               0.000000000               0.000000000              -0.000261891               0.007182723              -0.000507676              -0.000996047               0.002726233               0.001730186               0.000000000               0.000000000               0.000000000               0.000000000              -0.000230543               0.006894244              -0.000467338              -0.000948232               0.002614136               0.001665904               0.000000000               0.000000000               0.000000000               0.000000000              -0.000187185               0.006631898              -0.000418177              -0.000899179               0.002510337               0.001611158               0.000000000               0.000000000               0.000000000               0.000000000              -0.000134916               0.006403994              -0.000358017              -0.000851091               0.002418340               0.001567250               0.000000000               0.000000000               0.000000000               0.000000000              -0.000084908               0.006221153              -0.000285327              -0.000809483               0.002343524               0.001534042               0.000000000               0.000000000               0.000000000               0.000000000              -0.000045254               0.006089067              -0.000203045              -0.000778102               0.002289036               0.001510934               0.000000000               0.000000000               0.000000000               0.000000000              -0.000016886               0.006013597              -0.000108632              -0.000758030               0.002257189               0.001499159               0.000000000               0.000000000               0.000000000               0.000000000              -0.000003606               0.005994504              -0.000056351              -0.000750663               0.002248369               0.001497706               0.000000000               0.000000000               0.000000000               0.000000000               0.002288044               0.012261148               0.004005786              -0.000674629               0.004311884               0.003637255               0.000000000               0.000000000               0.000000000               0.000000000               0.000883274               0.010929649               0.002254971              -0.001034977               0.003988172               0.002953195               0.000000000               0.000000000               0.000000000               0.000000000              -0.000055492               0.010275906               0.000574291              -0.001305295               0.003860366               0.002555071               0.000000000               0.000000000               0.000000000               0.000000000              -0.000477565               0.009631416              -0.000026365              -0.001383010               0.003671443               0.002288433               0.000000000               0.000000000               0.000000000               0.000000000              -0.000647942               0.009059111              -0.000252927              -0.001375364               0.003478128               0.002102764               0.000000000               0.000000000               0.000000000               0.000000000              -0.000696744               0.008563988              -0.000339726              -0.001331774               0.003298559               0.001966785               0.000000000               0.000000000               0.000000000               0.000000000              -0.000682789               0.008135204              -0.000363374              -0.001272943               0.003136022               0.001863079               0.000000000               0.000000000               0.000000000               0.000000000              -0.000631831               0.007756631              -0.000353055              -0.001206513               0.002987689               0.001781176               0.000000000               0.000000000               0.000000000               0.000000000              -0.000553744               0.007418609              -0.000331295              -0.001134977               0.002851171               0.001716194               0.000000000               0.000000000               0.000000000               0.000000000              -0.000458111               0.007112808              -0.000304713              -0.001060890               0.002724542               0.001663652               0.000000000               0.000000000               0.000000000               0.000000000              -0.000359000               0.006833574              -0.000272561              -0.000988819               0.002607442               0.001618622               0.000000000               0.000000000               0.000000000               0.000000000              -0.000262369               0.006591966              -0.000234131              -0.000922382               0.002504760               0.001582379               0.000000000               0.000000000               0.000000000               0.000000000              -0.000176529               0.006398144              -0.000190158              -0.000865964               0.002421348               0.001555384               0.000000000               0.000000000               0.000000000               0.000000000              -0.000109947               0.006250544              -0.000141357              -0.000822546               0.002357676               0.001535130               0.000000000               0.000000000               0.000000000               0.000000000              -0.000062686               0.006146832              -0.000092717              -0.000791859               0.002312877               0.001521017               0.000000000               0.000000000               0.000000000               0.000000000              -0.000026604               0.006078989              -0.000044792              -0.000769848               0.002282925               0.001513077               0.000000000               0.000000000               0.000000000               0.000000000              -0.000017772               0.006042274              -0.000024429              -0.000761947               0.002268054               0.001506107               0.000000000               0.000000000               0.000000000               0.000000000               0.001971786               0.009990584               0.003761978              -0.000509406               0.003499962               0.002990556               0.000000000               0.000000000               0.000000000               0.000000000               0.000418328               0.009530850               0.002264238              -0.001034482               0.003521745               0.002487263               0.000000000               0.000000000               0.000000000               0.000000000              -0.000723513               0.009590501               0.000812784              -0.001470126               0.003686844               0.002216717               0.000000000               0.000000000               0.000000000               0.000000000              -0.001077508               0.009212193               0.000292005              -0.001555586               0.003589229               0.002033643               0.000000000               0.000000000               0.000000000               0.000000000              -0.001130284               0.008759851               0.000076226              -0.001518834               0.003426199               0.001907365               0.000000000               0.000000000               0.000000000               0.000000000              -0.001067728               0.008327066              -0.000024793              -0.001441278               0.003256087               0.001814809               0.000000000               0.000000000               0.000000000               0.000000000              -0.000960727               0.007932370              -0.000069041              -0.001351816               0.003094702               0.001742887               0.000000000               0.000000000               0.000000000               0.000000000              -0.000827148               0.007576793              -0.000078666              -0.001257276               0.002944664               0.001687388               0.000000000               0.000000000               0.000000000               0.000000000              -0.000680032               0.007256393              -0.000076826              -0.001162058               0.002806126               0.001644068               0.000000000               0.000000000               0.000000000               0.000000000              -0.000531154               0.006968356              -0.000068602              -0.001070224               0.002679504               0.001609279               0.000000000               0.000000000               0.000000000               0.000000000              -0.000394164               0.006715723              -0.000055685              -0.000987274               0.002567643               0.001580369               0.000000000               0.000000000               0.000000000               0.000000000              -0.000274619               0.006502358              -0.000045432              -0.000915775               0.002472689               0.001556914               0.000000000               0.000000000               0.000000000               0.000000000              -0.000180855               0.006324381              -0.000036368              -0.000858366               0.002394228               0.001535862               0.000000000               0.000000000               0.000000000               0.000000000              -0.000117500               0.006176432              -0.000028124              -0.000816114               0.002330828               0.001514714               0.000000000               0.000000000               0.000000000               0.000000000              -0.000074609               0.006052360              -0.000023840              -0.000784521               0.002278940               0.001494419               0.000000000               0.000000000               0.000000000               0.000000000              -0.000036533               0.005941002              -0.000015329              -0.000756323               0.002232422               0.001476099               0.000000000               0.000000000               0.000000000               0.000000000              -0.000034615               0.005862080              -0.000018658              -0.000745739               0.002202587               0.001456848               0.000000000               0.000000000               0.000000000               0.000000000               0.001434182               0.007884289               0.003275038              -0.000447720               0.002777309               0.002329589               0.000000000               0.000000000               0.000000000               0.000000000              -0.000108203               0.008242190               0.002191105              -0.001070849               0.003104318               0.002033469               0.000000000               0.000000000               0.000000000               0.000000000              -0.001279314               0.008892670               0.001093795              -0.001591323               0.003494635               0.001903312               0.000000000               0.000000000               0.000000000               0.000000000              -0.001494829               0.008722630               0.000649592              -0.001650886               0.003457809               0.001806924               0.000000000               0.000000000               0.000000000               0.000000000              -0.001415488               0.008377782               0.000429354              -0.001578027               0.003318575               0.001740548               0.000000000               0.000000000               0.000000000               0.000000000              -0.001250968               0.008010773               0.000304368              -0.001470456               0.003160383               0.001689927               0.000000000               0.000000000               0.000000000               0.000000000              -0.001065061               0.007658254               0.000229664              -0.001356676               0.003004951               0.001648275               0.000000000               0.000000000               0.000000000               0.000000000              -0.000868107               0.007332417               0.000188499              -0.001242089               0.002858144               0.001616055               0.000000000               0.000000000               0.000000000               0.000000000              -0.000670192               0.007038412               0.000160088              -0.001131121               0.002723154               0.001592033               0.000000000               0.000000000               0.000000000               0.000000000              -0.000491692               0.006776461               0.000135418              -0.001031440               0.002602611               0.001571171               0.000000000               0.000000000               0.000000000               0.000000000              -0.000343695               0.006539557               0.000111501              -0.000946328               0.002495273               0.001548945               0.000000000               0.000000000               0.000000000               0.000000000              -0.000238095               0.006321923               0.000084856              -0.000879524               0.002400461               0.001520937               0.000000000               0.000000000               0.000000000               0.000000000              -0.000173113               0.006123087               0.000055190              -0.000830301               0.002317775               0.001487474               0.000000000               0.000000000               0.000000000               0.000000000              -0.000131750               0.005943979               0.000023937              -0.000792402               0.002245441               0.001453039               0.000000000               0.000000000               0.000000000               0.000000000              -0.000099149               0.005779616              -0.000001245              -0.000759631               0.002179730               0.001420099               0.000000000               0.000000000               0.000000000               0.000000000              -0.000058984               0.005630592              -0.000011041              -0.000725941               0.002118826               0.001392884               0.000000000               0.000000000               0.000000000               0.000000000              -0.000047466               0.005537058              -0.000020183              -0.000709930               0.002082311               0.001372381               0.000000000               0.000000000               0.000000000               0.000000000               0.000767743               0.006095525               0.002640473              -0.000474038               0.002189833               0.001715795               0.000000000               0.000000000               0.000000000               0.000000000              -0.000616516               0.007092464               0.002084999              -0.001117750               0.002736714               0.001618964               0.000000000               0.000000000               0.000000000               0.000000000              -0.001686570               0.008211623               0.001422185              -0.001658913               0.003290151               0.001631238               0.000000000               0.000000000               0.000000000               0.000000000              -0.001749191               0.008254928               0.001029081              -0.001687809               0.003314218               0.001626409               0.000000000               0.000000000               0.000000000               0.000000000              -0.001561890               0.008031555               0.000784795              -0.001589649               0.003207041               0.001617392               0.000000000               0.000000000               0.000000000               0.000000000              -0.001320164               0.007745202               0.000625524              -0.001463208               0.003069444               0.001606236               0.000000000               0.000000000               0.000000000               0.000000000              -0.001076245               0.007446022               0.000515673              -0.001334341               0.002926763               0.001592422               0.000000000               0.000000000               0.000000000               0.000000000              -0.000833731               0.007155112               0.000435573              -0.001207035               0.002787358               0.001580323               0.000000000               0.000000000               0.000000000               0.000000000              -0.000599914               0.006892793               0.000368054              -0.001086564               0.002659763               0.001573199               0.000000000               0.000000000               0.000000000               0.000000000              -0.000404148               0.006639820               0.000306852              -0.000981531               0.002540428               0.001558897               0.000000000               0.000000000               0.000000000               0.000000000              -0.000265806               0.006383970               0.000249750              -0.000897671               0.002427193               0.001529521               0.000000000               0.000000000               0.000000000               0.000000000              -0.000179991               0.006142694               0.000190642              -0.000835331               0.002325988               0.001490657               0.000000000               0.000000000               0.000000000               0.000000000              -0.000139405               0.005918623               0.000127412              -0.000792103               0.002236889               0.001444786               0.000000000               0.000000000               0.000000000               0.000000000              -0.000132529               0.005705766               0.000067434              -0.000762917               0.002156209               0.001393292               0.000000000               0.000000000               0.000000000               0.000000000              -0.000139477               0.005502429               0.000022499              -0.000740106               0.002080827               0.001340721               0.000000000               0.000000000               0.000000000               0.000000000              -0.000136589               0.005320958              -0.000000915              -0.000716339               0.002012415               0.001296076               0.000000000               0.000000000               0.000000000               0.000000000              -0.000128327               0.005227312              -0.000009523              -0.000701535               0.001976265               0.001274730               0.000000000               0.000000000               0.000000000               0.000000000              -0.000047296               0.004415307               0.001952776              -0.000569650               0.001661637               0.001091987               0.000000000               0.000000000               0.000000000               0.000000000              -0.001025149               0.005763671               0.001962005              -0.001104888               0.002289500               0.001184612               0.000000000               0.000000000               0.000000000               0.000000000              -0.001891440               0.007220167               0.001777979              -0.001611807               0.002943967               0.001332160               0.000000000               0.000000000               0.000000000               0.000000000              -0.001873448               0.007568908               0.001449135              -0.001648653               0.003072495               0.001423842               0.000000000               0.000000000               0.000000000               0.000000000              -0.001642159               0.007553291               0.001178661              -0.001559968               0.003037728               0.001477760               0.000000000               0.000000000               0.000000000               0.000000000              -0.001371003               0.007415987               0.000976471              -0.001441121               0.002952344               0.001511223               0.000000000               0.000000000               0.000000000               0.000000000              -0.001110587               0.007226899               0.000826261              -0.001319829               0.002848885               0.001529056               0.000000000               0.000000000               0.000000000               0.000000000              -0.000859699               0.007022988               0.000706315              -0.001200258               0.002741058               0.001540801               0.000000000               0.000000000               0.000000000               0.000000000              -0.000622661               0.006815805               0.000602291              -0.001085471               0.002633736               0.001548265               0.000000000               0.000000000               0.000000000               0.000000000              -0.000422467               0.006580271               0.000505955              -0.000980957               0.002520387               0.001539430               0.000000000               0.000000000               0.000000000               0.000000000              -0.000275278               0.006325183               0.000412235              -0.000893875               0.002406331               0.001512457               0.000000000               0.000000000               0.000000000               0.000000000              -0.000185876               0.006070649               0.000319665              -0.000828533               0.002299707               0.001471174               0.000000000               0.000000000               0.000000000               0.000000000              -0.000149088               0.005827025               0.000225179              -0.000784284               0.002203750               0.001419466               0.000000000               0.000000000               0.000000000               0.000000000              -0.000155385               0.005597566               0.000136775              -0.000757963               0.002118491               0.001360528               0.000000000               0.000000000               0.000000000               0.000000000              -0.000190888               0.005381090               0.000068305              -0.000744217               0.002041751               0.001297534               0.000000000               0.000000000               0.000000000               0.000000000              -0.000236017               0.005183447               0.000023838              -0.000736435               0.001973277               0.001236841               0.000000000               0.000000000               0.000000000               0.000000000              -0.000257502               0.005086160               0.000006255              -0.000732331               0.001939480               0.001207149               0.000000000               0.000000000               0.000000000               0.000000000              -0.001134692               0.002877805               0.001253789              -0.000785234               0.001221003               0.000435769               0.000000000               0.000000000               0.000000000               0.000000000              -0.001489082               0.004432024               0.001773626              -0.001112407               0.001848128               0.000735721               0.000000000               0.000000000               0.000000000               0.000000000              -0.002012531               0.006082877               0.002056142              -0.001515056               0.002532623               0.001017568               0.000000000               0.000000000               0.000000000               0.000000000              -0.001924953               0.006722000               0.001850054              -0.001562104               0.002761345               0.001199241               0.000000000               0.000000000               0.000000000               0.000000000              -0.001675652               0.006946234               0.001583049              -0.001496646               0.002814270               0.001317624               0.000000000               0.000000000               0.000000000               0.000000000              -0.001398008               0.006989769               0.001349026              -0.001397971               0.002795890               0.001397919               0.000000000               0.000000000               0.000000000               0.000000000              -0.001134960               0.006940638               0.001162388              -0.001293187               0.002744585               0.001451398               0.000000000               0.000000000               0.000000000               0.000000000              -0.000887927               0.006846897               0.001009404              -0.001188832               0.002678553               0.001489721               0.000000000               0.000000000               0.000000000               0.000000000              -0.000651171               0.006721042               0.000876387              -0.001084317               0.002601764               0.001517447               0.000000000               0.000000000               0.000000000               0.000000000              -0.000444466               0.006539608               0.000754380              -0.000984123               0.002507889               0.001523765               0.000000000               0.000000000               0.000000000               0.000000000              -0.000279798               0.006317566               0.000634353              -0.000894618               0.002404040               0.001509422               0.000000000               0.000000000               0.000000000               0.000000000              -0.000164638               0.006078597               0.000513963              -0.000821562               0.002300033               0.001478471               0.000000000               0.000000000               0.000000000               0.000000000              -0.000102397               0.005835177               0.000391590              -0.000767794               0.002200971               0.001433177               0.000000000               0.000000000               0.000000000               0.000000000              -0.000093705               0.005598355               0.000271891              -0.000734932               0.002111077               0.001376145               0.000000000               0.000000000               0.000000000               0.000000000              -0.000138159               0.005375336               0.000164285              -0.000723725               0.002033002               0.001309277               0.000000000               0.000000000               0.000000000               0.000000000              -0.000227357               0.005175813               0.000073113              -0.000732234               0.001969332               0.001237098               0.000000000               0.000000000               0.000000000               0.000000000              -0.000297824               0.005070764               0.000025438              -0.000745528               0.001938747               0.001193219               0.000000000               0.000000000               0.000000000               0.000000000              -0.002413766               0.001599677               0.000595022              -0.001105120               0.000901593              -0.000203527               0.000000000               0.000000000               0.000000000               0.000000000              -0.002057820               0.003176371               0.001494474              -0.001168727               0.001448354               0.000279628               0.000000000               0.000000000               0.000000000               0.000000000              -0.002088256               0.004817985               0.002157082              -0.001385342               0.002067759               0.000682417               0.000000000               0.000000000               0.000000000               0.000000000              -0.001875144               0.005667210               0.002108863              -0.001411578               0.002359576               0.000947999               0.000000000               0.000000000               0.000000000               0.000000000              -0.001599668               0.006114268               0.001890587              -0.001364156               0.002492787               0.001128631               0.000000000               0.000000000               0.000000000               0.000000000              -0.001323019               0.006348648               0.001657650              -0.001289711               0.002546098               0.001256387               0.000000000               0.000000000               0.000000000               0.000000000              -0.001062952               0.006459966               0.001453445              -0.001206100               0.002555334               0.001349233               0.000000000               0.000000000               0.000000000               0.000000000              -0.000820361               0.006497100               0.001281740              -0.001119771               0.002538935               0.001419165               0.000000000               0.000000000               0.000000000               0.000000000              -0.000594864               0.006475046               0.001131217              -0.001032453               0.002502478               0.001470025               0.000000000               0.000000000               0.000000000               0.000000000              -0.000393463               0.006379550               0.000991022              -0.000944990               0.002441492               0.001496502               0.000000000               0.000000000               0.000000000               0.000000000              -0.000218476               0.006224533               0.000855145              -0.000859993               0.002361488               0.001501495               0.000000000               0.000000000               0.000000000               0.000000000              -0.000079826               0.006027105               0.000720043              -0.000783321               0.002270122               0.001486801               0.000000000               0.000000000               0.000000000               0.000000000               0.000014727               0.005811655               0.000580038              -0.000720933               0.002177510               0.001456577               0.000000000               0.000000000               0.000000000               0.000000000               0.000058638               0.005591671               0.000434593              -0.000676968               0.002089528               0.001412560               0.000000000               0.000000000               0.000000000               0.000000000               0.000040941               0.005371229               0.000287571              -0.000656049               0.002009075               0.001353026               0.000000000               0.000000000               0.000000000               0.000000000              -0.000043763               0.005170576               0.000141712              -0.000662732               0.001944419               0.001281687               0.000000000               0.000000000               0.000000000               0.000000000              -0.000131942               0.005059008               0.000059698              -0.000681852               0.001913603               0.001231751               0.000000000               0.000000000               0.000000000               0.000000000              -0.003785498               0.000649008               0.000063120              -0.001500686               0.000716560              -0.000784126               0.000000000               0.000000000               0.000000000               0.000000000              -0.002694661               0.002065299               0.001158175              -0.001268658               0.001111311              -0.000157347               0.000000000               0.000000000               0.000000000               0.000000000              -0.002141377               0.003530393               0.002054308              -0.001244313               0.001591556               0.000347243               0.000000000               0.000000000               0.000000000               0.000000000              -0.001743517               0.004487811               0.002153495              -0.001214793               0.001900852               0.000686059               0.000000000               0.000000000               0.000000000               0.000000000              -0.001416739               0.005109762               0.002011005              -0.001169996               0.002093235               0.000923239               0.000000000               0.000000000               0.000000000               0.000000000              -0.001136387               0.005515773               0.001812904              -0.001115615               0.002210443               0.001094829               0.000000000               0.000000000               0.000000000               0.000000000              -0.000885495               0.005782135               0.001621225              -0.001054826               0.002278967               0.001224142               0.000000000               0.000000000               0.000000000               0.000000000              -0.000651328               0.005962780               0.001449334              -0.000989594               0.002317438               0.001327844               0.000000000               0.000000000               0.000000000               0.000000000              -0.000437599               0.006063570               0.001294299              -0.000922044               0.002328518               0.001406474               0.000000000               0.000000000               0.000000000               0.000000000              -0.000246927               0.006070392               0.001152515              -0.000851395               0.002307242               0.001455847               0.000000000               0.000000000               0.000000000               0.000000000              -0.000068421               0.006007220               0.001015834              -0.000776559               0.002261239               0.001484681               0.000000000               0.000000000               0.000000000               0.000000000               0.000091066               0.005888780               0.000876185              -0.000701946               0.002196889               0.001494943               0.000000000               0.000000000               0.000000000               0.000000000               0.000219674               0.005730448               0.000730397              -0.000633927               0.002121439               0.001487512               0.000000000               0.000000000               0.000000000               0.000000000               0.000312233               0.005548759               0.000575124              -0.000576506               0.002041736               0.001465230               0.000000000               0.000000000               0.000000000               0.000000000               0.000356444               0.005355959               0.000404438              -0.000535827               0.001963911               0.001428084               0.000000000               0.000000000               0.000000000               0.000000000               0.000335781               0.005169756               0.000211377              -0.000520300               0.001896668               0.001376368               0.000000000               0.000000000               0.000000000               0.000000000               0.000286307               0.005067340               0.000102588              -0.000526051               0.001864447               0.001338396               0.000000000               0.000000000               0.000000000               0.000000000              -0.005114006               0.000017406              -0.000266136              -0.001919926               0.000645773              -0.001274153               0.000000000               0.000000000               0.000000000               0.000000000              -0.003341101               0.001161598               0.000812166              -0.001398111               0.000853230              -0.000544881               0.000000000               0.000000000               0.000000000               0.000000000              -0.002190683               0.002341811               0.001747387              -0.001114231               0.001152005               0.000037774               0.000000000               0.000000000               0.000000000               0.000000000              -0.001569013               0.003311481               0.001939401              -0.001002314               0.001437920               0.000435606               0.000000000               0.000000000               0.000000000               0.000000000              -0.001163781               0.004044787               0.001874132              -0.000942015               0.001662253               0.000720238               0.000000000               0.000000000               0.000000000               0.000000000              -0.000861827               0.004585184               0.001731341              -0.000896332               0.001827156               0.000930824               0.000000000               0.000000000               0.000000000               0.000000000              -0.000617410               0.004987641               0.001576091              -0.000854983               0.001947524               0.001092542               0.000000000               0.000000000               0.000000000               0.000000000              -0.000399097               0.005302721               0.001427421              -0.000812500               0.002038389               0.001225889               0.000000000               0.000000000               0.000000000               0.000000000              -0.000197323               0.005522681               0.001289908              -0.000764330               0.002095652               0.001331322               0.000000000               0.000000000               0.000000000               0.000000000              -0.000013892               0.005637322               0.001164315              -0.000709873               0.002115713               0.001405839               0.000000000               0.000000000               0.000000000               0.000000000               0.000160285               0.005675546               0.001041936              -0.000649335               0.002108275               0.001458939               0.000000000               0.000000000               0.000000000               0.000000000               0.000328670               0.005651455               0.000912781              -0.000583180               0.002078193               0.001495013               0.000000000               0.000000000               0.000000000               0.000000000               0.000491798               0.005575045               0.000777996              -0.000512455               0.002029148               0.001516693               0.000000000               0.000000000               0.000000000               0.000000000               0.000642178               0.005454779               0.000632028              -0.000441030               0.001965251               0.001524222               0.000000000               0.000000000               0.000000000               0.000000000               0.000771099               0.005310903               0.000460630              -0.000374700               0.001895183               0.001520483               0.000000000               0.000000000               0.000000000               0.000000000               0.000867841               0.005157871               0.000249764              -0.000319293               0.001825704               0.001506411               0.000000000               0.000000000               0.000000000               0.000000000               0.000917499               0.005080984               0.000134400              -0.000291060               0.001790665               0.001499604               0.000000000               0.000000000               0.000000000               0.000000000              -0.006240013              -0.000348624              -0.000359340              -0.002296425               0.000649262              -0.001647163               0.000000000               0.000000000               0.000000000               0.000000000              -0.003912288               0.000504864               0.000497645              -0.001530214               0.000678354              -0.000851860               0.000000000               0.000000000               0.000000000               0.000000000              -0.002241129               0.001379073               0.001267561              -0.001012806               0.000797287              -0.000215519               0.000000000               0.000000000               0.000000000               0.000000000              -0.001397962               0.002299345               0.001468335              -0.000811653               0.001036991               0.000225338               0.000000000               0.000000000               0.000000000               0.000000000              -0.000902709               0.003086587               0.001456449              -0.000724338               0.001270297               0.000545959               0.000000000               0.000000000               0.000000000               0.000000000              -0.000570146               0.003718200               0.001369678              -0.000678579               0.001465580               0.000787001               0.000000000               0.000000000               0.000000000               0.000000000              -0.000322016               0.004222573               0.001263011              -0.000648577               0.001623702               0.000975126               0.000000000               0.000000000               0.000000000               0.000000000              -0.000111789               0.004640329               0.001157388              -0.000621961               0.001754081               0.001132120               0.000000000               0.000000000               0.000000000               0.000000000               0.000076763               0.004958907               0.001057536              -0.000591076               0.001849978               0.001258901               0.000000000               0.000000000               0.000000000               0.000000000               0.000249420               0.005169698               0.000963467              -0.000552679               0.001907441               0.001354763               0.000000000               0.000000000               0.000000000               0.000000000               0.000417022               0.005300725               0.000869006              -0.000506207               0.001935626               0.001429419               0.000000000               0.000000000               0.000000000               0.000000000               0.000591468               0.005364309               0.000770947              -0.000448737               0.001937664               0.001488927               0.000000000               0.000000000               0.000000000               0.000000000               0.000780765               0.005372959               0.000667986              -0.000378832               0.001917246               0.001538413               0.000000000               0.000000000               0.000000000               0.000000000               0.000983808               0.005330399               0.000552270              -0.000297371               0.001875906               0.001578534               0.000000000               0.000000000               0.000000000               0.000000000               0.001204253               0.005246883               0.000412834              -0.000204265               0.001817032               0.001612767               0.000000000               0.000000000               0.000000000               0.000000000               0.001439913               0.005133431               0.000231243              -0.000101711               0.001745030               0.001643319               0.000000000               0.000000000               0.000000000               0.000000000               0.001615681               0.005088414               0.000134117              -0.000030171               0.001706178               0.001676007               0.000000000               0.000000000               0.000000000               0.000000000              -0.007003657              -0.000524382              -0.000241316              -0.002560822               0.000678809              -0.001882013               0.000000000               0.000000000               0.000000000               0.000000000              -0.004310692               0.000109681               0.000231714              -0.001630218               0.000579962              -0.001050256               0.000000000               0.000000000               0.000000000               0.000000000              -0.002278945               0.000750278               0.000664482              -0.000948388               0.000566218              -0.000382170               0.000000000               0.000000000               0.000000000               0.000000000              -0.001268551               0.001610991               0.000790660              -0.000677079               0.000762684               0.000085605               0.000000000               0.000000000               0.000000000               0.000000000              -0.000701989               0.002416143               0.000797969              -0.000565263               0.000993793               0.000428531               0.000000000               0.000000000               0.000000000               0.000000000              -0.000345577               0.003097974               0.000758698              -0.000516837               0.001204927               0.000688089               0.000000000               0.000000000               0.000000000               0.000000000              -0.000089361               0.003665356               0.000704872              -0.000491679               0.001385666               0.000893987               0.000000000               0.000000000               0.000000000               0.000000000               0.000119891               0.004146543               0.000650793              -0.000473358               0.001539953               0.001066595               0.000000000               0.000000000               0.000000000               0.000000000               0.000299419               0.004529077               0.000599289              -0.000453852               0.001660961               0.001207109               0.000000000               0.000000000               0.000000000               0.000000000               0.000461149               0.004804849               0.000548928              -0.000427674               0.001744158               0.001316484               0.000000000               0.000000000               0.000000000               0.000000000               0.000624065               0.004998021               0.000497589              -0.000390727               0.001796233               0.001405505               0.000000000               0.000000000               0.000000000               0.000000000               0.000804375               0.005125069               0.000444491              -0.000338992               0.001821337               0.001482344               0.000000000               0.000000000               0.000000000               0.000000000               0.001012406               0.005199724               0.000387110              -0.000270313               0.001823328               0.001553016               0.000000000               0.000000000               0.000000000               0.000000000               0.001255357               0.005220379               0.000324296              -0.000181788               0.001800705               0.001618917               0.000000000               0.000000000               0.000000000               0.000000000               0.001544050               0.005189793               0.000246878              -0.000069705               0.001753149               0.001683443               0.000000000               0.000000000               0.000000000               0.000000000               0.001890285               0.005110654               0.000139290               0.000070024               0.001680193               0.001750217               0.000000000               0.000000000               0.000000000               0.000000000               0.002172300               0.005090542               0.000082677               0.000178293               0.001637399               0.001815692               0.000000000               0.000000000               0.000000000               0.000000000              -0.007275443              -0.000575411               0.000000000              -0.002656363               0.000693646              -0.001962717               0.000000000               0.000000000               0.000000000               0.000000000              -0.004454330              -0.000023695               0.000000000              -0.001667410               0.000547901              -0.001119509               0.000000000               0.000000000               0.000000000               0.000000000              -0.002292212               0.000529601              -0.000000000              -0.000925779               0.000485123              -0.000440655               0.000000000               0.000000000               0.000000000               0.000000000              -0.001217531               0.001368714              -0.000000000              -0.000627662               0.000665454               0.000037792               0.000000000               0.000000000               0.000000000               0.000000000              -0.000623610               0.002179293              -0.000000000              -0.000506264               0.000895178               0.000388914               0.000000000               0.000000000               0.000000000               0.000000000              -0.000259335               0.002873690               0.000000000              -0.000456461               0.001110041               0.000653580               0.000000000               0.000000000               0.000000000               0.000000000              -0.000000891               0.003459861              -0.000000000              -0.000432816               0.001297547               0.000864732               0.000000000               0.000000000               0.000000000               0.000000000               0.000207892               0.003963362               0.000000000              -0.000417460               0.001460261               0.001042801               0.000000000               0.000000000               0.000000000               0.000000000               0.000385390               0.004370005               0.000000000              -0.000401728               0.001590563               0.001188835               0.000000000               0.000000000               0.000000000               0.000000000               0.000542972               0.004667870               0.000000000              -0.000379868               0.001682564               0.001302696               0.000000000               0.000000000               0.000000000               0.000000000               0.000704469               0.004881236              -0.000000000              -0.000345978               0.001742388               0.001396410               0.000000000               0.000000000               0.000000000               0.000000000               0.000885839               0.005030945               0.000000000              -0.000296678               0.001775857               0.001479180               0.000000000               0.000000000               0.000000000               0.000000000               0.001101917               0.005128626               0.000000000              -0.000227859               0.001785478               0.001557619               0.000000000               0.000000000               0.000000000               0.000000000               0.001361555               0.005173287               0.000000000              -0.000136077               0.001769771               0.001633694               0.000000000               0.000000000               0.000000000               0.000000000               0.001673211               0.005165059              -0.000000000              -0.000018178               0.001727728               0.001709550               0.000000000               0.000000000               0.000000000               0.000000000               0.002060591               0.005099763              -0.000000000               0.000135250               0.001654821               0.001790070               0.000000000               0.000000000               0.000000000               0.000000000               0.002385023               0.005089091              -0.000000000               0.000258245               0.001610265               0.001868510               0.000000000               0.000000000               0.000000000               0.000000000               0.001803061               0.020018606               0.000000000              -0.001826173               0.007281526               0.005455353               0.000000000               0.000000000               0.000000000               0.000000000               0.001811153               0.015846940               0.000000000              -0.001301682               0.005716154               0.004414473               0.000000000               0.000000000               0.000000000               0.000000000               0.002393742               0.012481270               0.000000000              -0.000662504               0.004381216               0.003718713               0.000000000               0.000000000               0.000000000               0.000000000               0.002317921               0.010608606              -0.000000000              -0.000456854               0.003688451               0.003231597               0.000000000               0.000000000               0.000000000               0.000000000               0.002051179               0.009450107              -0.000000000              -0.000412070               0.003287361               0.002875291               0.000000000               0.000000000               0.000000000               0.000000000               0.001747330               0.008670489               0.000000000              -0.000428561               0.003032988               0.002604426               0.000000000               0.000000000               0.000000000               0.000000000               0.001454379               0.008105253              -0.000000000              -0.000467763               0.002857645               0.002389882               0.000000000               0.000000000               0.000000000               0.000000000               0.001191957               0.007666554              -0.000000000              -0.000511334               0.002725937               0.002214603               0.000000000               0.000000000               0.000000000               0.000000000               0.000959216               0.007300637              -0.000000000              -0.000552872               0.002617812               0.002064940               0.000000000               0.000000000               0.000000000               0.000000000               0.000759650               0.006973486              -0.000000000              -0.000586816               0.002520077               0.001933262               0.000000000               0.000000000               0.000000000               0.000000000               0.000583582               0.006667417               0.000000000              -0.000614582               0.002427311               0.001812728               0.000000000               0.000000000               0.000000000               0.000000000               0.000422484               0.006368946               0.000000000              -0.000637685               0.002335522               0.001697837               0.000000000               0.000000000               0.000000000               0.000000000               0.000287583               0.006067487               0.000000000              -0.000650591               0.002239339               0.001588748               0.000000000               0.000000000               0.000000000               0.000000000               0.000178115               0.005739915               0.000000000              -0.000650695               0.002130184               0.001479489               0.000000000               0.000000000               0.000000000               0.000000000               0.000092764               0.005370260              -0.000000000              -0.000636494               0.002002233               0.001365739               0.000000000               0.000000000               0.000000000               0.000000000               0.000036424               0.004949848              -0.000000000              -0.000605071               0.001851623               0.001246553               0.000000000               0.000000000               0.000000000               0.000000000              -0.000017087               0.004629341              -0.000000000              -0.000585074               0.001738123               0.001153049               0.000000000               0.000000000               0.000000000               0.000000000               0.001873517               0.019610897              -0.001384451              -0.001748789               0.007119830               0.005371041               0.000000000               0.000000000               0.000000000               0.000000000               0.001783450               0.015579374              -0.000726977              -0.001278625               0.005619281               0.004340656               0.000000000               0.000000000               0.000000000               0.000000000               0.002263203               0.012361296              -0.000070917              -0.000696459               0.004352544               0.003656085               0.000000000               0.000000000               0.000000000               0.000000000               0.002150762               0.010564674               0.000206471              -0.000514047               0.003692872               0.003178824               0.000000000               0.000000000               0.000000000               0.000000000               0.001874910               0.009447224               0.000320908              -0.000477811               0.003308314               0.002830503               0.000000000               0.000000000               0.000000000               0.000000000               0.001576288               0.008689209               0.000362932              -0.000495042               0.003061388               0.002566346               0.000000000               0.000000000               0.000000000               0.000000000               0.001295653               0.008135247               0.000370830              -0.000531035               0.002888734               0.002357699               0.000000000               0.000000000               0.000000000               0.000000000               0.001047839               0.007699390               0.000362728              -0.000569483               0.002756265               0.002186783               0.000000000               0.000000000               0.000000000               0.000000000               0.000835996               0.007333086               0.000346773              -0.000603136               0.002645383               0.002042247               0.000000000               0.000000000               0.000000000               0.000000000               0.000656768               0.007008204               0.000328668              -0.000629736               0.002545957               0.001916221               0.000000000               0.000000000               0.000000000               0.000000000               0.000497412               0.006704495               0.000311518              -0.000651531               0.002451986               0.001800455               0.000000000               0.000000000               0.000000000               0.000000000               0.000354407               0.006408992               0.000293279              -0.000668220               0.002359049               0.001690829               0.000000000               0.000000000               0.000000000               0.000000000               0.000234956               0.006110751               0.000265800              -0.000675734               0.002262141               0.001586407               0.000000000               0.000000000               0.000000000               0.000000000               0.000138580               0.005795750               0.000224284              -0.000672500               0.002156064               0.001483564               0.000000000               0.000000000               0.000000000               0.000000000               0.000066836               0.005454289               0.000171440              -0.000656721               0.002036985               0.001380264               0.000000000               0.000000000               0.000000000               0.000000000               0.000023202               0.005078445               0.000099512              -0.000626103               0.001901499               0.001275396               0.000000000               0.000000000               0.000000000               0.000000000              -0.000020112               0.004798448               0.000062068              -0.000607347               0.001801915               0.001194569               0.000000000               0.000000000               0.000000000               0.000000000               0.002052963               0.018452141              -0.002580628              -0.001536654               0.006662870               0.005126216               0.000000000               0.000000000               0.000000000               0.000000000               0.001695492               0.014823953              -0.001356711              -0.001217182               0.005346995               0.004129814               0.000000000               0.000000000               0.000000000               0.000000000               0.001891862               0.012023418              -0.000145186              -0.000793477               0.004272258               0.003478781               0.000000000               0.000000000               0.000000000               0.000000000               0.001682981               0.010438023               0.000351331              -0.000673633               0.003703851               0.003030217               0.000000000               0.000000000               0.000000000               0.000000000               0.001391016               0.009432710               0.000547758              -0.000657456               0.003363357               0.002705901               0.000000000               0.000000000               0.000000000               0.000000000               0.001110343               0.008731899               0.000616146              -0.000675107               0.003135640               0.002460532               0.000000000               0.000000000               0.000000000               0.000000000               0.000869639               0.008204729               0.000626146              -0.000699475               0.002968041               0.002268566               0.000000000               0.000000000               0.000000000               0.000000000               0.000671806               0.007778099               0.000608238              -0.000720333               0.002832785               0.002112451               0.000000000               0.000000000               0.000000000               0.000000000               0.000510594               0.007412517               0.000579476              -0.000735090               0.002715844               0.001980754               0.000000000               0.000000000               0.000000000               0.000000000               0.000379753               0.007088801               0.000547482              -0.000743691               0.002610807               0.001867116               0.000000000               0.000000000               0.000000000               0.000000000               0.000271493               0.006790085               0.000515157              -0.000746949               0.002512322               0.001765373               0.000000000               0.000000000               0.000000000               0.000000000               0.000180249               0.006502816               0.000478537              -0.000745257               0.002416002               0.001670746               0.000000000               0.000000000               0.000000000               0.000000000               0.000110378               0.006220807               0.000428208              -0.000736207               0.002318984               0.001582777               0.000000000               0.000000000               0.000000000               0.000000000               0.000059785               0.005941529               0.000360001              -0.000720270               0.002220580               0.001500310               0.000000000               0.000000000               0.000000000               0.000000000               0.000024426               0.005665644               0.000274387              -0.000699044               0.002121544               0.001422500               0.000000000               0.000000000               0.000000000               0.000000000               0.000005145               0.005395614               0.000157695              -0.000672521               0.002022694               0.001350173               0.000000000               0.000000000               0.000000000               0.000000000              -0.000017530               0.005214558               0.000094679              -0.000658392               0.001957633               0.001299241               0.000000000               0.000000000               0.000000000               0.000000000               0.002249813               0.016699905              -0.003445906              -0.001243807               0.005981181               0.004737374               0.000000000               0.000000000               0.000000000               0.000000000               0.001525037               0.013700603              -0.001826394              -0.001140684               0.004947050               0.003806365               0.000000000               0.000000000               0.000000000               0.000000000               0.001330670               0.011525761              -0.000242741              -0.000941716               0.004155787               0.003214071               0.000000000               0.000000000               0.000000000               0.000000000               0.001005022               0.010238834               0.000377808              -0.000902969               0.003713900               0.002810931               0.000000000               0.000000000               0.000000000               0.000000000               0.000714044               0.009381425               0.000612918              -0.000904909               0.003428747               0.002523838               0.000000000               0.000000000               0.000000000               0.000000000               0.000482690               0.008754195               0.000690204              -0.000913264               0.003222457               0.002309194               0.000000000               0.000000000               0.000000000               0.000000000               0.000308645               0.008259089               0.000698320              -0.000916642               0.003058549               0.002141907               0.000000000               0.000000000               0.000000000               0.000000000               0.000182502               0.007843454               0.000674669              -0.000911991               0.002918455               0.002006464               0.000000000               0.000000000               0.000000000               0.000000000               0.000096190               0.007484186               0.000640523              -0.000899450               0.002794520               0.001895070               0.000000000               0.000000000               0.000000000               0.000000000               0.000037781               0.007165652               0.000603933              -0.000881537               0.002682372               0.001800836               0.000000000               0.000000000               0.000000000               0.000000000              -0.000002675               0.006873493               0.000563440              -0.000860188               0.002577871               0.001717683               0.000000000               0.000000000               0.000000000               0.000000000              -0.000028566               0.006597297               0.000515945              -0.000835373               0.002477535               0.001642162               0.000000000               0.000000000               0.000000000               0.000000000              -0.000035453               0.006338961               0.000454786              -0.000805663               0.002381520               0.001575857               0.000000000               0.000000000               0.000000000               0.000000000              -0.000027767               0.006106548               0.000376337              -0.000773729               0.002293405               0.001519676               0.000000000               0.000000000               0.000000000               0.000000000              -0.000014559               0.005908795               0.000282101              -0.000744057               0.002217598               0.001473541               0.000000000               0.000000000               0.000000000               0.000000000              -0.000006327               0.005755520               0.000159653              -0.000721811               0.002159091               0.001437280               0.000000000               0.000000000               0.000000000               0.000000000              -0.000008172               0.005680344               0.000090424              -0.000713106               0.002131131               0.001418025               0.000000000               0.000000000               0.000000000               0.000000000               0.002359947               0.014560216              -0.003920672              -0.000935048               0.005165039               0.004229991               0.000000000               0.000000000               0.000000000               0.000000000               0.001255553               0.012355377              -0.002122021              -0.001073588               0.004476280               0.003402692               0.000000000               0.000000000               0.000000000               0.000000000               0.000654680               0.010930442              -0.000384022              -0.001120797               0.004017043               0.002896246               0.000000000               0.000000000               0.000000000               0.000000000               0.000247064               0.009973042               0.000263050              -0.001153978               0.003708973               0.002554995               0.000000000               0.000000000               0.000000000               0.000000000              -0.000006000               0.009264362               0.000502412              -0.001160292               0.003474854               0.002314562               0.000000000               0.000000000               0.000000000               0.000000000              -0.000159360               0.008704678               0.000582589              -0.001147842               0.003284144               0.002136302               0.000000000               0.000000000               0.000000000               0.000000000              -0.000245307               0.008242567               0.000593275              -0.001122308               0.003121597               0.001999289               0.000000000               0.000000000               0.000000000               0.000000000              -0.000282571               0.007845417               0.000572216              -0.001086639               0.002977326               0.001890687               0.000000000               0.000000000               0.000000000               0.000000000              -0.000282059               0.007496741               0.000541696              -0.001042862               0.002846509               0.001803647               0.000000000               0.000000000               0.000000000               0.000000000              -0.000261891               0.007182723               0.000507676              -0.000996047               0.002726233               0.001730186               0.000000000               0.000000000               0.000000000               0.000000000              -0.000230543               0.006894244               0.000467338              -0.000948232               0.002614136               0.001665904               0.000000000               0.000000000               0.000000000               0.000000000              -0.000187185               0.006631898               0.000418177              -0.000899179               0.002510337               0.001611158               0.000000000               0.000000000               0.000000000               0.000000000              -0.000134916               0.006403994               0.000358017              -0.000851091               0.002418340               0.001567250               0.000000000               0.000000000               0.000000000               0.000000000              -0.000084908               0.006221153               0.000285327              -0.000809483               0.002343524               0.001534042               0.000000000               0.000000000               0.000000000               0.000000000              -0.000045254               0.006089067               0.000203045              -0.000778102               0.002289036               0.001510934               0.000000000               0.000000000               0.000000000               0.000000000              -0.000016886               0.006013597               0.000108632              -0.000758030               0.002257189               0.001499159               0.000000000               0.000000000               0.000000000               0.000000000              -0.000003606               0.005994504               0.000056351              -0.000750663               0.002248369               0.001497706               0.000000000               0.000000000               0.000000000               0.000000000               0.002288044               0.012261148              -0.004005786              -0.000674629               0.004311884               0.003637255               0.000000000               0.000000000               0.000000000               0.000000000               0.000883274               0.010929649              -0.002254971              -0.001034977               0.003988172               0.002953195               0.000000000               0.000000000               0.000000000               0.000000000              -0.000055492               0.010275906              -0.000574291              -0.001305295               0.003860366               0.002555071               0.000000000               0.000000000               0.000000000               0.000000000              -0.000477565               0.009631416               0.000026365              -0.001383010               0.003671443               0.002288433               0.000000000               0.000000000               0.000000000               0.000000000              -0.000647942               0.009059111               0.000252927              -0.001375364               0.003478128               0.002102764               0.000000000               0.000000000               0.000000000               0.000000000              -0.000696744               0.008563988               0.000339726              -0.001331774               0.003298559               0.001966785               0.000000000               0.000000000               0.000000000               0.000000000              -0.000682789               0.008135204               0.000363374              -0.001272943               0.003136022               0.001863079               0.000000000               0.000000000               0.000000000               0.000000000              -0.000631831               0.007756631               0.000353055              -0.001206513               0.002987689               0.001781176               0.000000000               0.000000000               0.000000000               0.000000000              -0.000553744               0.007418609               0.000331295              -0.001134977               0.002851171               0.001716194               0.000000000               0.000000000               0.000000000               0.000000000              -0.000458111               0.007112808               0.000304713              -0.001060890               0.002724542               0.001663652               0.000000000               0.000000000               0.000000000               0.000000000              -0.000359000               0.006833574               0.000272561              -0.000988819               0.002607442               0.001618622               0.000000000               0.000000000               0.000000000               0.000000000              -0.000262369               0.006591966               0.000234131              -0.000922382               0.002504760               0.001582379               0.000000000               0.000000000               0.000000000               0.000000000              -0.000176529               0.006398144               0.000190158              -0.000865964               0.002421348               0.001555384               0.000000000               0.000000000               0.000000000               0.000000000              -0.000109947               0.006250544               0.000141357              -0.000822546               0.002357676               0.001535130               0.000000000               0.000000000               0.000000000               0.000000000              -0.000062686               0.006146832               0.000092717              -0.000791859               0.002312877               0.001521017               0.000000000               0.000000000               0.000000000               0.000000000              -0.000026604               0.006078989               0.000044792              -0.000769848               0.002282925               0.001513077               0.000000000               0.000000000               0.000000000               0.000000000              -0.000017772               0.006042274               0.000024429              -0.000761947               0.002268054               0.001506107               0.000000000               0.000000000               0.000000000               0.000000000               0.001971786               0.009990584              -0.003761978              -0.000509406               0.003499962               0.002990556               0.000000000               0.000000000               0.000000000               0.000000000               0.000418328               0.009530850              -0.002264238              -0.001034482               0.003521745               0.002487263               0.000000000               0.000000000               0.000000000               0.000000000              -0.000723513               0.009590501              -0.000812784              -0.001470126               0.003686844               0.002216717               0.000000000               0.000000000               0.000000000               0.000000000              -0.001077508               0.009212193              -0.000292005              -0.001555586               0.003589229               0.002033643               0.000000000               0.000000000               0.000000000               0.000000000              -0.001130284               0.008759851              -0.000076226              -0.001518834               0.003426199               0.001907365               0.000000000               0.000000000               0.000000000               0.000000000              -0.001067728               0.008327066               0.000024793              -0.001441278               0.003256087               0.001814809               0.000000000               0.000000000               0.000000000               0.000000000              -0.000960727               0.007932370               0.000069041              -0.001351816               0.003094702               0.001742887               0.000000000               0.000000000               0.000000000               0.000000000              -0.000827148               0.007576793               0.000078666              -0.001257276               0.002944664               0.001687388               0.000000000               0.000000000               0.000000000               0.000000000              -0.000680032               0.007256393               0.000076826              -0.001162058               0.002806126               0.001644068               0.000000000               0.000000000               0.000000000               0.000000000              -0.000531154               0.006968356               0.000068602              -0.001070224               0.002679504               0.001609279               0.000000000               0.000000000               0.000000000               0.000000000              -0.000394164               0.006715723               0.000055685              -0.000987274               0.002567643               0.001580369               0.000000000               0.000000000               0.000000000               0.000000000              -0.000274619               0.006502358               0.000045432              -0.000915775               0.002472689               0.001556914               0.000000000               0.000000000               0.000000000               0.000000000              -0.000180855               0.006324381               0.000036368              -0.000858366               0.002394228               0.001535862               0.000000000               0.000000000               0.000000000               0.000000000              -0.000117500               0.006176432               0.000028124              -0.000816114               0.002330828               0.001514714               0.000000000               0.000000000               0.000000000               0.000000000              -0.000074609               0.006052360               0.000023840              -0.000784521               0.002278940               0.001494419               0.000000000               0.000000000               0.000000000               0.000000000              -0.000036533               0.005941002               0.000015329              -0.000756323               0.002232422               0.001476099               0.000000000               0.000000000               0.000000000               0.000000000              -0.000034615               0.005862080               0.000018658              -0.000745739               0.002202587               0.001456848               0.000000000               0.000000000               0.000000000               0.000000000               0.001434182               0.007884289              -0.003275038              -0.000447720               0.002777309               0.002329589               0.000000000               0.000000000               0.000000000               0.000000000              -0.000108203               0.008242190              -0.002191105              -0.001070849               0.003104318               0.002033469               0.000000000               0.000000000               0.000000000               0.000000000              -0.001279314               0.008892670              -0.001093795              -0.001591323               0.003494635               0.001903312               0.000000000               0.000000000               0.000000000               0.000000000              -0.001494829               0.008722630              -0.000649592              -0.001650886               0.003457809               0.001806924               0.000000000               0.000000000               0.000000000               0.000000000              -0.001415488               0.008377782              -0.000429354              -0.001578027               0.003318575               0.001740548               0.000000000               0.000000000               0.000000000               0.000000000              -0.001250968               0.008010773              -0.000304368              -0.001470456               0.003160383               0.001689927               0.000000000               0.000000000               0.000000000               0.000000000              -0.001065061               0.007658254              -0.000229664              -0.001356676               0.003004951               0.001648275               0.000000000               0.000000000               0.000000000               0.000000000              -0.000868107               0.007332417              -0.000188499              -0.001242089               0.002858144               0.001616055               0.000000000               0.000000000               0.000000000               0.000000000              -0.000670192               0.007038412              -0.000160088              -0.001131121               0.002723154               0.001592033               0.000000000               0.000000000               0.000000000               0.000000000              -0.000491692               0.006776461              -0.000135418              -0.001031440               0.002602611               0.001571171               0.000000000               0.000000000               0.000000000               0.000000000              -0.000343695               0.006539557              -0.000111501              -0.000946328               0.002495273               0.001548945               0.000000000               0.000000000               0.000000000               0.000000000              -0.000238095               0.006321923              -0.000084856              -0.000879524               0.002400461               0.001520937               0.000000000               0.000000000               0.000000000               0.000000000              -0.000173113               0.006123087              -0.000055190              -0.000830301               0.002317775               0.001487474               0.000000000               0.000000000               0.000000000               0.000000000              -0.000131750               0.005943979              -0.000023937              -0.000792402               0.002245441               0.001453039               0.000000000               0.000000000               0.000000000               0.000000000              -0.000099149               0.005779616               0.000001245              -0.000759631               0.002179730               0.001420099               0.000000000               0.000000000               0.000000000               0.000000000              -0.000058984               0.005630592               0.000011041              -0.000725941               0.002118826               0.001392884               0.000000000               0.000000000               0.000000000               0.000000000              -0.000047466               0.005537058               0.000020183              -0.000709930               0.002082311               0.001372381               0.000000000               0.000000000               0.000000000               0.000000000               0.000767743               0.006095525              -0.002640473              -0.000474038               0.002189833               0.001715795               0.000000000               0.000000000               0.000000000               0.000000000              -0.000616516               0.007092464              -0.002084999              -0.001117750               0.002736714               0.001618964               0.000000000               0.000000000               0.000000000               0.000000000              -0.001686570               0.008211623              -0.001422185              -0.001658913               0.003290151               0.001631238               0.000000000               0.000000000               0.000000000               0.000000000              -0.001749191               0.008254928              -0.001029081              -0.001687809               0.003314218               0.001626409               0.000000000               0.000000000               0.000000000               0.000000000              -0.001561890               0.008031555              -0.000784795              -0.001589649               0.003207041               0.001617392               0.000000000               0.000000000               0.000000000               0.000000000              -0.001320164               0.007745202              -0.000625524              -0.001463208               0.003069444               0.001606236               0.000000000               0.000000000               0.000000000               0.000000000              -0.001076245               0.007446022              -0.000515673              -0.001334341               0.002926763               0.001592422               0.000000000               0.000000000               0.000000000               0.000000000              -0.000833731               0.007155112              -0.000435573              -0.001207035               0.002787358               0.001580323               0.000000000               0.000000000               0.000000000               0.000000000              -0.000599914               0.006892793              -0.000368054              -0.001086564               0.002659763               0.001573199               0.000000000               0.000000000               0.000000000               0.000000000              -0.000404148               0.006639820              -0.000306852              -0.000981531               0.002540428               0.001558897               0.000000000               0.000000000               0.000000000               0.000000000              -0.000265806               0.006383970              -0.000249750              -0.000897671               0.002427193               0.001529521               0.000000000               0.000000000               0.000000000               0.000000000              -0.000179991               0.006142694              -0.000190642              -0.000835331               0.002325988               0.001490657               0.000000000               0.000000000               0.000000000               0.000000000              -0.000139405               0.005918623              -0.000127412              -0.000792103               0.002236889               0.001444786               0.000000000               0.000000000               0.000000000               0.000000000              -0.000132529               0.005705766              -0.000067434              -0.000762917               0.002156209               0.001393292               0.000000000               0.000000000               0.000000000               0.000000000              -0.000139477               0.005502429              -0.000022499              -0.000740106               0.002080827               0.001340721               0.000000000               0.000000000               0.000000000               0.000000000              -0.000136589               0.005320958               0.000000915              -0.000716339               0.002012415               0.001296076               0.000000000               0.000000000               0.000000000               0.000000000              -0.000128327               0.005227312               0.000009523              -0.000701535               0.001976265               0.001274730               0.000000000               0.000000000               0.000000000               0.000000000              -0.000047296               0.004415307              -0.001952776              -0.000569650               0.001661637               0.001091987               0.000000000               0.000000000               0.000000000               0.000000000              -0.001025149               0.005763671              -0.001962005              -0.001104888               0.002289500               0.001184612               0.000000000               0.000000000               0.000000000               0.000000000              -0.001891440               0.007220167              -0.001777979              -0.001611807               0.002943967               0.001332160               0.000000000               0.000000000               0.000000000               0.000000000              -0.001873448               0.007568908              -0.001449135              -0.001648653               0.003072495               0.001423842               0.000000000               0.000000000               0.000000000               0.000000000              -0.001642159               0.007553291              -0.001178661              -0.001559968               0.003037728               0.001477760               0.000000000               0.000000000               0.000000000               0.000000000              -0.001371003               0.007415987              -0.000976471              -0.001441121               0.002952344               0.001511223               0.000000000               0.000000000               0.000000000               0.000000000              -0.001110587               0.007226899              -0.000826261              -0.001319829               0.002848885               0.001529056               0.000000000               0.000000000               0.000000000               0.000000000              -0.000859699               0.007022988              -0.000706315              -0.001200258               0.002741058               0.001540801               0.000000000               0.000000000               0.000000000               0.000000000              -0.000622661               0.006815805              -0.000602291              -0.001085471               0.002633736               0.001548265               0.000000000               0.000000000               0.000000000               0.000000000              -0.000422467               0.006580271              -0.000505955              -0.000980957               0.002520387               0.001539430               0.000000000               0.000000000               0.000000000               0.000000000              -0.000275278               0.006325183              -0.000412235              -0.000893875               0.002406331               0.001512457               0.000000000               0.000000000               0.000000000               0.000000000              -0.000185876               0.006070649              -0.000319665              -0.000828533               0.002299707               0.001471174               0.000000000               0.000000000               0.000000000               0.000000000              -0.000149088               0.005827025              -0.000225179              -0.000784284               0.002203750               0.001419466               0.000000000               0.000000000               0.000000000               0.000000000              -0.000155385               0.005597566              -0.000136775              -0.000757963               0.002118491               0.001360528               0.000000000               0.000000000               0.000000000               0.000000000              -0.000190888               0.005381090              -0.000068305              -0.000744217               0.002041751               0.001297534               0.000000000               0.000000000               0.000000000               0.000000000              -0.000236017               0.005183447              -0.000023838              -0.000736435               0.001973277               0.001236841               0.000000000               0.000000000               0.000000000               0.000000000              -0.000257502               0.005086160              -0.000006255              -0.000732331               0.001939480               0.001207149               0.000000000               0.000000000               0.000000000               0.000000000              -0.001134692               0.002877805              -0.001253789              -0.000785234               0.001221003               0.000435769               0.000000000               0.000000000               0.000000000               0.000000000              -0.001489082               0.004432024              -0.001773626              -0.001112407               0.001848128               0.000735721               0.000000000               0.000000000               0.000000000               0.000000000              -0.002012531               0.006082877              -0.002056142              -0.001515056               0.002532623               0.001017568               0.000000000               0.000000000               0.000000000               0.000000000              -0.001924953               0.006722000              -0.001850054              -0.001562104               0.002761345               0.001199241               0.000000000               0.000000000               0.000000000               0.000000000              -0.001675652               0.006946234              -0.001583049              -0.001496646               0.002814270               0.001317624               0.000000000               0.000000000               0.000000000               0.000000000              -0.001398008               0.006989769              -0.001349026              -0.001397971               0.002795890               0.001397919               0.000000000               0.000000000               0.000000000               0.000000000              -0.001134960               0.006940638              -0.001162388              -0.001293187               0.002744585               0.001451398               0.000000000               0.000000000               0.000000000               0.000000000              -0.000887927               0.006846897              -0.001009404              -0.001188832               0.002678553               0.001489721               0.000000000               0.000000000               0.000000000               0.000000000              -0.000651171               0.006721042              -0.000876387              -0.001084317               0.002601764               0.001517447               0.000000000               0.000000000               0.000000000               0.000000000              -0.000444466               0.006539608              -0.000754380              -0.000984123               0.002507889               0.001523765               0.000000000               0.000000000               0.000000000               0.000000000              -0.000279798               0.006317566              -0.000634353              -0.000894618               0.002404040               0.001509422               0.000000000               0.000000000               0.000000000               0.000000000              -0.000164638               0.006078597              -0.000513963              -0.000821562               0.002300033               0.001478471               0.000000000               0.000000000               0.000000000               0.000000000              -0.000102397               0.005835177              -0.000391590              -0.000767794               0.002200971               0.001433177               0.000000000               0.000000000               0.000000000               0.000000000              -0.000093705               0.005598355              -0.000271891              -0.000734932               0.002111077               0.001376145               0.000000000               0.000000000               0.000000000               0.000000000              -0.000138159               0.005375336              -0.000164285              -0.000723725               0.002033002               0.001309277               0.000000000               0.000000000               0.000000000               0.000000000              -0.000227357               0.005175813              -0.000073113              -0.000732234               0.001969332               0.001237098               0.000000000               0.000000000               0.000000000               0.000000000              -0.000297824               0.005070764              -0.000025438              -0.000745528               0.001938747               0.001193219               0.000000000               0.000000000               0.000000000               0.000000000              -0.002413766               0.001599677              -0.000595022              -0.001105120               0.000901593              -0.000203527               0.000000000               0.000000000               0.000000000               0.000000000              -0.002057820               0.003176371              -0.001494474              -0.001168727               0.001448354               0.000279628               0.000000000               0.000000000               0.000000000               0.000000000              -0.002088256               0.004817985              -0.002157082              -0.001385342               0.002067759               0.000682417               0.000000000               0.000000000               0.000000000               0.000000000              -0.001875144               0.005667210              -0.002108863              -0.001411578               0.002359576               0.000947999               0.000000000               0.000000000               0.000000000               0.000000000              -0.001599668               0.006114268              -0.001890587              -0.001364156               0.002492787               0.001128631               0.000000000               0.000000000               0.000000000               0.000000000              -0.001323019               0.006348648              -0.001657650              -0.001289711               0.002546098               0.001256387               0.000000000               0.000000000               0.000000000               0.000000000              -0.001062952               0.006459966              -0.001453445              -0.001206100               0.002555334               0.001349233               0.000000000               0.000000000               0.000000000               0.000000000              -0.000820361               0.006497100              -0.001281740              -0.001119771               0.002538935               0.001419165               0.000000000               0.000000000               0.000000000               0.000000000              -0.000594864               0.006475046              -0.001131217              -0.001032453               0.002502478               0.001470025               0.000000000               0.000000000               0.000000000               0.000000000              -0.000393463               0.006379550              -0.000991022              -0.000944990               0.002441492               0.001496502               0.000000000               0.000000000               0.000000000               0.000000000              -0.000218476               0.006224533              -0.000855145              -0.000859993               0.002361488               0.001501495               0.000000000               0.000000000               0.000000000               0.000000000              -0.000079826               0.006027105              -0.000720043              -0.000783321               0.002270122               0.001486801               0.000000000               0.000000000               0.000000000               0.000000000               0.000014727               0.005811655              -0.000580038              -0.000720933               0.002177510               0.001456577               0.000000000               0.000000000               0.000000000               0.000000000               0.000058638               0.005591671              -0.000434593              -0.000676968               0.002089528               0.001412560               0.000000000               0.000000000               0.000000000               0.000000000               0.000040941               0.005371229              -0.000287571              -0.000656049               0.002009075               0.001353026               0.000000000               0.000000000               0.000000000               0.000000000              -0.000043763               0.005170576              -0.000141712              -0.000662732               0.001944419               0.001281687               0.000000000               0.000000000               0.000000000               0.000000000              -0.000131942               0.005059008              -0.000059698              -0.000681852               0.001913603               0.001231751               0.000000000               0.000000000               0.000000000               0.000000000              -0.003785498               0.000649008              -0.000063120              -0.001500686               0.000716560              -0.000784126               0.000000000               0.000000000               0.000000000               0.000000000              -0.002694661               0.002065299              -0.001158175              -0.001268658               0.001111311              -0.000157347               0.000000000               0.000000000               0.000000000               0.000000000              -0.002141377               0.003530393              -0.002054308              -0.001244313               0.001591556               0.000347243               0.000000000               0.000000000               0.000000000               0.000000000              -0.001743517               0.004487811              -0.002153495              -0.001214793               0.001900852               0.000686059               0.000000000               0.000000000               0.000000000               0.000000000              -0.001416739               0.005109762              -0.002011005              -0.001169996               0.002093235               0.000923239               0.000000000               0.000000000               0.000000000               0.000000000              -0.001136387               0.005515773              -0.001812904              -0.001115615               0.002210443               0.001094829               0.000000000               0.000000000               0.000000000               0.000000000              -0.000885495               0.005782135              -0.001621225              -0.001054826               0.002278967               0.001224142               0.000000000               0.000000000               0.000000000               0.000000000              -0.000651328               0.005962780              -0.001449334              -0.000989594               0.002317438               0.001327844               0.000000000               0.000000000               0.000000000               0.000000000              -0.000437599               0.006063570              -0.001294299              -0.000922044               0.002328518               0.001406474               0.000000000               0.000000000               0.000000000               0.000000000              -0.000246927               0.006070392              -0.001152515              -0.000851395               0.002307242               0.001455847               0.000000000               0.000000000               0.000000000               0.000000000              -0.000068421               0.006007220              -0.001015834              -0.000776559               0.002261239               0.001484681               0.000000000               0.000000000               0.000000000               0.000000000               0.000091066               0.005888780              -0.000876185              -0.000701946               0.002196889               0.001494943               0.000000000               0.000000000               0.000000000               0.000000000               0.000219674               0.005730448              -0.000730397              -0.000633927               0.002121439               0.001487512               0.000000000               0.000000000               0.000000000               0.000000000               0.000312233               0.005548759              -0.000575124              -0.000576506               0.002041736               0.001465230               0.000000000               0.000000000               0.000000000               0.000000000               0.000356444               0.005355959              -0.000404438              -0.000535827               0.001963911               0.001428084               0.000000000               0.000000000               0.000000000               0.000000000               0.000335781               0.005169756              -0.000211377              -0.000520300               0.001896668               0.001376368               0.000000000               0.000000000               0.000000000               0.000000000               0.000286307               0.005067340              -0.000102588              -0.000526051               0.001864447               0.001338396               0.000000000               0.000000000               0.000000000               0.000000000              -0.005114006               0.000017406               0.000266136              -0.001919926               0.000645773              -0.001274153               0.000000000               0.000000000               0.000000000               0.000000000              -0.003341101               0.001161598              -0.000812166              -0.001398111               0.000853230              -0.000544881               0.000000000               0.000000000               0.000000000               0.000000000              -0.002190683               0.002341811              -0.001747387              -0.001114231               0.001152005               0.000037774               0.000000000               0.000000000               0.000000000               0.000000000              -0.001569013               0.003311481              -0.001939401              -0.001002314               0.001437920               0.000435606               0.000000000               0.000000000               0.000000000               0.000000000              -0.001163781               0.004044787              -0.001874132              -0.000942015               0.001662253               0.000720238               0.000000000               0.000000000               0.000000000               0.000000000              -0.000861827               0.004585184              -0.001731341              -0.000896332               0.001827156               0.000930824               0.000000000               0.000000000               0.000000000               0.000000000              -0.000617410               0.004987641              -0.001576091              -0.000854983               0.001947524               0.001092542               0.000000000               0.000000000               0.000000000               0.000000000              -0.000399097               0.005302721              -0.001427421              -0.000812500               0.002038389               0.001225889               0.000000000               0.000000000               0.000000000               0.000000000              -0.000197323               0.005522681              -0.001289908              -0.000764330               0.002095652               0.001331322               0.000000000               0.000000000               0.000000000               0.000000000              -0.000013892               0.005637322              -0.001164315              -0.000709873               0.002115713               0.001405839               0.000000000               0.000000000               0.000000000               0.000000000               0.000160285               0.005675546              -0.001041936              -0.000649335               0.002108275               0.001458939               0.000000000               0.000000000               0.000000000               0.000000000               0.000328670               0.005651455              -0.000912781              -0.000583180               0.002078193               0.001495013               0.000000000               0.000000000               0.000000000               0.000000000               0.000491798               0.005575045              -0.000777996              -0.000512455               0.002029148               0.001516693               0.000000000               0.000000000               0.000000000               0.000000000               0.000642178               0.005454779              -0.000632028              -0.000441030               0.001965251               0.001524222               0.000000000               0.000000000               0.000000000               0.000000000               0.000771099               0.005310903              -0.000460630              -0.000374700               0.001895183               0.001520483               0.000000000               0.000000000               0.000000000               0.000000000               0.000867841               0.005157871              -0.000249764              -0.000319293               0.001825704               0.001506411               0.000000000               0.000000000               0.000000000               0.000000000               0.000917499               0.005080984              -0.000134400              -0.000291060               0.001790665               0.001499604               0.000000000               0.000000000               0.000000000               0.000000000              -0.006240013              -0.000348624               0.000359340              -0.002296425               0.000649262              -0.001647163               0.000000000               0.000000000               0.000000000               0.000000000              -0.003912288               0.000504864              -0.000497645              -0.001530214               0.000678354              -0.000851860               0.000000000               0.000000000               0.000000000               0.000000000              -0.002241129               0.001379073              -0.001267561              -0.001012806               0.000797287              -0.000215519               0.000000000               0.000000000               0.000000000               0.000000000              -0.001397962               0.002299345              -0.001468335              -0.000811653               0.001036991               0.000225338               0.000000000               0.000000000               0.000000000               0.000000000              -0.000902709               0.003086587              -0.001456449              -0.000724338               0.001270297               0.000545959               0.000000000               0.000000000               0.000000000               0.000000000              -0.000570146               0.003718200              -0.001369678              -0.000678579               0.001465580               0.000787001               0.000000000               0.000000000               0.000000000               0.000000000              -0.000322016               0.004222573              -0.001263011              -0.000648577               0.001623702               0.000975126               0.000000000               0.000000000               0.000000000               0.000000000              -0.000111789               0.004640329              -0.001157388              -0.000621961               0.001754081               0.001132120               0.000000000               0.000000000               0.000000000               0.000000000               0.000076763               0.004958907              -0.001057536              -0.000591076               0.001849978               0.001258901               0.000000000               0.000000000               0.000000000               0.000000000               0.000249420               0.005169698              -0.000963467              -0.000552679               0.001907441               0.001354763               0.000000000               0.000000000               0.000000000               0.000000000               0.000417022               0.005300725              -0.000869006              -0.000506207               0.001935626               0.001429419               0.000000000               0.000000000               0.000000000               0.000000000               0.000591468               0.005364309              -0.000770947              -0.000448737               0.001937664               0.001488927               0.000000000               0.000000000               0.000000000               0.000000000               0.000780765               0.005372959              -0.000667986              -0.000378832               0.001917246               0.001538413               0.000000000               0.000000000               0.000000000               0.000000000               0.000983808               0.005330399              -0.000552270              -0.000297371               0.001875906               0.001578534               0.000000000               0.000000000               0.000000000               0.000000000               0.001204253               0.005246883              -0.000412834              -0.000204265               0.001817032               0.001612767               0.000000000               0.000000000               0.000000000               0.000000000               0.001439913               0.005133431              -0.000231243              -0.000101711               0.001745030               0.001643319               0.000000000               0.000000000               0.000000000               0.000000000               0.001615681               0.005088414              -0.000134117              -0.000030171               0.001706178               0.001676007               0.000000000               0.000000000               0.000000000               0.000000000              -0.007003657              -0.000524382               0.000241316              -0.002560822               0.000678809              -0.001882013               0.000000000               0.000000000               0.000000000               0.000000000              -0.004310692               0.000109681              -0.000231714              -0.001630218               0.000579962              -0.001050256               0.000000000               0.000000000               0.000000000               0.000000000              -0.002278945               0.000750278              -0.000664482              -0.000948388               0.000566218              -0.000382170               0.000000000               0.000000000               0.000000000               0.000000000              -0.001268551               0.001610991              -0.000790660              -0.000677079               0.000762684               0.000085605               0.000000000               0.000000000               0.000000000               0.000000000              -0.000701989               0.002416143              -0.000797969              -0.000565263               0.000993793               0.000428531               0.000000000               0.000000000               0.000000000               0.000000000              -0.000345577               0.003097974              -0.000758698              -0.000516837               0.001204927               0.000688089               0.000000000               0.000000000               0.000000000               0.000000000              -0.000089361               0.003665356              -0.000704872              -0.000491679               0.001385666               0.000893987               0.000000000               0.000000000               0.000000000               0.000000000               0.000119891               0.004146543              -0.000650793              -0.000473358               0.001539953               0.001066595               0.000000000               0.000000000               0.000000000               0.000000000               0.000299419               0.004529077              -0.000599289              -0.000453852               0.001660961               0.001207109               0.000000000               0.000000000               0.000000000               0.000000000               0.000461149               0.004804849              -0.000548928              -0.000427674               0.001744158               0.001316484               0.000000000               0.000000000               0.000000000               0.000000000               0.000624065               0.004998021              -0.000497589              -0.000390727               0.001796233               0.001405505               0.000000000               0.000000000               0.000000000               0.000000000               0.000804375               0.005125069              -0.000444491              -0.000338992               0.001821337               0.001482344               0.000000000               0.000000000               0.000000000               0.000000000               0.001012406               0.005199724              -0.000387110              -0.000270313               0.001823328               0.001553016               0.000000000               0.000000000               0.000000000               0.000000000               0.001255357               0.005220379              -0.000324296              -0.000181788               0.001800705               0.001618917               0.000000000               0.000000000               0.000000000               0.000000000               0.001544050               0.005189793              -0.000246878              -0.000069705               0.001753149               0.001683443               0.000000000               0.000000000               0.000000000               0.000000000               0.001890285               0.005110654              -0.000139290               0.000070024               0.001680193               0.001750217               0.000000000               0.000000000               0.000000000               0.000000000               0.002172300               0.005090542              -0.000082677               0.000178293               0.001637399               0.001815692               0.000000000               0.000000000               0.000000000               0.000000000               0.000000000               0.000000000               0.000000000               0.000000000               0.000000000               0.000000000               0.000000000               0.000000000               0.000000000               0.000000000               0.000000000               0.000000000               0.000000000               0.000000000               0.000000000               0.000000000               0.000000000               0.000000000               0.000000000               0.000000000               0.000000000               0.000000000               0.000000000               0.000000000               0.000000000               0.000000000               0.000000000               0.000000000               0.000000000               0.000000000               0.000000000               0.000000000               0.000000000               0.000000000               0.000000000               0.000000000               0.000000000               0.000000000               0.000000000               0.000000000               0.000000000               0.000000000               0.000000000               0.000000000               0.000000000               0.000000000               0.000000000               0.000000000               0.000000000               0.000000000               0.000000000               0.000000000               0.000000000               0.000000000               0.000000000               0.000000000               0.000000000               0.000000000               0.000000000               0.000000000               0.000000000               0.000000000               0.000000000               0.000000000               0.000000000               0.000000000               0.000000000               0.000000000               0.000000000               0.000000000               0.000000000               0.000000000               0.000000000               0.000000000               0.000000000               0.000000000               0.000000000               0.000000000               0.000000000               0.000000000               0.000000000               0.000000000               0.000000000               0.000000000               0.000000000               0.000000000               0.000000000               0.000000000               0.000000000               0.000000000               0.000000000               0.000000000               0.000000000               0.000000000               0.000000000               0.000000000               0.000000000               0.000000000               0.000000000               0.000000000               0.000000000               0.000000000               0.000000000               0.000000000               0.000000000               0.000000000               0.000000000               0.000000000               0.000000000               0.000000000               0.000000000               0.000000000               0.000000000               0.000000000               0.000000000               0.000000000               0.000000000               0.000000000               0.000000000               0.000000000               0.000000000               0.000000000               0.000000000               0.000000000               0.000000000               0.000000000               0.000000000               0.000000000               0.000000000               0.000000000               0.000000000               0.000000000               0.000000000               0.000000000               0.000000000               0.000000000               0.000000000               0.000000000               0.000000000               0.000000000               0.000000000               0.000000000               0.000000000               0.000000000               0.000000000               0.000000000               0.000000000               0.000000000               0.000000000               0.000000000               0.000000000               0.000000000               0.000000000               0.000000000               0.000000000               0.000000000               0.000000000               0.000000000               0.000000000               0.000000000               0.000000000               0.000000000               0.000000000               0.000000000               0.000000000               0.000000000               0.000000000               0.000000000               0.000000000               0.000000000               0.000000000               0.000000000               0.000000000               0.000000000               0.000000000               0.000000000               0.000000000               0.000000000               0.000000000               0.000000000               0.000000000               0.000000000               0.000000000               0.000000000               0.000000000               0.000000000               0.000000000               0.000000000               0.000000000               0.000000000               0.000000000               0.000000000               0.000000000               0.000000000               0.000000000               0.000000000               0.000000000               0.000000000               0.000000000               0.000000000               0.000000000               0.000000000               0.000000000               0.000000000               0.000000000               0.000000000               0.000000000               0.000000000               0.000000000               0.000000000               0.000000000               0.000000000               0.000000000               0.000000000               0.000000000               0.000000000               0.000000000               0.000000000               0.000000000               0.000000000               0.000000000               0.000000000               0.000000000               0.000000000               0.000000000               0.000000000               0.000000000               0.000000000               0.000000000               0.000000000               0.000000000               0.000000000               0.000000000               0.000000000               0.000000000               0.000000000               0.000000000               0.000000000               0.000000000               0.000000000               0.000000000               0.000000000               0.000000000               0.000000000               0.000000000               0.000000000               0.000000000               0.000000000               0.000000000               0.000000000               0.000000000               0.000000000               0.000000000               0.000000000               0.000000000               0.000000000               0.000000000               0.000000000               0.000000000               0.000000000               0.000000000               0.000000000               0.000000000               0.000000000               0.000000000               0.000000000               0.000000000               0.000000000               0.000000000               0.000000000               0.000000000               0.000000000               0.000000000               0.000000000               0.000000000               0.000000000               0.000000000               0.000000000               0.000000000               0.000000000               0.000000000               0.000000000               0.000000000               0.000000000               0.000000000               0.000000000               0.000000000               0.000000000               0.000000000               0.000000000               0.000000000               0.000000000               0.000000000               0.000000000               0.000000000               0.000000000               0.000000000               0.000000000               0.000000000               0.000000000               0.000000000               0.000000000               0.000000000               0.000000000               0.000000000               0.000000000               0.000000000               0.000000000               0.000000000               0.000000000               0.000000000               0.000000000               0.000000000               0.000000000               0.000000000               0.000000000               0.000000000               0.000000000               0.000000000               0.000000000               0.000000000               0.000000000               0.000000000               0.000000000               0.000000000               0.000000000               0.000000000               0.000000000               0.000000000               0.000000000               0.000000000               0.000000000               0.000000000               0.000000000               0.000000000               0.000000000               0.000000000               0.000000000               0.000000000               0.000000000               0.001873517               0.019610897               0.001384451              -0.001748789               0.007119830               0.005371041               0.000000000               0.000000000               0.000000000               0.000000000               0.001783450               0.015579374               0.000726977              -0.001278625               0.005619281               0.004340656               0.000000000               0.000000000               0.000000000               0.000000000               0.002263203               0.012361296               0.000070917              -0.000696459               0.004352544               0.003656085               0.000000000               0.000000000               0.000000000               0.000000000               0.002150762               0.010564674              -0.000206471              -0.000514047               0.003692872               0.003178824               0.000000000               0.000000000               0.000000000               0.000000000               0.001874910               0.009447224              -0.000320908              -0.000477811               0.003308314               0.002830503               0.000000000               0.000000000               0.000000000               0.000000000               0.001576288               0.008689209              -0.000362932              -0.000495042               0.003061388               0.002566346               0.000000000               0.000000000               0.000000000               0.000000000               0.001295653               0.008135247              -0.000370830              -0.000531035               0.002888734               0.002357699               0.000000000               0.000000000               0.000000000               0.000000000               0.001047839               0.007699390              -0.000362728              -0.000569483               0.002756265               0.002186783               0.000000000               0.000000000               0.000000000               0.000000000               0.000835996               0.007333086              -0.000346773              -0.000603136               0.002645383               0.002042247               0.000000000               0.000000000               0.000000000               0.000000000               0.000656768               0.007008204              -0.000328668              -0.000629736               0.002545957               0.001916221               0.000000000               0.000000000               0.000000000               0.000000000               0.000497412               0.006704495              -0.000311518              -0.000651531               0.002451986               0.001800455               0.000000000               0.000000000               0.000000000               0.000000000               0.000354407               0.006408992              -0.000293279              -0.000668220               0.002359049               0.001690829               0.000000000               0.000000000               0.000000000               0.000000000               0.000234956               0.006110751              -0.000265800              -0.000675734               0.002262141               0.001586407               0.000000000               0.000000000               0.000000000               0.000000000               0.000138580               0.005795750              -0.000224284              -0.000672500               0.002156064               0.001483564               0.000000000               0.000000000               0.000000000               0.000000000               0.000066836               0.005454289              -0.000171440              -0.000656721               0.002036985               0.001380264               0.000000000               0.000000000               0.000000000               0.000000000               0.000023202               0.005078445              -0.000099512              -0.000626103               0.001901499               0.001275396               0.000000000               0.000000000               0.000000000               0.000000000              -0.000020112               0.004798448              -0.000062068              -0.000607347               0.001801915               0.001194569               0.000000000               0.000000000               0.000000000               0.000000000               0.002052963               0.018452141               0.002580628              -0.001536654               0.006662870               0.005126216               0.000000000               0.000000000               0.000000000               0.000000000               0.001695492               0.014823953               0.001356711              -0.001217182               0.005346995               0.004129814               0.000000000               0.000000000               0.000000000               0.000000000               0.001891862               0.012023418               0.000145186              -0.000793477               0.004272258               0.003478781               0.000000000               0.000000000               0.000000000               0.000000000               0.001682981               0.010438023              -0.000351331              -0.000673633               0.003703851               0.003030217               0.000000000               0.000000000               0.000000000               0.000000000               0.001391016               0.009432710              -0.000547758              -0.000657456               0.003363357               0.002705901               0.000000000               0.000000000               0.000000000               0.000000000               0.001110343               0.008731899              -0.000616146              -0.000675107               0.003135640               0.002460532               0.000000000               0.000000000               0.000000000               0.000000000               0.000869639               0.008204729              -0.000626146              -0.000699475               0.002968041               0.002268566               0.000000000               0.000000000               0.000000000               0.000000000               0.000671806               0.007778099              -0.000608238              -0.000720333               0.002832785               0.002112451               0.000000000               0.000000000               0.000000000               0.000000000               0.000510594               0.007412517              -0.000579476              -0.000735090               0.002715844               0.001980754               0.000000000               0.000000000               0.000000000               0.000000000               0.000379753               0.007088801              -0.000547482              -0.000743691               0.002610807               0.001867116               0.000000000               0.000000000               0.000000000               0.000000000               0.000271493               0.006790085              -0.000515157              -0.000746949               0.002512322               0.001765373               0.000000000               0.000000000               0.000000000               0.000000000               0.000180249               0.006502816              -0.000478537              -0.000745257               0.002416002               0.001670746               0.000000000               0.000000000               0.000000000               0.000000000               0.000110378               0.006220807              -0.000428208              -0.000736207               0.002318984               0.001582777               0.000000000               0.000000000               0.000000000               0.000000000               0.000059785               0.005941529              -0.000360001              -0.000720270               0.002220580               0.001500310               0.000000000               0.000000000               0.000000000               0.000000000               0.000024426               0.005665644              -0.000274387              -0.000699044               0.002121544               0.001422500               0.000000000               0.000000000               0.000000000               0.000000000               0.000005145               0.005395614              -0.000157695              -0.000672521               0.002022694               0.001350173               0.000000000               0.000000000               0.000000000               0.000000000              -0.000017530               0.005214558              -0.000094679              -0.000658392               0.001957633               0.001299241               0.000000000               0.000000000               0.000000000               0.000000000               0.002249813               0.016699905               0.003445906              -0.001243807               0.005981181               0.004737374               0.000000000               0.000000000               0.000000000               0.000000000               0.001525037               0.013700603               0.001826394              -0.001140684               0.004947050               0.003806365               0.000000000               0.000000000               0.000000000               0.000000000               0.001330670               0.011525761               0.000242741              -0.000941716               0.004155787               0.003214071               0.000000000               0.000000000               0.000000000               0.000000000               0.001005022               0.010238834              -0.000377808              -0.000902969               0.003713900               0.002810931               0.000000000               0.000000000               0.000000000               0.000000000               0.000714044               0.009381425              -0.000612918              -0.000904909               0.003428747               0.002523838               0.000000000               0.000000000               0.000000000               0.000000000               0.000482690               0.008754195              -0.000690204              -0.000913264               0.003222457               0.002309194               0.000000000               0.000000000               0.000000000               0.000000000               0.000308645               0.008259089              -0.000698320              -0.000916642               0.003058549               0.002141907               0.000000000               0.000000000               0.000000000               0.000000000               0.000182502               0.007843454              -0.000674669              -0.000911991               0.002918455               0.002006464               0.000000000               0.000000000               0.000000000               0.000000000               0.000096190               0.007484186              -0.000640523              -0.000899450               0.002794520               0.001895070               0.000000000               0.000000000               0.000000000               0.000000000               0.000037781               0.007165652              -0.000603933              -0.000881537               0.002682372               0.001800836               0.000000000               0.000000000               0.000000000               0.000000000              -0.000002675               0.006873493              -0.000563440              -0.000860188               0.002577871               0.001717683               0.000000000               0.000000000               0.000000000               0.000000000              -0.000028566               0.006597297              -0.000515945              -0.000835373               0.002477535               0.001642162               0.000000000               0.000000000               0.000000000               0.000000000              -0.000035453               0.006338961              -0.000454786              -0.000805663               0.002381520               0.001575857               0.000000000               0.000000000               0.000000000               0.000000000              -0.000027767               0.006106548              -0.000376337              -0.000773729               0.002293405               0.001519676               0.000000000               0.000000000               0.000000000               0.000000000              -0.000014559               0.005908795              -0.000282101              -0.000744057               0.002217598               0.001473541               0.000000000               0.000000000               0.000000000               0.000000000              -0.000006327               0.005755520              -0.000159653              -0.000721811               0.002159091               0.001437280               0.000000000               0.000000000               0.000000000               0.000000000              -0.000008172               0.005680344              -0.000090424              -0.000713106               0.002131131               0.001418025               0.000000000               0.000000000               0.000000000               0.000000000               0.002359947               0.014560216               0.003920672              -0.000935048               0.005165039               0.004229991               0.000000000               0.000000000               0.000000000               0.000000000               0.001255553               0.012355377               0.002122021              -0.001073588               0.004476280               0.003402692               0.000000000               0.000000000               0.000000000               0.000000000               0.000654680               0.010930442               0.000384022              -0.001120797               0.004017043               0.002896246               0.000000000               0.000000000               0.000000000               0.000000000               0.000247064               0.009973042              -0.000263050              -0.001153978               0.003708973               0.002554995               0.000000000               0.000000000               0.000000000               0.000000000              -0.000006000               0.009264362              -0.000502412              -0.001160292               0.003474854               0.002314562               0.000000000               0.000000000               0.000000000               0.000000000              -0.000159360               0.008704678              -0.000582589              -0.001147842               0.003284144               0.002136302               0.000000000               0.000000000               0.000000000               0.000000000              -0.000245307               0.008242567              -0.000593275              -0.001122308               0.003121597               0.001999289               0.000000000               0.000000000               0.000000000               0.000000000              -0.000282571               0.007845417              -0.000572216              -0.001086639               0.002977326               0.001890687               0.000000000               0.000000000               0.000000000               0.000000000              -0.000282059               0.007496741              -0.000541696              -0.001042862               0.002846509               0.001803647               0.000000000               0.000000000               0.000000000               0.000000000              -0.000261891               0.007182723              -0.000507676              -0.000996047               0.002726233               0.001730186               0.000000000               0.000000000               0.000000000               0.000000000              -0.000230543               0.006894244              -0.000467338              -0.000948232               0.002614136               0.001665904               0.000000000               0.000000000               0.000000000               0.000000000              -0.000187185               0.006631898              -0.000418177              -0.000899179               0.002510337               0.001611158               0.000000000               0.000000000               0.000000000               0.000000000              -0.000134916               0.006403994              -0.000358017              -0.000851091               0.002418340               0.001567250               0.000000000               0.000000000               0.000000000               0.000000000              -0.000084908               0.006221153              -0.000285327              -0.000809483               0.002343524               0.001534042               0.000000000               0.000000000               0.000000000               0.000000000              -0.000045254               0.006089067              -0.000203045              -0.000778102               0.002289036               0.001510934               0.000000000               0.000000000               0.000000000               0.000000000              -0.000016886               0.006013597              -0.000108632              -0.000758030               0.002257189               0.001499159               0.000000000               0.000000000               0.000000000               0.000000000              -0.000003606               0.005994504              -0.000056351              -0.000750663               0.002248369               0.001497706               0.000000000               0.000000000               0.000000000               0.000000000               0.002288044               0.012261148               0.004005786              -0.000674629               0.004311884               0.003637255               0.000000000               0.000000000               0.000000000               0.000000000               0.000883274               0.010929649               0.002254971              -0.001034977               0.003988172               0.002953195               0.000000000               0.000000000               0.000000000               0.000000000              -0.000055492               0.010275906               0.000574291              -0.001305295               0.003860366               0.002555071               0.000000000               0.000000000               0.000000000               0.000000000              -0.000477565               0.009631416              -0.000026365              -0.001383010               0.003671443               0.002288433               0.000000000               0.000000000               0.000000000               0.000000000              -0.000647942               0.009059111              -0.000252927              -0.001375364               0.003478128               0.002102764               0.000000000               0.000000000               0.000000000               0.000000000              -0.000696744               0.008563988              -0.000339726              -0.001331774               0.003298559               0.001966785               0.000000000               0.000000000               0.000000000               0.000000000              -0.000682789               0.008135204              -0.000363374              -0.001272943               0.003136022               0.001863079               0.000000000               0.000000000               0.000000000               0.000000000              -0.000631831               0.007756631              -0.000353055              -0.001206513               0.002987689               0.001781176               0.000000000               0.000000000               0.000000000               0.000000000              -0.000553744               0.007418609              -0.000331295              -0.001134977               0.002851171               0.001716194               0.000000000               0.000000000               0.000000000               0.000000000              -0.000458111               0.007112808              -0.000304713              -0.001060890               0.002724542               0.001663652               0.000000000               0.000000000               0.000000000               0.000000000              -0.000359000               0.006833574              -0.000272561              -0.000988819               0.002607442               0.001618622               0.000000000               0.000000000               0.000000000               0.000000000              -0.000262369               0.006591966              -0.000234131              -0.000922382               0.002504760               0.001582379               0.000000000               0.000000000               0.000000000               0.000000000              -0.000176529               0.006398144              -0.000190158              -0.000865964               0.002421348               0.001555384               0.000000000               0.000000000               0.000000000               0.000000000              -0.000109947               0.006250544              -0.000141357              -0.000822546               0.002357676               0.001535130               0.000000000               0.000000000               0.000000000               0.000000000              -0.000062686               0.006146832              -0.000092717              -0.000791859               0.002312877               0.001521017               0.000000000               0.000000000               0.000000000               0.000000000              -0.000026604               0.006078989              -0.000044792              -0.000769848               0.002282925               0.001513077               0.000000000               0.000000000               0.000000000               0.000000000              -0.000017772               0.006042274              -0.000024429              -0.000761947               0.002268054               0.001506107               0.000000000               0.000000000               0.000000000               0.000000000               0.001971786               0.009990584               0.003761978              -0.000509406               0.003499962               0.002990556               0.000000000               0.000000000               0.000000000               0.000000000               0.000418328               0.009530850               0.002264238              -0.001034482               0.003521745               0.002487263               0.000000000               0.000000000               0.000000000               0.000000000              -0.000723513               0.009590501               0.000812784              -0.001470126               0.003686844               0.002216717               0.000000000               0.000000000               0.000000000               0.000000000              -0.001077508               0.009212193               0.000292005              -0.001555586               0.003589229               0.002033643               0.000000000               0.000000000               0.000000000               0.000000000              -0.001130284               0.008759851               0.000076226              -0.001518834               0.003426199               0.001907365               0.000000000               0.000000000               0.000000000               0.000000000              -0.001067728               0.008327066              -0.000024793              -0.001441278               0.003256087               0.001814809               0.000000000               0.000000000               0.000000000               0.000000000              -0.000960727               0.007932370              -0.000069041              -0.001351816               0.003094702               0.001742887               0.000000000               0.000000000               0.000000000               0.000000000              -0.000827148               0.007576793              -0.000078666              -0.001257276               0.002944664               0.001687388               0.000000000               0.000000000               0.000000000               0.000000000              -0.000680032               0.007256393              -0.000076826              -0.001162058               0.002806126               0.001644068               0.000000000               0.000000000               0.000000000               0.000000000              -0.000531154               0.006968356              -0.000068602              -0.001070224               0.002679504               0.001609279               0.000000000               0.000000000               0.000000000               0.000000000              -0.000394164               0.006715723              -0.000055685              -0.000987274               0.002567643               0.001580369               0.000000000               0.000000000               0.000000000               0.000000000              -0.000274619               0.006502358              -0.000045432              -0.000915775               0.002472689               0.001556914               0.000000000               0.000000000               0.000000000               0.000000000              -0.000180855               0.006324381              -0.000036368              -0.000858366               0.002394228               0.001535862               0.000000000               0.000000000               0.000000000               0.000000000              -0.000117500               0.006176432              -0.000028124              -0.000816114               0.002330828               0.001514714               0.000000000               0.000000000               0.000000000               0.000000000              -0.000074609               0.006052360              -0.000023840              -0.000784521               0.002278940               0.001494419               0.000000000               0.000000000               0.000000000               0.000000000              -0.000036533               0.005941002              -0.000015329              -0.000756323               0.002232422               0.001476099               0.000000000               0.000000000               0.000000000               0.000000000              -0.000034615               0.005862080              -0.000018658              -0.000745739               0.002202587               0.001456848               0.000000000               0.000000000               0.000000000               0.000000000               0.001434182               0.007884289               0.003275038              -0.000447720               0.002777309               0.002329589               0.000000000               0.000000000               0.000000000               0.000000000              -0.000108203               0.008242190               0.002191105              -0.001070849               0.003104318               0.002033469               0.000000000               0.000000000               0.000000000               0.000000000              -0.001279314               0.008892670               0.001093795              -0.001591323               0.003494635               0.001903312               0.000000000               0.000000000               0.000000000               0.000000000              -0.001494829               0.008722630               0.000649592              -0.001650886               0.003457809               0.001806924               0.000000000               0.000000000               0.000000000               0.000000000              -0.001415488               0.008377782               0.000429354              -0.001578027               0.003318575               0.001740548               0.000000000               0.000000000               0.000000000               0.000000000              -0.001250968               0.008010773               0.000304368              -0.001470456               0.003160383               0.001689927               0.000000000               0.000000000               0.000000000               0.000000000              -0.001065061               0.007658254               0.000229664              -0.001356676               0.003004951               0.001648275               0.000000000               0.000000000               0.000000000               0.000000000              -0.000868107               0.007332417               0.000188499              -0.001242089               0.002858144               0.001616055               0.000000000               0.000000000               0.000000000               0.000000000              -0.000670192               0.007038412               0.000160088              -0.001131121               0.002723154               0.001592033               0.000000000               0.000000000               0.000000000               0.000000000              -0.000491692               0.006776461               0.000135418              -0.001031440               0.002602611               0.001571171               0.000000000               0.000000000               0.000000000               0.000000000              -0.000343695               0.006539557               0.000111501              -0.000946328               0.002495273               0.001548945               0.000000000               0.000000000               0.000000000               0.000000000              -0.000238095               0.006321923               0.000084856              -0.000879524               0.002400461               0.001520937               0.000000000               0.000000000               0.000000000               0.000000000              -0.000173113               0.006123087               0.000055190              -0.000830301               0.002317775               0.001487474               0.000000000               0.000000000               0.000000000               0.000000000              -0.000131750               0.005943979               0.000023937              -0.000792402               0.002245441               0.001453039               0.000000000               0.000000000               0.000000000               0.000000000              -0.000099149               0.005779616              -0.000001245              -0.000759631               0.002179730               0.001420099               0.000000000               0.000000000               0.000000000               0.000000000              -0.000058984               0.005630592              -0.000011041              -0.000725941               0.002118826               0.001392884               0.000000000               0.000000000               0.000000000               0.000000000              -0.000047466               0.005537058              -0.000020183              -0.000709930               0.002082311               0.001372381               0.000000000               0.000000000               0.000000000               0.000000000               0.000767743               0.006095525               0.002640473              -0.000474038               0.002189833               0.001715795               0.000000000               0.000000000               0.000000000               0.000000000              -0.000616516               0.007092464               0.002084999              -0.001117750               0.002736714               0.001618964               0.000000000               0.000000000               0.000000000               0.000000000              -0.001686570               0.008211623               0.001422185              -0.001658913               0.003290151               0.001631238               0.000000000               0.000000000               0.000000000               0.000000000              -0.001749191               0.008254928               0.001029081              -0.001687809               0.003314218               0.001626409               0.000000000               0.000000000               0.000000000               0.000000000              -0.001561890               0.008031555               0.000784795              -0.001589649               0.003207041               0.001617392               0.000000000               0.000000000               0.000000000               0.000000000              -0.001320164               0.007745202               0.000625524              -0.001463208               0.003069444               0.001606236               0.000000000               0.000000000               0.000000000               0.000000000              -0.001076245               0.007446022               0.000515673              -0.001334341               0.002926763               0.001592422               0.000000000               0.000000000               0.000000000               0.000000000              -0.000833731               0.007155112               0.000435573              -0.001207035               0.002787358               0.001580323               0.000000000               0.000000000               0.000000000               0.000000000              -0.000599914               0.006892793               0.000368054              -0.001086564               0.002659763               0.001573199               0.000000000               0.000000000               0.000000000               0.000000000              -0.000404148               0.006639820               0.000306852              -0.000981531               0.002540428               0.001558897               0.000000000               0.000000000               0.000000000               0.000000000              -0.000265806               0.006383970               0.000249750              -0.000897671               0.002427193               0.001529521               0.000000000               0.000000000               0.000000000               0.000000000              -0.000179991               0.006142694               0.000190642              -0.000835331               0.002325988               0.001490657               0.000000000               0.000000000               0.000000000               0.000000000              -0.000139405               0.005918623               0.000127412              -0.000792103               0.002236889               0.001444786               0.000000000               0.000000000               0.000000000               0.000000000              -0.000132529               0.005705766               0.000067434              -0.000762917               0.002156209               0.001393292               0.000000000               0.000000000               0.000000000               0.000000000              -0.000139477               0.005502429               0.000022499              -0.000740106               0.002080827               0.001340721               0.000000000               0.000000000               0.000000000               0.000000000              -0.000136589               0.005320958              -0.000000915              -0.000716339               0.002012415               0.001296076               0.000000000               0.000000000               0.000000000               0.000000000              -0.000128327               0.005227312              -0.000009523              -0.000701535               0.001976265               0.001274730               0.000000000               0.000000000               0.000000000               0.000000000              -0.000047296               0.004415307               0.001952776              -0.000569650               0.001661637               0.001091987               0.000000000               0.000000000               0.000000000               0.000000000              -0.001025149               0.005763671               0.001962005              -0.001104888               0.002289500               0.001184612               0.000000000               0.000000000               0.000000000               0.000000000              -0.001891440               0.007220167               0.001777979              -0.001611807               0.002943967               0.001332160               0.000000000               0.000000000               0.000000000               0.000000000              -0.001873448               0.007568908               0.001449135              -0.001648653               0.003072495               0.001423842               0.000000000               0.000000000               0.000000000               0.000000000              -0.001642159               0.007553291               0.001178661              -0.001559968               0.003037728               0.001477760               0.000000000               0.000000000               0.000000000               0.000000000              -0.001371003               0.007415987               0.000976471              -0.001441121               0.002952344               0.001511223               0.000000000               0.000000000               0.000000000               0.000000000              -0.001110587               0.007226899               0.000826261              -0.001319829               0.002848885               0.001529056               0.000000000               0.000000000               0.000000000               0.000000000              -0.000859699               0.007022988               0.000706315              -0.001200258               0.002741058               0.001540801               0.000000000               0.000000000               0.000000000               0.000000000              -0.000622661               0.006815805               0.000602291              -0.001085471               0.002633736               0.001548265               0.000000000               0.000000000               0.000000000               0.000000000              -0.000422467               0.006580271               0.000505955              -0.000980957               0.002520387               0.001539430               0.000000000               0.000000000               0.000000000               0.000000000              -0.000275278               0.006325183               0.000412235              -0.000893875               0.002406331               0.001512457               0.000000000               0.000000000               0.000000000               0.000000000              -0.000185876               0.006070649               0.000319665              -0.000828533               0.002299707               0.001471174               0.000000000               0.000000000               0.000000000               0.000000000              -0.000149088               0.005827025               0.000225179              -0.000784284               0.002203750               0.001419466               0.000000000               0.000000000               0.000000000               0.000000000              -0.000155385               0.005597566               0.000136775              -0.000757963               0.002118491               0.001360528               0.000000000               0.000000000               0.000000000               0.000000000              -0.000190888               0.005381090               0.000068305              -0.000744217               0.002041751               0.001297534               0.000000000               0.000000000               0.000000000               0.000000000              -0.000236017               0.005183447               0.000023838              -0.000736435               0.001973277               0.001236841               0.000000000               0.000000000               0.000000000               0.000000000              -0.000257502               0.005086160               0.000006255              -0.000732331               0.001939480               0.001207149               0.000000000               0.000000000               0.000000000               0.000000000              -0.001134692               0.002877805               0.001253789              -0.000785234               0.001221003               0.000435769               0.000000000               0.000000000               0.000000000               0.000000000              -0.001489082               0.004432024               0.001773626              -0.001112407               0.001848128               0.000735721               0.000000000               0.000000000               0.000000000               0.000000000              -0.002012531               0.006082877               0.002056142              -0.001515056               0.002532623               0.001017568               0.000000000               0.000000000               0.000000000               0.000000000              -0.001924953               0.006722000               0.001850054              -0.001562104               0.002761345               0.001199241               0.000000000               0.000000000               0.000000000               0.000000000              -0.001675652               0.006946234               0.001583049              -0.001496646               0.002814270               0.001317624               0.000000000               0.000000000               0.000000000               0.000000000              -0.001398008               0.006989769               0.001349026              -0.001397971               0.002795890               0.001397919               0.000000000               0.000000000               0.000000000               0.000000000              -0.001134960               0.006940638               0.001162388              -0.001293187               0.002744585               0.001451398               0.000000000               0.000000000               0.000000000               0.000000000              -0.000887927               0.006846897               0.001009404              -0.001188832               0.002678553               0.001489721               0.000000000               0.000000000               0.000000000               0.000000000              -0.000651171               0.006721042               0.000876387              -0.001084317               0.002601764               0.001517447               0.000000000               0.000000000               0.000000000               0.000000000              -0.000444466               0.006539608               0.000754380              -0.000984123               0.002507889               0.001523765               0.000000000               0.000000000               0.000000000               0.000000000              -0.000279798               0.006317566               0.000634353              -0.000894618               0.002404040               0.001509422               0.000000000               0.000000000               0.000000000               0.000000000              -0.000164638               0.006078597               0.000513963              -0.000821562               0.002300033               0.001478471               0.000000000               0.000000000               0.000000000               0.000000000              -0.000102397               0.005835177               0.000391590              -0.000767794               0.002200971               0.001433177               0.000000000               0.000000000               0.000000000               0.000000000              -0.000093705               0.005598355               0.000271891              -0.000734932               0.002111077               0.001376145               0.000000000               0.000000000               0.000000000               0.000000000              -0.000138159               0.005375336               0.000164285              -0.000723725               0.002033002               0.001309277               0.000000000               0.000000000               0.000000000               0.000000000              -0.000227357               0.005175813               0.000073113              -0.000732234               0.001969332               0.001237098               0.000000000               0.000000000               0.000000000               0.000000000              -0.000297824               0.005070764               0.000025438              -0.000745528               0.001938747               0.001193219               0.000000000               0.000000000               0.000000000               0.000000000              -0.002413766               0.001599677               0.000595022              -0.001105120               0.000901593              -0.000203527               0.000000000               0.000000000               0.000000000               0.000000000              -0.002057820               0.003176371               0.001494474              -0.001168727               0.001448354               0.000279628               0.000000000               0.000000000               0.000000000               0.000000000              -0.002088256               0.004817985               0.002157082              -0.001385342               0.002067759               0.000682417               0.000000000               0.000000000               0.000000000               0.000000000              -0.001875144               0.005667210               0.002108863              -0.001411578               0.002359576               0.000947999               0.000000000               0.000000000               0.000000000               0.000000000              -0.001599668               0.006114268               0.001890587              -0.001364156               0.002492787               0.001128631               0.000000000               0.000000000               0.000000000               0.000000000              -0.001323019               0.006348648               0.001657650              -0.001289711               0.002546098               0.001256387               0.000000000               0.000000000               0.000000000               0.000000000              -0.001062952               0.006459966               0.001453445              -0.001206100               0.002555334               0.001349233               0.000000000               0.000000000               0.000000000               0.000000000              -0.000820361               0.006497100               0.001281740              -0.001119771               0.002538935               0.001419165               0.000000000               0.000000000               0.000000000               0.000000000              -0.000594864               0.006475046               0.001131217              -0.001032453               0.002502478               0.001470025               0.000000000               0.000000000               0.000000000               0.000000000              -0.000393463               0.006379550               0.000991022              -0.000944990               0.002441492               0.001496502               0.000000000               0.000000000               0.000000000               0.000000000              -0.000218476               0.006224533               0.000855145              -0.000859993               0.002361488               0.001501495               0.000000000               0.000000000               0.000000000               0.000000000              -0.000079826               0.006027105               0.000720043              -0.000783321               0.002270122               0.001486801               0.000000000               0.000000000               0.000000000               0.000000000               0.000014727               0.005811655               0.000580038              -0.000720933               0.002177510               0.001456577               0.000000000               0.000000000               0.000000000               0.000000000               0.000058638               0.005591671               0.000434593              -0.000676968               0.002089528               0.001412560               0.000000000               0.000000000               0.000000000               0.000000000               0.000040941               0.005371229               0.000287571              -0.000656049               0.002009075               0.001353026               0.000000000               0.000000000               0.000000000               0.000000000              -0.000043763               0.005170576               0.000141712              -0.000662732               0.001944419               0.001281687               0.000000000               0.000000000               0.000000000               0.000000000              -0.000131942               0.005059008               0.000059698              -0.000681852               0.001913603               0.001231751               0.000000000               0.000000000               0.000000000               0.000000000              -0.003785498               0.000649008               0.000063120              -0.001500686               0.000716560              -0.000784126               0.000000000               0.000000000               0.000000000               0.000000000              -0.002694661               0.002065299               0.001158175              -0.001268658               0.001111311              -0.000157347               0.000000000               0.000000000               0.000000000               0.000000000              -0.002141377               0.003530393               0.002054308              -0.001244313               0.001591556               0.000347243               0.000000000               0.000000000               0.000000000               0.000000000              -0.001743517               0.004487811               0.002153495              -0.001214793               0.001900852               0.000686059               0.000000000               0.000000000               0.000000000               0.000000000              -0.001416739               0.005109762               0.002011005              -0.001169996               0.002093235               0.000923239               0.000000000               0.000000000               0.000000000               0.000000000              -0.001136387               0.005515773               0.001812904              -0.001115615               0.002210443               0.001094829               0.000000000               0.000000000               0.000000000               0.000000000              -0.000885495               0.005782135               0.001621225              -0.001054826               0.002278967               0.001224142               0.000000000               0.000000000               0.000000000               0.000000000              -0.000651328               0.005962780               0.001449334              -0.000989594               0.002317438               0.001327844               0.000000000               0.000000000               0.000000000               0.000000000              -0.000437599               0.006063570               0.001294299              -0.000922044               0.002328518               0.001406474               0.000000000               0.000000000               0.000000000               0.000000000              -0.000246927               0.006070392               0.001152515              -0.000851395               0.002307242               0.001455847               0.000000000               0.000000000               0.000000000               0.000000000              -0.000068421               0.006007220               0.001015834              -0.000776559               0.002261239               0.001484681               0.000000000               0.000000000               0.000000000               0.000000000               0.000091066               0.005888780               0.000876185              -0.000701946               0.002196889               0.001494943               0.000000000               0.000000000               0.000000000               0.000000000               0.000219674               0.005730448               0.000730397              -0.000633927               0.002121439               0.001487512               0.000000000               0.000000000               0.000000000               0.000000000               0.000312233               0.005548759               0.000575124              -0.000576506               0.002041736               0.001465230               0.000000000               0.000000000               0.000000000               0.000000000               0.000356444               0.005355959               0.000404438              -0.000535827               0.001963911               0.001428084               0.000000000               0.000000000               0.000000000               0.000000000               0.000335781               0.005169756               0.000211377              -0.000520300               0.001896668               0.001376368               0.000000000               0.000000000               0.000000000               0.000000000               0.000286307               0.005067340               0.000102588              -0.000526051               0.001864447               0.001338396               0.000000000               0.000000000               0.000000000               0.000000000              -0.005114006               0.000017406              -0.000266136              -0.001919926               0.000645773              -0.001274153               0.000000000               0.000000000               0.000000000               0.000000000              -0.003341101               0.001161598               0.000812166              -0.001398111               0.000853230              -0.000544881               0.000000000               0.000000000               0.000000000               0.000000000              -0.002190683               0.002341811               0.001747387              -0.001114231               0.001152005               0.000037774               0.000000000               0.000000000               0.000000000               0.000000000              -0.001569013               0.003311481               0.001939401              -0.001002314               0.001437920               0.000435606               0.000000000               0.000000000               0.000000000               0.000000000              -0.001163781               0.004044787               0.001874132              -0.000942015               0.001662253               0.000720238               0.000000000               0.000000000               0.000000000               0.000000000              -0.000861827               0.004585184               0.001731341              -0.000896332               0.001827156               0.000930824               0.000000000               0.000000000               0.000000000               0.000000000              -0.000617410               0.004987641               0.001576091              -0.000854983               0.001947524               0.001092542               0.000000000               0.000000000               0.000000000               0.000000000              -0.000399097               0.005302721               0.001427421              -0.000812500               0.002038389               0.001225889               0.000000000               0.000000000               0.000000000               0.000000000              -0.000197323               0.005522681               0.001289908              -0.000764330               0.002095652               0.001331322               0.000000000               0.000000000               0.000000000               0.000000000              -0.000013892               0.005637322               0.001164315              -0.000709873               0.002115713               0.001405839               0.000000000               0.000000000               0.000000000               0.000000000               0.000160285               0.005675546               0.001041936              -0.000649335               0.002108275               0.001458939               0.000000000               0.000000000               0.000000000               0.000000000               0.000328670               0.005651455               0.000912781              -0.000583180               0.002078193               0.001495013               0.000000000               0.000000000               0.000000000               0.000000000               0.000491798               0.005575045               0.000777996              -0.000512455               0.002029148               0.001516693               0.000000000               0.000000000               0.000000000               0.000000000               0.000642178               0.005454779               0.000632028              -0.000441030               0.001965251               0.001524222               0.000000000               0.000000000               0.000000000               0.000000000               0.000771099               0.005310903               0.000460630              -0.000374700               0.001895183               0.001520483               0.000000000               0.000000000               0.000000000               0.000000000               0.000867841               0.005157871               0.000249764              -0.000319293               0.001825704               0.001506411               0.000000000               0.000000000               0.000000000               0.000000000               0.000917499               0.005080984               0.000134400              -0.000291060               0.001790665               0.001499604               0.000000000               0.000000000               0.000000000               0.000000000              -0.006240013              -0.000348624              -0.000359340              -0.002296425               0.000649262              -0.001647163               0.000000000               0.000000000               0.000000000               0.000000000              -0.003912288               0.000504864               0.000497645              -0.001530214               0.000678354              -0.000851860               0.000000000               0.000000000               0.000000000               0.000000000              -0.002241129               0.001379073               0.001267561              -0.001012806               0.000797287              -0.000215519               0.000000000               0.000000000               0.000000000               0.000000000              -0.001397962               0.002299345               0.001468335              -0.000811653               0.001036991               0.000225338               0.000000000               0.000000000               0.000000000               0.000000000              -0.000902709               0.003086587               0.001456449              -0.000724338               0.001270297               0.000545959               0.000000000               0.000000000               0.000000000               0.000000000              -0.000570146               0.003718200               0.001369678              -0.000678579               0.001465580               0.000787001               0.000000000               0.000000000               0.000000000               0.000000000              -0.000322016               0.004222573               0.001263011              -0.000648577               0.001623702               0.000975126               0.000000000               0.000000000               0.000000000               0.000000000              -0.000111789               0.004640329               0.001157388              -0.000621961               0.001754081               0.001132120               0.000000000               0.000000000               0.000000000               0.000000000               0.000076763               0.004958907               0.001057536              -0.000591076               0.001849978               0.001258901               0.000000000               0.000000000               0.000000000               0.000000000               0.000249420               0.005169698               0.000963467              -0.000552679               0.001907441               0.001354763               0.000000000               0.000000000               0.000000000               0.000000000               0.000417022               0.005300725               0.000869006              -0.000506207               0.001935626               0.001429419               0.000000000               0.000000000               0.000000000               0.000000000               0.000591468               0.005364309               0.000770947              -0.000448737               0.001937664               0.001488927               0.000000000               0.000000000               0.000000000               0.000000000               0.000780765               0.005372959               0.000667986              -0.000378832               0.001917246               0.001538413               0.000000000               0.000000000               0.000000000               0.000000000               0.000983808               0.005330399               0.000552270              -0.000297371               0.001875906               0.001578534               0.000000000               0.000000000               0.000000000               0.000000000               0.001204253               0.005246883               0.000412834              -0.000204265               0.001817032               0.001612767               0.000000000               0.000000000               0.000000000               0.000000000               0.001439913               0.005133431               0.000231243              -0.000101711               0.001745030               0.001643319               0.000000000               0.000000000               0.000000000               0.000000000               0.001615681               0.005088414               0.000134117              -0.000030171               0.001706178               0.001676007               0.000000000               0.000000000               0.000000000               0.000000000              -0.007003657              -0.000524382              -0.000241316              -0.002560822               0.000678809              -0.001882013               0.000000000               0.000000000               0.000000000               0.000000000              -0.004310692               0.000109681               0.000231714              -0.001630218               0.000579962              -0.001050256               0.000000000               0.000000000               0.000000000               0.000000000              -0.002278945               0.000750278               0.000664482              -0.000948388               0.000566218              -0.000382170               0.000000000               0.000000000               0.000000000               0.000000000              -0.001268551               0.001610991               0.000790660              -0.000677079               0.000762684               0.000085605               0.000000000               0.000000000               0.000000000               0.000000000              -0.000701989               0.002416143               0.000797969              -0.000565263               0.000993793               0.000428531               0.000000000               0.000000000               0.000000000               0.000000000              -0.000345577               0.003097974               0.000758698              -0.000516837               0.001204927               0.000688089               0.000000000               0.000000000               0.000000000               0.000000000              -0.000089361               0.003665356               0.000704872              -0.000491679               0.001385666               0.000893987               0.000000000               0.000000000               0.000000000               0.000000000               0.000119891               0.004146543               0.000650793              -0.000473358               0.001539953               0.001066595               0.000000000               0.000000000               0.000000000               0.000000000               0.000299419               0.004529077               0.000599289              -0.000453852               0.001660961               0.001207109               0.000000000               0.000000000               0.000000000               0.000000000               0.000461149               0.004804849               0.000548928              -0.000427674               0.001744158               0.001316484               0.000000000               0.000000000               0.000000000               0.000000000               0.000624065               0.004998021               0.000497589              -0.000390727               0.001796233               0.001405505               0.000000000               0.000000000               0.000000000               0.000000000               0.000804375               0.005125069               0.000444491              -0.000338992               0.001821337               0.001482344               0.000000000               0.000000000               0.000000000               0.000000000               0.001012406               0.005199724               0.000387110              -0.000270313               0.001823328               0.001553016               0.000000000               0.000000000               0.000000000               0.000000000               0.001255357               0.005220379               0.000324296              -0.000181788               0.001800705               0.001618917               0.000000000               0.000000000               0.000000000               0.000000000               0.001544050               0.005189793               0.000246878              -0.000069705               0.001753149               0.001683443               0.000000000               0.000000000               0.000000000               0.000000000               0.001890285               0.005110654               0.000139290               0.000070024               0.001680193               0.001750217               0.000000000               0.000000000               0.000000000               0.000000000               0.002172300               0.005090542               0.000082677               0.000178293               0.001637399               0.001815692               0.000000000               0.000000000               0.000000000               0.000000000               0.000000000               0.000000000               0.000000000               0.000000000               0.000000000               0.000000000               0.000000000               0.000000000               0.000000000               0.000000000               0.000000000               0.000000000               0.000000000               0.000000000               0.000000000               0.000000000               0.000000000               0.000000000               0.000000000               0.000000000               0.000000000               0.000000000               0.000000000               0.000000000               0.000000000               0.000000000               0.000000000               0.000000000               0.000000000               0.000000000               0.000000000               0.000000000               0.000000000               0.000000000               0.000000000               0.000000000               0.000000000               0.000000000               0.000000000               0.000000000               0.000000000               0.000000000               0.000000000               0.000000000               0.000000000               0.000000000               0.000000000               0.000000000               0.000000000               0.000000000               0.000000000               0.000000000               0.000000000               0.000000000               0.000000000               0.000000000               0.000000000               0.000000000               0.000000000               0.000000000               0.000000000               0.000000000               0.000000000               0.000000000               0.000000000               0.000000000               0.000000000               0.000000000               0.000000000               0.000000000               0.000000000               0.000000000               0.000000000               0.000000000               0.000000000               0.000000000               0.000000000               0.000000000               0.000000000               0.000000000               0.000000000               0.000000000               0.000000000               0.000000000               0.000000000               0.000000000               0.000000000               0.000000000               0.000000000               0.000000000               0.000000000               0.000000000               0.000000000               0.000000000               0.000000000               0.000000000               0.000000000               0.000000000               0.000000000               0.000000000               0.000000000               0.000000000               0.000000000               0.000000000               0.000000000               0.000000000               0.000000000               0.000000000               0.000000000               0.000000000               0.000000000               0.000000000               0.000000000               0.000000000               0.000000000               0.000000000               0.000000000               0.000000000               0.000000000               0.000000000               0.000000000               0.000000000               0.000000000               0.000000000               0.000000000               0.000000000               0.000000000               0.000000000               0.000000000               0.000000000               0.000000000               0.000000000               0.000000000               0.000000000               0.000000000               0.000000000               0.000000000               0.000000000               0.000000000               0.000000000               0.000000000               0.000000000               0.000000000               0.000000000               0.000000000               0.000000000               0.000000000               0.000000000               0.000000000               0.000000000               0.000000000               0.000000000               0.000000000               0.000000000               0.000000000               0.000000000               0.000000000               0.000000000               0.000000000               0.000000000               0.000000000               0.000000000               0.000000000               0.000000000               0.000000000               0.000000000               0.000000000               0.000000000               0.000000000               0.000000000 </DataArray>
</PointData>
</Piece>
</UnstructuredGrid> </VTKFile>
