<?xml version="1.0"?>
<VTKFile type="UnstructuredGrid" version="0.1">
<UnstructuredGrid>
<Piece NumberOfPoints="      1156" NumberOfCells="      1024">
<Points>
<DataArray type="Float64"                                    Name="coordinates"                                                      NumberOfComponents=" 3" format="ascii">
              0.133000000               0.000000000               0.000000000               0.155937500               0.000000000               0.000000000               0.178875000               0.000000000               0.000000000               0.201812500               0.000000000               0.000000000               0.224750000               0.000000000               0.000000000               0.247687500               0.000000000               0.000000000               0.270625000               0.000000000               0.000000000               0.293562500               0.000000000               0.000000000               0.316500000               0.000000000               0.000000000               0.339437500               0.000000000               0.000000000               0.362375000               0.000000000               0.000000000               0.385312500               0.000000000               0.000000000               0.408250000               0.000000000               0.000000000               0.431187500               0.000000000               0.000000000               0.454125000               0.000000000               0.000000000               0.477062500               0.000000000               0.000000000               0.500000000               0.000000000               0.000000000               0.132359569               0.013036280               0.000000000               0.155337096               0.016127762               0.000000000               0.178314623               0.019219245               0.000000000               0.201292150               0.022310727               0.000000000               0.224269676               0.025402210               0.000000000               0.247247203               0.028493692               0.000000000               0.270224730               0.031585175               0.000000000               0.293202257               0.034676657               0.000000000               0.316179784               0.037768140               0.000000000               0.339157311               0.040859622               0.000000000               0.362134838               0.043951105               0.000000000               0.385112365               0.047042587               0.000000000               0.408089892               0.050134070               0.000000000               0.431067419               0.053225552               0.000000000               0.454044946               0.056317035               0.000000000               0.477022473               0.059408517               0.000000000               0.500000000               0.062500000               0.000000000               0.130444442               0.025947013               0.000000000               0.153541665               0.032137825               0.000000000               0.176638887               0.038328636               0.000000000               0.199736109               0.044519448               0.000000000               0.222833332               0.050710260               0.000000000               0.245930554               0.056901071               0.000000000               0.269027776               0.063091883               0.000000000               0.292124999               0.069282695               0.000000000               0.315222221               0.075473506               0.000000000               0.338319444               0.081664318               0.000000000               0.361416666               0.087855130               0.000000000               0.384513888               0.094045942               0.000000000               0.407611111               0.100236753               0.000000000               0.430708333               0.106427565               0.000000000               0.453805555               0.112618377               0.000000000               0.476902778               0.118809188               0.000000000               0.500000000               0.125000000               0.000000000               0.127273065               0.038607862               0.000000000               0.150568498               0.047913621               0.000000000               0.173863932               0.057219379               0.000000000               0.197159365               0.066525138               0.000000000               0.220454798               0.075830897               0.000000000               0.243750232               0.085136655               0.000000000               0.267045665               0.094442414               0.000000000               0.290341099               0.103748172               0.000000000               0.313636532               0.113053931               0.000000000               0.336931966               0.122359690               0.000000000               0.360227399               0.131665448               0.000000000               0.383522833               0.140971207               0.000000000               0.406818266               0.150276966               0.000000000               0.430113700               0.159582724               0.000000000               0.453409133               0.168888483               0.000000000               0.476704567               0.178194241               0.000000000               0.500000000               0.187500000               0.000000000               0.122875978               0.050896897               0.000000000               0.146446229               0.063340840               0.000000000               0.170016481               0.075784784               0.000000000               0.193586732               0.088228728               0.000000000               0.217156983               0.100672672               0.000000000               0.240727235               0.113116616               0.000000000               0.264297486               0.125560560               0.000000000               0.287867738               0.138004504               0.000000000               0.311437989               0.150448448               0.000000000               0.335008240               0.162892392               0.000000000               0.358578492               0.175336336               0.000000000               0.382148743               0.187780280               0.000000000               0.405718994               0.200224224               0.000000000               0.429289246               0.212668168               0.000000000               0.452859497               0.225112112               0.000000000               0.476429749               0.237556056               0.000000000               0.500000000               0.250000000               0.000000000               0.117295528               0.062695766               0.000000000               0.141214558               0.078308531               0.000000000               0.165133587               0.093921295               0.000000000               0.189052617               0.109534060               0.000000000               0.212971646               0.125146824               0.000000000               0.236890676               0.140759589               0.000000000               0.260809705               0.156372354               0.000000000               0.284728735               0.171985118               0.000000000               0.308647764               0.187597883               0.000000000               0.332566794               0.203210648               0.000000000               0.356485823               0.218823412               0.000000000               0.380404853               0.234436177               0.000000000               0.404323882               0.250048941               0.000000000               0.428242912               0.265661706               0.000000000               0.452161941               0.281274471               0.000000000               0.476080971               0.296887235               0.000000000               0.500000000               0.312500000               0.000000000               0.110585458               0.073890841               0.000000000               0.134923867               0.092710163               0.000000000               0.159262276               0.111529486               0.000000000               0.183600685               0.130348808               0.000000000               0.207939094               0.149168131               0.000000000               0.232277503               0.167987453               0.000000000               0.256615912               0.186806776               0.000000000               0.280954320               0.205626098               0.000000000               0.305292729               0.224445420               0.000000000               0.329631138               0.243264743               0.000000000               0.353969547               0.262084065               0.000000000               0.378307956               0.280903388               0.000000000               0.402646365               0.299722710               0.000000000               0.426984773               0.318542033               0.000000000               0.451323182               0.337361355               0.000000000               0.475661591               0.356180678               0.000000000               0.500000000               0.375000000               0.000000000               0.102810390               0.084374307               0.000000000               0.127634741               0.106444663               0.000000000               0.152459092               0.128515018               0.000000000               0.177283442               0.150585374               0.000000000               0.202107793               0.172655730               0.000000000               0.226932143               0.194726086               0.000000000               0.251756494               0.216796442               0.000000000               0.276580845               0.238866798               0.000000000               0.301405195               0.260937153               0.000000000               0.326229546               0.283007509               0.000000000               0.351053896               0.305077865               0.000000000               0.375878247               0.327148221               0.000000000               0.400702598               0.349218577               0.000000000               0.425526948               0.371288933               0.000000000               0.450351299               0.393359288               0.000000000               0.475175649               0.415429644               0.000000000               0.500000000               0.437500000               0.000000000               0.094045202               0.094045202               0.000000000               0.119417377               0.119417377               0.000000000               0.144789552               0.144789552               0.000000000               0.170161727               0.170161727               0.000000000               0.195533901               0.195533901               0.000000000               0.220906076               0.220906076               0.000000000               0.246278251               0.246278251               0.000000000               0.271650426               0.271650426               0.000000000               0.297022601               0.297022601               0.000000000               0.322394776               0.322394776               0.000000000               0.347766951               0.347766951               0.000000000               0.373139126               0.373139126               0.000000000               0.398511300               0.398511300               0.000000000               0.423883475               0.423883475               0.000000000               0.449255650               0.449255650               0.000000000               0.474627825               0.474627825               0.000000000               0.500000000               0.500000000               0.000000000               0.084374307               0.102810390               0.000000000               0.106444663               0.127634741               0.000000000               0.128515018               0.152459092               0.000000000               0.150585374               0.177283442               0.000000000               0.172655730               0.202107793               0.000000000               0.194726086               0.226932143               0.000000000               0.216796442               0.251756494               0.000000000               0.238866798               0.276580845               0.000000000               0.260937153               0.301405195               0.000000000               0.283007509               0.326229546               0.000000000               0.305077865               0.351053896               0.000000000               0.327148221               0.375878247               0.000000000               0.349218577               0.400702598               0.000000000               0.371288933               0.425526948               0.000000000               0.393359288               0.450351299               0.000000000               0.415429644               0.475175649               0.000000000               0.437500000               0.500000000               0.000000000               0.073890841               0.110585458               0.000000000               0.092710163               0.134923867               0.000000000               0.111529486               0.159262276               0.000000000               0.130348808               0.183600685               0.000000000               0.149168131               0.207939094               0.000000000               0.167987453               0.232277503               0.000000000               0.186806776               0.256615912               0.000000000               0.205626098               0.280954320               0.000000000               0.224445420               0.305292729               0.000000000               0.243264743               0.329631138               0.000000000               0.262084065               0.353969547               0.000000000               0.280903388               0.378307956               0.000000000               0.299722710               0.402646365               0.000000000               0.318542033               0.426984773               0.000000000               0.337361355               0.451323182               0.000000000               0.356180678               0.475661591               0.000000000               0.375000000               0.500000000               0.000000000               0.062695766               0.117295528               0.000000000               0.078308531               0.141214558               0.000000000               0.093921295               0.165133587               0.000000000               0.109534060               0.189052617               0.000000000               0.125146824               0.212971646               0.000000000               0.140759589               0.236890676               0.000000000               0.156372354               0.260809705               0.000000000               0.171985118               0.284728735               0.000000000               0.187597883               0.308647764               0.000000000               0.203210648               0.332566794               0.000000000               0.218823412               0.356485823               0.000000000               0.234436177               0.380404853               0.000000000               0.250048941               0.404323882               0.000000000               0.265661706               0.428242912               0.000000000               0.281274471               0.452161941               0.000000000               0.296887235               0.476080971               0.000000000               0.312500000               0.500000000               0.000000000               0.050896897               0.122875978               0.000000000               0.063340840               0.146446229               0.000000000               0.075784784               0.170016481               0.000000000               0.088228728               0.193586732               0.000000000               0.100672672               0.217156983               0.000000000               0.113116616               0.240727235               0.000000000               0.125560560               0.264297486               0.000000000               0.138004504               0.287867738               0.000000000               0.150448448               0.311437989               0.000000000               0.162892392               0.335008240               0.000000000               0.175336336               0.358578492               0.000000000               0.187780280               0.382148743               0.000000000               0.200224224               0.405718994               0.000000000               0.212668168               0.429289246               0.000000000               0.225112112               0.452859497               0.000000000               0.237556056               0.476429749               0.000000000               0.250000000               0.500000000               0.000000000               0.038607862               0.127273065               0.000000000               0.047913621               0.150568498               0.000000000               0.057219379               0.173863932               0.000000000               0.066525138               0.197159365               0.000000000               0.075830897               0.220454798               0.000000000               0.085136655               0.243750232               0.000000000               0.094442414               0.267045665               0.000000000               0.103748172               0.290341099               0.000000000               0.113053931               0.313636532               0.000000000               0.122359690               0.336931966               0.000000000               0.131665448               0.360227399               0.000000000               0.140971207               0.383522833               0.000000000               0.150276966               0.406818266               0.000000000               0.159582724               0.430113700               0.000000000               0.168888483               0.453409133               0.000000000               0.178194241               0.476704567               0.000000000               0.187500000               0.500000000               0.000000000               0.025947013               0.130444442               0.000000000               0.032137825               0.153541665               0.000000000               0.038328636               0.176638887               0.000000000               0.044519448               0.199736109               0.000000000               0.050710260               0.222833332               0.000000000               0.056901071               0.245930554               0.000000000               0.063091883               0.269027776               0.000000000               0.069282695               0.292124999               0.000000000               0.075473506               0.315222221               0.000000000               0.081664318               0.338319444               0.000000000               0.087855130               0.361416666               0.000000000               0.094045942               0.384513888               0.000000000               0.100236753               0.407611111               0.000000000               0.106427565               0.430708333               0.000000000               0.112618377               0.453805555               0.000000000               0.118809188               0.476902778               0.000000000               0.125000000               0.500000000               0.000000000               0.013036280               0.132359569               0.000000000               0.016127762               0.155337096               0.000000000               0.019219245               0.178314623               0.000000000               0.022310727               0.201292150               0.000000000               0.025402210               0.224269676               0.000000000               0.028493692               0.247247203               0.000000000               0.031585175               0.270224730               0.000000000               0.034676657               0.293202257               0.000000000               0.037768140               0.316179784               0.000000000               0.040859622               0.339157311               0.000000000               0.043951105               0.362134838               0.000000000               0.047042587               0.385112365               0.000000000               0.050134070               0.408089892               0.000000000               0.053225552               0.431067419               0.000000000               0.056317035               0.454044946               0.000000000               0.059408517               0.477022473               0.000000000               0.062500000               0.500000000               0.000000000               0.000000000               0.133000000               0.000000000               0.000000000               0.155937500               0.000000000               0.000000000               0.178875000               0.000000000               0.000000000               0.201812500               0.000000000               0.000000000               0.224750000               0.000000000               0.000000000               0.247687500               0.000000000               0.000000000               0.270625000               0.000000000               0.000000000               0.293562500               0.000000000               0.000000000               0.316500000               0.000000000               0.000000000               0.339437500               0.000000000               0.000000000               0.362375000               0.000000000               0.000000000               0.385312500               0.000000000               0.000000000               0.408250000               0.000000000               0.000000000               0.431187500               0.000000000               0.000000000               0.454125000               0.000000000               0.000000000               0.477062500               0.000000000               0.000000000               0.500000000               0.000000000               0.133000000               0.000000000               0.000000000               0.155937500               0.000000000               0.000000000               0.178875000               0.000000000               0.000000000               0.201812500               0.000000000               0.000000000               0.224750000               0.000000000               0.000000000               0.247687500               0.000000000               0.000000000               0.270625000               0.000000000               0.000000000               0.293562500               0.000000000               0.000000000               0.316500000               0.000000000               0.000000000               0.339437500               0.000000000               0.000000000               0.362375000               0.000000000               0.000000000               0.385312500               0.000000000               0.000000000               0.408250000               0.000000000               0.000000000               0.431187500               0.000000000               0.000000000               0.454125000               0.000000000               0.000000000               0.477062500               0.000000000               0.000000000               0.500000000               0.000000000               0.000000000               0.132359569              -0.013036280               0.000000000               0.155337096              -0.016127762               0.000000000               0.178314623              -0.019219245               0.000000000               0.201292150              -0.022310727               0.000000000               0.224269676              -0.025402210               0.000000000               0.247247203              -0.028493692               0.000000000               0.270224730              -0.031585175               0.000000000               0.293202257              -0.034676657               0.000000000               0.316179784              -0.037768140               0.000000000               0.339157311              -0.040859622               0.000000000               0.362134838              -0.043951105               0.000000000               0.385112365              -0.047042587               0.000000000               0.408089892              -0.050134070               0.000000000               0.431067419              -0.053225552               0.000000000               0.454044946              -0.056317035               0.000000000               0.477022473              -0.059408517               0.000000000               0.500000000              -0.062500000               0.000000000               0.130444442              -0.025947013               0.000000000               0.153541665              -0.032137825               0.000000000               0.176638887              -0.038328636               0.000000000               0.199736109              -0.044519448               0.000000000               0.222833332              -0.050710260               0.000000000               0.245930554              -0.056901071               0.000000000               0.269027776              -0.063091883               0.000000000               0.292124999              -0.069282695               0.000000000               0.315222221              -0.075473506               0.000000000               0.338319444              -0.081664318               0.000000000               0.361416666              -0.087855130               0.000000000               0.384513888              -0.094045942               0.000000000               0.407611111              -0.100236753               0.000000000               0.430708333              -0.106427565               0.000000000               0.453805555              -0.112618377               0.000000000               0.476902778              -0.118809188               0.000000000               0.500000000              -0.125000000               0.000000000               0.127273065              -0.038607862               0.000000000               0.150568498              -0.047913621               0.000000000               0.173863932              -0.057219379               0.000000000               0.197159365              -0.066525138               0.000000000               0.220454798              -0.075830897               0.000000000               0.243750232              -0.085136655               0.000000000               0.267045665              -0.094442414               0.000000000               0.290341099              -0.103748172               0.000000000               0.313636532              -0.113053931               0.000000000               0.336931966              -0.122359690               0.000000000               0.360227399              -0.131665448               0.000000000               0.383522833              -0.140971207               0.000000000               0.406818266              -0.150276966               0.000000000               0.430113700              -0.159582724               0.000000000               0.453409133              -0.168888483               0.000000000               0.476704567              -0.178194241               0.000000000               0.500000000              -0.187500000               0.000000000               0.122875978              -0.050896897               0.000000000               0.146446229              -0.063340840               0.000000000               0.170016481              -0.075784784               0.000000000               0.193586732              -0.088228728               0.000000000               0.217156983              -0.100672672               0.000000000               0.240727235              -0.113116616               0.000000000               0.264297486              -0.125560560               0.000000000               0.287867738              -0.138004504               0.000000000               0.311437989              -0.150448448               0.000000000               0.335008240              -0.162892392               0.000000000               0.358578492              -0.175336336               0.000000000               0.382148743              -0.187780280               0.000000000               0.405718994              -0.200224224               0.000000000               0.429289246              -0.212668168               0.000000000               0.452859497              -0.225112112               0.000000000               0.476429749              -0.237556056               0.000000000               0.500000000              -0.250000000               0.000000000               0.117295528              -0.062695766               0.000000000               0.141214558              -0.078308531               0.000000000               0.165133587              -0.093921295               0.000000000               0.189052617              -0.109534060               0.000000000               0.212971646              -0.125146824               0.000000000               0.236890676              -0.140759589               0.000000000               0.260809705              -0.156372354               0.000000000               0.284728735              -0.171985118               0.000000000               0.308647764              -0.187597883               0.000000000               0.332566794              -0.203210648               0.000000000               0.356485823              -0.218823412               0.000000000               0.380404853              -0.234436177               0.000000000               0.404323882              -0.250048941               0.000000000               0.428242912              -0.265661706               0.000000000               0.452161941              -0.281274471               0.000000000               0.476080971              -0.296887235               0.000000000               0.500000000              -0.312500000               0.000000000               0.110585458              -0.073890841               0.000000000               0.134923867              -0.092710163               0.000000000               0.159262276              -0.111529486               0.000000000               0.183600685              -0.130348808               0.000000000               0.207939094              -0.149168131               0.000000000               0.232277503              -0.167987453               0.000000000               0.256615912              -0.186806776               0.000000000               0.280954320              -0.205626098               0.000000000               0.305292729              -0.224445420               0.000000000               0.329631138              -0.243264743               0.000000000               0.353969547              -0.262084065               0.000000000               0.378307956              -0.280903388               0.000000000               0.402646365              -0.299722710               0.000000000               0.426984773              -0.318542033               0.000000000               0.451323182              -0.337361355               0.000000000               0.475661591              -0.356180678               0.000000000               0.500000000              -0.375000000               0.000000000               0.102810390              -0.084374307               0.000000000               0.127634741              -0.106444663               0.000000000               0.152459092              -0.128515018               0.000000000               0.177283442              -0.150585374               0.000000000               0.202107793              -0.172655730               0.000000000               0.226932143              -0.194726086               0.000000000               0.251756494              -0.216796442               0.000000000               0.276580845              -0.238866798               0.000000000               0.301405195              -0.260937153               0.000000000               0.326229546              -0.283007509               0.000000000               0.351053896              -0.305077865               0.000000000               0.375878247              -0.327148221               0.000000000               0.400702598              -0.349218577               0.000000000               0.425526948              -0.371288933               0.000000000               0.450351299              -0.393359288               0.000000000               0.475175649              -0.415429644               0.000000000               0.500000000              -0.437500000               0.000000000               0.094045202              -0.094045202               0.000000000               0.119417377              -0.119417377               0.000000000               0.144789552              -0.144789552               0.000000000               0.170161727              -0.170161727               0.000000000               0.195533901              -0.195533901               0.000000000               0.220906076              -0.220906076               0.000000000               0.246278251              -0.246278251               0.000000000               0.271650426              -0.271650426               0.000000000               0.297022601              -0.297022601               0.000000000               0.322394776              -0.322394776               0.000000000               0.347766951              -0.347766951               0.000000000               0.373139126              -0.373139126               0.000000000               0.398511300              -0.398511300               0.000000000               0.423883475              -0.423883475               0.000000000               0.449255650              -0.449255650               0.000000000               0.474627825              -0.474627825               0.000000000               0.500000000              -0.500000000               0.000000000               0.084374307              -0.102810390               0.000000000               0.106444663              -0.127634741               0.000000000               0.128515018              -0.152459092               0.000000000               0.150585374              -0.177283442               0.000000000               0.172655730              -0.202107793               0.000000000               0.194726086              -0.226932143               0.000000000               0.216796442              -0.251756494               0.000000000               0.238866798              -0.276580845               0.000000000               0.260937153              -0.301405195               0.000000000               0.283007509              -0.326229546               0.000000000               0.305077865              -0.351053896               0.000000000               0.327148221              -0.375878247               0.000000000               0.349218577              -0.400702598               0.000000000               0.371288933              -0.425526948               0.000000000               0.393359288              -0.450351299               0.000000000               0.415429644              -0.475175649               0.000000000               0.437500000              -0.500000000               0.000000000               0.073890841              -0.110585458               0.000000000               0.092710163              -0.134923867               0.000000000               0.111529486              -0.159262276               0.000000000               0.130348808              -0.183600685               0.000000000               0.149168131              -0.207939094               0.000000000               0.167987453              -0.232277503               0.000000000               0.186806776              -0.256615912               0.000000000               0.205626098              -0.280954320               0.000000000               0.224445420              -0.305292729               0.000000000               0.243264743              -0.329631138               0.000000000               0.262084065              -0.353969547               0.000000000               0.280903388              -0.378307956               0.000000000               0.299722710              -0.402646365               0.000000000               0.318542033              -0.426984773               0.000000000               0.337361355              -0.451323182               0.000000000               0.356180678              -0.475661591               0.000000000               0.375000000              -0.500000000               0.000000000               0.062695766              -0.117295528               0.000000000               0.078308531              -0.141214558               0.000000000               0.093921295              -0.165133587               0.000000000               0.109534060              -0.189052617               0.000000000               0.125146824              -0.212971646               0.000000000               0.140759589              -0.236890676               0.000000000               0.156372354              -0.260809705               0.000000000               0.171985118              -0.284728735               0.000000000               0.187597883              -0.308647764               0.000000000               0.203210648              -0.332566794               0.000000000               0.218823412              -0.356485823               0.000000000               0.234436177              -0.380404853               0.000000000               0.250048941              -0.404323882               0.000000000               0.265661706              -0.428242912               0.000000000               0.281274471              -0.452161941               0.000000000               0.296887235              -0.476080971               0.000000000               0.312500000              -0.500000000               0.000000000               0.050896897              -0.122875978               0.000000000               0.063340840              -0.146446229               0.000000000               0.075784784              -0.170016481               0.000000000               0.088228728              -0.193586732               0.000000000               0.100672672              -0.217156983               0.000000000               0.113116616              -0.240727235               0.000000000               0.125560560              -0.264297486               0.000000000               0.138004504              -0.287867738               0.000000000               0.150448448              -0.311437989               0.000000000               0.162892392              -0.335008240               0.000000000               0.175336336              -0.358578492               0.000000000               0.187780280              -0.382148743               0.000000000               0.200224224              -0.405718994               0.000000000               0.212668168              -0.429289246               0.000000000               0.225112112              -0.452859497               0.000000000               0.237556056              -0.476429749               0.000000000               0.250000000              -0.500000000               0.000000000               0.038607862              -0.127273065               0.000000000               0.047913621              -0.150568498               0.000000000               0.057219379              -0.173863932               0.000000000               0.066525138              -0.197159365               0.000000000               0.075830897              -0.220454798               0.000000000               0.085136655              -0.243750232               0.000000000               0.094442414              -0.267045665               0.000000000               0.103748172              -0.290341099               0.000000000               0.113053931              -0.313636532               0.000000000               0.122359690              -0.336931966               0.000000000               0.131665448              -0.360227399               0.000000000               0.140971207              -0.383522833               0.000000000               0.150276966              -0.406818266               0.000000000               0.159582724              -0.430113700               0.000000000               0.168888483              -0.453409133               0.000000000               0.178194241              -0.476704567               0.000000000               0.187500000              -0.500000000               0.000000000               0.025947013              -0.130444442               0.000000000               0.032137825              -0.153541665               0.000000000               0.038328636              -0.176638887               0.000000000               0.044519448              -0.199736109               0.000000000               0.050710260              -0.222833332               0.000000000               0.056901071              -0.245930554               0.000000000               0.063091883              -0.269027776               0.000000000               0.069282695              -0.292124999               0.000000000               0.075473506              -0.315222221               0.000000000               0.081664318              -0.338319444               0.000000000               0.087855130              -0.361416666               0.000000000               0.094045942              -0.384513888               0.000000000               0.100236753              -0.407611111               0.000000000               0.106427565              -0.430708333               0.000000000               0.112618377              -0.453805555               0.000000000               0.118809188              -0.476902778               0.000000000               0.125000000              -0.500000000               0.000000000               0.013036280              -0.132359569               0.000000000               0.016127762              -0.155337096               0.000000000               0.019219245              -0.178314623               0.000000000               0.022310727              -0.201292150               0.000000000               0.025402210              -0.224269676               0.000000000               0.028493692              -0.247247203               0.000000000               0.031585175              -0.270224730               0.000000000               0.034676657              -0.293202257               0.000000000               0.037768140              -0.316179784               0.000000000               0.040859622              -0.339157311               0.000000000               0.043951105              -0.362134838               0.000000000               0.047042587              -0.385112365               0.000000000               0.050134070              -0.408089892               0.000000000               0.053225552              -0.431067419               0.000000000               0.056317035              -0.454044946               0.000000000               0.059408517              -0.477022473               0.000000000               0.062500000              -0.500000000               0.000000000               0.000000000              -0.133000000               0.000000000               0.000000000              -0.155937500               0.000000000               0.000000000              -0.178875000               0.000000000               0.000000000              -0.201812500               0.000000000               0.000000000              -0.224750000               0.000000000               0.000000000              -0.247687500               0.000000000               0.000000000              -0.270625000               0.000000000               0.000000000              -0.293562500               0.000000000               0.000000000              -0.316500000               0.000000000               0.000000000              -0.339437500               0.000000000               0.000000000              -0.362375000               0.000000000               0.000000000              -0.385312500               0.000000000               0.000000000              -0.408250000               0.000000000               0.000000000              -0.431187500               0.000000000               0.000000000              -0.454125000               0.000000000               0.000000000              -0.477062500               0.000000000               0.000000000              -0.500000000               0.000000000              -0.133000000               0.000000000               0.000000000              -0.155937500               0.000000000               0.000000000              -0.178875000               0.000000000               0.000000000              -0.201812500               0.000000000               0.000000000              -0.224750000               0.000000000               0.000000000              -0.247687500               0.000000000               0.000000000              -0.270625000               0.000000000               0.000000000              -0.293562500               0.000000000               0.000000000              -0.316500000               0.000000000               0.000000000              -0.339437500               0.000000000               0.000000000              -0.362375000               0.000000000               0.000000000              -0.385312500               0.000000000               0.000000000              -0.408250000               0.000000000               0.000000000              -0.431187500               0.000000000               0.000000000              -0.454125000               0.000000000               0.000000000              -0.477062500               0.000000000               0.000000000              -0.500000000               0.000000000               0.000000000              -0.132359569              -0.013036280               0.000000000              -0.155337096              -0.016127762               0.000000000              -0.178314623              -0.019219245               0.000000000              -0.201292150              -0.022310727               0.000000000              -0.224269676              -0.025402210               0.000000000              -0.247247203              -0.028493692               0.000000000              -0.270224730              -0.031585175               0.000000000              -0.293202257              -0.034676657               0.000000000              -0.316179784              -0.037768140               0.000000000              -0.339157311              -0.040859622               0.000000000              -0.362134838              -0.043951105               0.000000000              -0.385112365              -0.047042587               0.000000000              -0.408089892              -0.050134070               0.000000000              -0.431067419              -0.053225552               0.000000000              -0.454044946              -0.056317035               0.000000000              -0.477022473              -0.059408517               0.000000000              -0.500000000              -0.062500000               0.000000000              -0.130444442              -0.025947013               0.000000000              -0.153541665              -0.032137825               0.000000000              -0.176638887              -0.038328636               0.000000000              -0.199736109              -0.044519448               0.000000000              -0.222833332              -0.050710260               0.000000000              -0.245930554              -0.056901071               0.000000000              -0.269027776              -0.063091883               0.000000000              -0.292124999              -0.069282695               0.000000000              -0.315222221              -0.075473506               0.000000000              -0.338319444              -0.081664318               0.000000000              -0.361416666              -0.087855130               0.000000000              -0.384513888              -0.094045942               0.000000000              -0.407611111              -0.100236753               0.000000000              -0.430708333              -0.106427565               0.000000000              -0.453805555              -0.112618377               0.000000000              -0.476902778              -0.118809188               0.000000000              -0.500000000              -0.125000000               0.000000000              -0.127273065              -0.038607862               0.000000000              -0.150568498              -0.047913621               0.000000000              -0.173863932              -0.057219379               0.000000000              -0.197159365              -0.066525138               0.000000000              -0.220454798              -0.075830897               0.000000000              -0.243750232              -0.085136655               0.000000000              -0.267045665              -0.094442414               0.000000000              -0.290341099              -0.103748172               0.000000000              -0.313636532              -0.113053931               0.000000000              -0.336931966              -0.122359690               0.000000000              -0.360227399              -0.131665448               0.000000000              -0.383522833              -0.140971207               0.000000000              -0.406818266              -0.150276966               0.000000000              -0.430113700              -0.159582724               0.000000000              -0.453409133              -0.168888483               0.000000000              -0.476704567              -0.178194241               0.000000000              -0.500000000              -0.187500000               0.000000000              -0.122875978              -0.050896897               0.000000000              -0.146446229              -0.063340840               0.000000000              -0.170016481              -0.075784784               0.000000000              -0.193586732              -0.088228728               0.000000000              -0.217156983              -0.100672672               0.000000000              -0.240727235              -0.113116616               0.000000000              -0.264297486              -0.125560560               0.000000000              -0.287867738              -0.138004504               0.000000000              -0.311437989              -0.150448448               0.000000000              -0.335008240              -0.162892392               0.000000000              -0.358578492              -0.175336336               0.000000000              -0.382148743              -0.187780280               0.000000000              -0.405718994              -0.200224224               0.000000000              -0.429289246              -0.212668168               0.000000000              -0.452859497              -0.225112112               0.000000000              -0.476429749              -0.237556056               0.000000000              -0.500000000              -0.250000000               0.000000000              -0.117295528              -0.062695766               0.000000000              -0.141214558              -0.078308531               0.000000000              -0.165133587              -0.093921295               0.000000000              -0.189052617              -0.109534060               0.000000000              -0.212971646              -0.125146824               0.000000000              -0.236890676              -0.140759589               0.000000000              -0.260809705              -0.156372354               0.000000000              -0.284728735              -0.171985118               0.000000000              -0.308647764              -0.187597883               0.000000000              -0.332566794              -0.203210648               0.000000000              -0.356485823              -0.218823412               0.000000000              -0.380404853              -0.234436177               0.000000000              -0.404323882              -0.250048941               0.000000000              -0.428242912              -0.265661706               0.000000000              -0.452161941              -0.281274471               0.000000000              -0.476080971              -0.296887235               0.000000000              -0.500000000              -0.312500000               0.000000000              -0.110585458              -0.073890841               0.000000000              -0.134923867              -0.092710163               0.000000000              -0.159262276              -0.111529486               0.000000000              -0.183600685              -0.130348808               0.000000000              -0.207939094              -0.149168131               0.000000000              -0.232277503              -0.167987453               0.000000000              -0.256615912              -0.186806776               0.000000000              -0.280954320              -0.205626098               0.000000000              -0.305292729              -0.224445420               0.000000000              -0.329631138              -0.243264743               0.000000000              -0.353969547              -0.262084065               0.000000000              -0.378307956              -0.280903388               0.000000000              -0.402646365              -0.299722710               0.000000000              -0.426984773              -0.318542033               0.000000000              -0.451323182              -0.337361355               0.000000000              -0.475661591              -0.356180678               0.000000000              -0.500000000              -0.375000000               0.000000000              -0.102810390              -0.084374307               0.000000000              -0.127634741              -0.106444663               0.000000000              -0.152459092              -0.128515018               0.000000000              -0.177283442              -0.150585374               0.000000000              -0.202107793              -0.172655730               0.000000000              -0.226932143              -0.194726086               0.000000000              -0.251756494              -0.216796442               0.000000000              -0.276580845              -0.238866798               0.000000000              -0.301405195              -0.260937153               0.000000000              -0.326229546              -0.283007509               0.000000000              -0.351053896              -0.305077865               0.000000000              -0.375878247              -0.327148221               0.000000000              -0.400702598              -0.349218577               0.000000000              -0.425526948              -0.371288933               0.000000000              -0.450351299              -0.393359288               0.000000000              -0.475175649              -0.415429644               0.000000000              -0.500000000              -0.437500000               0.000000000              -0.094045202              -0.094045202               0.000000000              -0.119417377              -0.119417377               0.000000000              -0.144789552              -0.144789552               0.000000000              -0.170161727              -0.170161727               0.000000000              -0.195533901              -0.195533901               0.000000000              -0.220906076              -0.220906076               0.000000000              -0.246278251              -0.246278251               0.000000000              -0.271650426              -0.271650426               0.000000000              -0.297022601              -0.297022601               0.000000000              -0.322394776              -0.322394776               0.000000000              -0.347766951              -0.347766951               0.000000000              -0.373139126              -0.373139126               0.000000000              -0.398511300              -0.398511300               0.000000000              -0.423883475              -0.423883475               0.000000000              -0.449255650              -0.449255650               0.000000000              -0.474627825              -0.474627825               0.000000000              -0.500000000              -0.500000000               0.000000000              -0.084374307              -0.102810390               0.000000000              -0.106444663              -0.127634741               0.000000000              -0.128515018              -0.152459092               0.000000000              -0.150585374              -0.177283442               0.000000000              -0.172655730              -0.202107793               0.000000000              -0.194726086              -0.226932143               0.000000000              -0.216796442              -0.251756494               0.000000000              -0.238866798              -0.276580845               0.000000000              -0.260937153              -0.301405195               0.000000000              -0.283007509              -0.326229546               0.000000000              -0.305077865              -0.351053896               0.000000000              -0.327148221              -0.375878247               0.000000000              -0.349218577              -0.400702598               0.000000000              -0.371288933              -0.425526948               0.000000000              -0.393359288              -0.450351299               0.000000000              -0.415429644              -0.475175649               0.000000000              -0.437500000              -0.500000000               0.000000000              -0.073890841              -0.110585458               0.000000000              -0.092710163              -0.134923867               0.000000000              -0.111529486              -0.159262276               0.000000000              -0.130348808              -0.183600685               0.000000000              -0.149168131              -0.207939094               0.000000000              -0.167987453              -0.232277503               0.000000000              -0.186806776              -0.256615912               0.000000000              -0.205626098              -0.280954320               0.000000000              -0.224445420              -0.305292729               0.000000000              -0.243264743              -0.329631138               0.000000000              -0.262084065              -0.353969547               0.000000000              -0.280903388              -0.378307956               0.000000000              -0.299722710              -0.402646365               0.000000000              -0.318542033              -0.426984773               0.000000000              -0.337361355              -0.451323182               0.000000000              -0.356180678              -0.475661591               0.000000000              -0.375000000              -0.500000000               0.000000000              -0.062695766              -0.117295528               0.000000000              -0.078308531              -0.141214558               0.000000000              -0.093921295              -0.165133587               0.000000000              -0.109534060              -0.189052617               0.000000000              -0.125146824              -0.212971646               0.000000000              -0.140759589              -0.236890676               0.000000000              -0.156372354              -0.260809705               0.000000000              -0.171985118              -0.284728735               0.000000000              -0.187597883              -0.308647764               0.000000000              -0.203210648              -0.332566794               0.000000000              -0.218823412              -0.356485823               0.000000000              -0.234436177              -0.380404853               0.000000000              -0.250048941              -0.404323882               0.000000000              -0.265661706              -0.428242912               0.000000000              -0.281274471              -0.452161941               0.000000000              -0.296887235              -0.476080971               0.000000000              -0.312500000              -0.500000000               0.000000000              -0.050896897              -0.122875978               0.000000000              -0.063340840              -0.146446229               0.000000000              -0.075784784              -0.170016481               0.000000000              -0.088228728              -0.193586732               0.000000000              -0.100672672              -0.217156983               0.000000000              -0.113116616              -0.240727235               0.000000000              -0.125560560              -0.264297486               0.000000000              -0.138004504              -0.287867738               0.000000000              -0.150448448              -0.311437989               0.000000000              -0.162892392              -0.335008240               0.000000000              -0.175336336              -0.358578492               0.000000000              -0.187780280              -0.382148743               0.000000000              -0.200224224              -0.405718994               0.000000000              -0.212668168              -0.429289246               0.000000000              -0.225112112              -0.452859497               0.000000000              -0.237556056              -0.476429749               0.000000000              -0.250000000              -0.500000000               0.000000000              -0.038607862              -0.127273065               0.000000000              -0.047913621              -0.150568498               0.000000000              -0.057219379              -0.173863932               0.000000000              -0.066525138              -0.197159365               0.000000000              -0.075830897              -0.220454798               0.000000000              -0.085136655              -0.243750232               0.000000000              -0.094442414              -0.267045665               0.000000000              -0.103748172              -0.290341099               0.000000000              -0.113053931              -0.313636532               0.000000000              -0.122359690              -0.336931966               0.000000000              -0.131665448              -0.360227399               0.000000000              -0.140971207              -0.383522833               0.000000000              -0.150276966              -0.406818266               0.000000000              -0.159582724              -0.430113700               0.000000000              -0.168888483              -0.453409133               0.000000000              -0.178194241              -0.476704567               0.000000000              -0.187500000              -0.500000000               0.000000000              -0.025947013              -0.130444442               0.000000000              -0.032137825              -0.153541665               0.000000000              -0.038328636              -0.176638887               0.000000000              -0.044519448              -0.199736109               0.000000000              -0.050710260              -0.222833332               0.000000000              -0.056901071              -0.245930554               0.000000000              -0.063091883              -0.269027776               0.000000000              -0.069282695              -0.292124999               0.000000000              -0.075473506              -0.315222221               0.000000000              -0.081664318              -0.338319444               0.000000000              -0.087855130              -0.361416666               0.000000000              -0.094045942              -0.384513888               0.000000000              -0.100236753              -0.407611111               0.000000000              -0.106427565              -0.430708333               0.000000000              -0.112618377              -0.453805555               0.000000000              -0.118809188              -0.476902778               0.000000000              -0.125000000              -0.500000000               0.000000000              -0.013036280              -0.132359569               0.000000000              -0.016127762              -0.155337096               0.000000000              -0.019219245              -0.178314623               0.000000000              -0.022310727              -0.201292150               0.000000000              -0.025402210              -0.224269676               0.000000000              -0.028493692              -0.247247203               0.000000000              -0.031585175              -0.270224730               0.000000000              -0.034676657              -0.293202257               0.000000000              -0.037768140              -0.316179784               0.000000000              -0.040859622              -0.339157311               0.000000000              -0.043951105              -0.362134838               0.000000000              -0.047042587              -0.385112365               0.000000000              -0.050134070              -0.408089892               0.000000000              -0.053225552              -0.431067419               0.000000000              -0.056317035              -0.454044946               0.000000000              -0.059408517              -0.477022473               0.000000000              -0.062500000              -0.500000000               0.000000000               0.000000000              -0.133000000               0.000000000               0.000000000              -0.155937500               0.000000000               0.000000000              -0.178875000               0.000000000               0.000000000              -0.201812500               0.000000000               0.000000000              -0.224750000               0.000000000               0.000000000              -0.247687500               0.000000000               0.000000000              -0.270625000               0.000000000               0.000000000              -0.293562500               0.000000000               0.000000000              -0.316500000               0.000000000               0.000000000              -0.339437500               0.000000000               0.000000000              -0.362375000               0.000000000               0.000000000              -0.385312500               0.000000000               0.000000000              -0.408250000               0.000000000               0.000000000              -0.431187500               0.000000000               0.000000000              -0.454125000               0.000000000               0.000000000              -0.477062500               0.000000000               0.000000000              -0.500000000               0.000000000              -0.133000000               0.000000000               0.000000000              -0.155937500               0.000000000               0.000000000              -0.178875000               0.000000000               0.000000000              -0.201812500               0.000000000               0.000000000              -0.224750000               0.000000000               0.000000000              -0.247687500               0.000000000               0.000000000              -0.270625000               0.000000000               0.000000000              -0.293562500               0.000000000               0.000000000              -0.316500000               0.000000000               0.000000000              -0.339437500               0.000000000               0.000000000              -0.362375000               0.000000000               0.000000000              -0.385312500               0.000000000               0.000000000              -0.408250000               0.000000000               0.000000000              -0.431187500               0.000000000               0.000000000              -0.454125000               0.000000000               0.000000000              -0.477062500               0.000000000               0.000000000              -0.500000000               0.000000000               0.000000000              -0.132359569               0.013036280               0.000000000              -0.155337096               0.016127762               0.000000000              -0.178314623               0.019219245               0.000000000              -0.201292150               0.022310727               0.000000000              -0.224269676               0.025402210               0.000000000              -0.247247203               0.028493692               0.000000000              -0.270224730               0.031585175               0.000000000              -0.293202257               0.034676657               0.000000000              -0.316179784               0.037768140               0.000000000              -0.339157311               0.040859622               0.000000000              -0.362134838               0.043951105               0.000000000              -0.385112365               0.047042587               0.000000000              -0.408089892               0.050134070               0.000000000              -0.431067419               0.053225552               0.000000000              -0.454044946               0.056317035               0.000000000              -0.477022473               0.059408517               0.000000000              -0.500000000               0.062500000               0.000000000              -0.130444442               0.025947013               0.000000000              -0.153541665               0.032137825               0.000000000              -0.176638887               0.038328636               0.000000000              -0.199736109               0.044519448               0.000000000              -0.222833332               0.050710260               0.000000000              -0.245930554               0.056901071               0.000000000              -0.269027776               0.063091883               0.000000000              -0.292124999               0.069282695               0.000000000              -0.315222221               0.075473506               0.000000000              -0.338319444               0.081664318               0.000000000              -0.361416666               0.087855130               0.000000000              -0.384513888               0.094045942               0.000000000              -0.407611111               0.100236753               0.000000000              -0.430708333               0.106427565               0.000000000              -0.453805555               0.112618377               0.000000000              -0.476902778               0.118809188               0.000000000              -0.500000000               0.125000000               0.000000000              -0.127273065               0.038607862               0.000000000              -0.150568498               0.047913621               0.000000000              -0.173863932               0.057219379               0.000000000              -0.197159365               0.066525138               0.000000000              -0.220454798               0.075830897               0.000000000              -0.243750232               0.085136655               0.000000000              -0.267045665               0.094442414               0.000000000              -0.290341099               0.103748172               0.000000000              -0.313636532               0.113053931               0.000000000              -0.336931966               0.122359690               0.000000000              -0.360227399               0.131665448               0.000000000              -0.383522833               0.140971207               0.000000000              -0.406818266               0.150276966               0.000000000              -0.430113700               0.159582724               0.000000000              -0.453409133               0.168888483               0.000000000              -0.476704567               0.178194241               0.000000000              -0.500000000               0.187500000               0.000000000              -0.122875978               0.050896897               0.000000000              -0.146446229               0.063340840               0.000000000              -0.170016481               0.075784784               0.000000000              -0.193586732               0.088228728               0.000000000              -0.217156983               0.100672672               0.000000000              -0.240727235               0.113116616               0.000000000              -0.264297486               0.125560560               0.000000000              -0.287867738               0.138004504               0.000000000              -0.311437989               0.150448448               0.000000000              -0.335008240               0.162892392               0.000000000              -0.358578492               0.175336336               0.000000000              -0.382148743               0.187780280               0.000000000              -0.405718994               0.200224224               0.000000000              -0.429289246               0.212668168               0.000000000              -0.452859497               0.225112112               0.000000000              -0.476429749               0.237556056               0.000000000              -0.500000000               0.250000000               0.000000000              -0.117295528               0.062695766               0.000000000              -0.141214558               0.078308531               0.000000000              -0.165133587               0.093921295               0.000000000              -0.189052617               0.109534060               0.000000000              -0.212971646               0.125146824               0.000000000              -0.236890676               0.140759589               0.000000000              -0.260809705               0.156372354               0.000000000              -0.284728735               0.171985118               0.000000000              -0.308647764               0.187597883               0.000000000              -0.332566794               0.203210648               0.000000000              -0.356485823               0.218823412               0.000000000              -0.380404853               0.234436177               0.000000000              -0.404323882               0.250048941               0.000000000              -0.428242912               0.265661706               0.000000000              -0.452161941               0.281274471               0.000000000              -0.476080971               0.296887235               0.000000000              -0.500000000               0.312500000               0.000000000              -0.110585458               0.073890841               0.000000000              -0.134923867               0.092710163               0.000000000              -0.159262276               0.111529486               0.000000000              -0.183600685               0.130348808               0.000000000              -0.207939094               0.149168131               0.000000000              -0.232277503               0.167987453               0.000000000              -0.256615912               0.186806776               0.000000000              -0.280954320               0.205626098               0.000000000              -0.305292729               0.224445420               0.000000000              -0.329631138               0.243264743               0.000000000              -0.353969547               0.262084065               0.000000000              -0.378307956               0.280903388               0.000000000              -0.402646365               0.299722710               0.000000000              -0.426984773               0.318542033               0.000000000              -0.451323182               0.337361355               0.000000000              -0.475661591               0.356180678               0.000000000              -0.500000000               0.375000000               0.000000000              -0.102810390               0.084374307               0.000000000              -0.127634741               0.106444663               0.000000000              -0.152459092               0.128515018               0.000000000              -0.177283442               0.150585374               0.000000000              -0.202107793               0.172655730               0.000000000              -0.226932143               0.194726086               0.000000000              -0.251756494               0.216796442               0.000000000              -0.276580845               0.238866798               0.000000000              -0.301405195               0.260937153               0.000000000              -0.326229546               0.283007509               0.000000000              -0.351053896               0.305077865               0.000000000              -0.375878247               0.327148221               0.000000000              -0.400702598               0.349218577               0.000000000              -0.425526948               0.371288933               0.000000000              -0.450351299               0.393359288               0.000000000              -0.475175649               0.415429644               0.000000000              -0.500000000               0.437500000               0.000000000              -0.094045202               0.094045202               0.000000000              -0.119417377               0.119417377               0.000000000              -0.144789552               0.144789552               0.000000000              -0.170161727               0.170161727               0.000000000              -0.195533901               0.195533901               0.000000000              -0.220906076               0.220906076               0.000000000              -0.246278251               0.246278251               0.000000000              -0.271650426               0.271650426               0.000000000              -0.297022601               0.297022601               0.000000000              -0.322394776               0.322394776               0.000000000              -0.347766951               0.347766951               0.000000000              -0.373139126               0.373139126               0.000000000              -0.398511300               0.398511300               0.000000000              -0.423883475               0.423883475               0.000000000              -0.449255650               0.449255650               0.000000000              -0.474627825               0.474627825               0.000000000              -0.500000000               0.500000000               0.000000000              -0.084374307               0.102810390               0.000000000              -0.106444663               0.127634741               0.000000000              -0.128515018               0.152459092               0.000000000              -0.150585374               0.177283442               0.000000000              -0.172655730               0.202107793               0.000000000              -0.194726086               0.226932143               0.000000000              -0.216796442               0.251756494               0.000000000              -0.238866798               0.276580845               0.000000000              -0.260937153               0.301405195               0.000000000              -0.283007509               0.326229546               0.000000000              -0.305077865               0.351053896               0.000000000              -0.327148221               0.375878247               0.000000000              -0.349218577               0.400702598               0.000000000              -0.371288933               0.425526948               0.000000000              -0.393359288               0.450351299               0.000000000              -0.415429644               0.475175649               0.000000000              -0.437500000               0.500000000               0.000000000              -0.073890841               0.110585458               0.000000000              -0.092710163               0.134923867               0.000000000              -0.111529486               0.159262276               0.000000000              -0.130348808               0.183600685               0.000000000              -0.149168131               0.207939094               0.000000000              -0.167987453               0.232277503               0.000000000              -0.186806776               0.256615912               0.000000000              -0.205626098               0.280954320               0.000000000              -0.224445420               0.305292729               0.000000000              -0.243264743               0.329631138               0.000000000              -0.262084065               0.353969547               0.000000000              -0.280903388               0.378307956               0.000000000              -0.299722710               0.402646365               0.000000000              -0.318542033               0.426984773               0.000000000              -0.337361355               0.451323182               0.000000000              -0.356180678               0.475661591               0.000000000              -0.375000000               0.500000000               0.000000000              -0.062695766               0.117295528               0.000000000              -0.078308531               0.141214558               0.000000000              -0.093921295               0.165133587               0.000000000              -0.109534060               0.189052617               0.000000000              -0.125146824               0.212971646               0.000000000              -0.140759589               0.236890676               0.000000000              -0.156372354               0.260809705               0.000000000              -0.171985118               0.284728735               0.000000000              -0.187597883               0.308647764               0.000000000              -0.203210648               0.332566794               0.000000000              -0.218823412               0.356485823               0.000000000              -0.234436177               0.380404853               0.000000000              -0.250048941               0.404323882               0.000000000              -0.265661706               0.428242912               0.000000000              -0.281274471               0.452161941               0.000000000              -0.296887235               0.476080971               0.000000000              -0.312500000               0.500000000               0.000000000              -0.050896897               0.122875978               0.000000000              -0.063340840               0.146446229               0.000000000              -0.075784784               0.170016481               0.000000000              -0.088228728               0.193586732               0.000000000              -0.100672672               0.217156983               0.000000000              -0.113116616               0.240727235               0.000000000              -0.125560560               0.264297486               0.000000000              -0.138004504               0.287867738               0.000000000              -0.150448448               0.311437989               0.000000000              -0.162892392               0.335008240               0.000000000              -0.175336336               0.358578492               0.000000000              -0.187780280               0.382148743               0.000000000              -0.200224224               0.405718994               0.000000000              -0.212668168               0.429289246               0.000000000              -0.225112112               0.452859497               0.000000000              -0.237556056               0.476429749               0.000000000              -0.250000000               0.500000000               0.000000000              -0.038607862               0.127273065               0.000000000              -0.047913621               0.150568498               0.000000000              -0.057219379               0.173863932               0.000000000              -0.066525138               0.197159365               0.000000000              -0.075830897               0.220454798               0.000000000              -0.085136655               0.243750232               0.000000000              -0.094442414               0.267045665               0.000000000              -0.103748172               0.290341099               0.000000000              -0.113053931               0.313636532               0.000000000              -0.122359690               0.336931966               0.000000000              -0.131665448               0.360227399               0.000000000              -0.140971207               0.383522833               0.000000000              -0.150276966               0.406818266               0.000000000              -0.159582724               0.430113700               0.000000000              -0.168888483               0.453409133               0.000000000              -0.178194241               0.476704567               0.000000000              -0.187500000               0.500000000               0.000000000              -0.025947013               0.130444442               0.000000000              -0.032137825               0.153541665               0.000000000              -0.038328636               0.176638887               0.000000000              -0.044519448               0.199736109               0.000000000              -0.050710260               0.222833332               0.000000000              -0.056901071               0.245930554               0.000000000              -0.063091883               0.269027776               0.000000000              -0.069282695               0.292124999               0.000000000              -0.075473506               0.315222221               0.000000000              -0.081664318               0.338319444               0.000000000              -0.087855130               0.361416666               0.000000000              -0.094045942               0.384513888               0.000000000              -0.100236753               0.407611111               0.000000000              -0.106427565               0.430708333               0.000000000              -0.112618377               0.453805555               0.000000000              -0.118809188               0.476902778               0.000000000              -0.125000000               0.500000000               0.000000000              -0.013036280               0.132359569               0.000000000              -0.016127762               0.155337096               0.000000000              -0.019219245               0.178314623               0.000000000              -0.022310727               0.201292150               0.000000000              -0.025402210               0.224269676               0.000000000              -0.028493692               0.247247203               0.000000000              -0.031585175               0.270224730               0.000000000              -0.034676657               0.293202257               0.000000000              -0.037768140               0.316179784               0.000000000              -0.040859622               0.339157311               0.000000000              -0.043951105               0.362134838               0.000000000              -0.047042587               0.385112365               0.000000000              -0.050134070               0.408089892               0.000000000              -0.053225552               0.431067419               0.000000000              -0.056317035               0.454044946               0.000000000              -0.059408517               0.477022473               0.000000000              -0.062500000               0.500000000               0.000000000               0.000000000               0.133000000               0.000000000               0.000000000               0.155937500               0.000000000               0.000000000               0.178875000               0.000000000               0.000000000               0.201812500               0.000000000               0.000000000               0.224750000               0.000000000               0.000000000               0.247687500               0.000000000               0.000000000               0.270625000               0.000000000               0.000000000               0.293562500               0.000000000               0.000000000               0.316500000               0.000000000               0.000000000               0.339437500               0.000000000               0.000000000               0.362375000               0.000000000               0.000000000               0.385312500               0.000000000               0.000000000               0.408250000               0.000000000               0.000000000               0.431187500               0.000000000               0.000000000               0.454125000               0.000000000               0.000000000               0.477062500               0.000000000               0.000000000               0.500000000               0.000000000 </DataArray>
</Points>
<Cells>
<DataArray type="Int32"                                    Name="connectivity"                                                      NumberOfComponents=" 1" format="ascii">
         0          1         18         17          1          2         19         18          2          3         20         19          3          4         21         20          4          5         22         21          5          6         23         22          6          7         24         23          7          8         25         24          8          9         26         25          9         10         27         26         10         11         28         27         11         12         29         28         12         13         30         29         13         14         31         30         14         15         32         31         15         16         33         32         17         18         35         34         18         19         36         35         19         20         37         36         20         21         38         37         21         22         39         38         22         23         40         39         23         24         41         40         24         25         42         41         25         26         43         42         26         27         44         43         27         28         45         44         28         29         46         45         29         30         47         46         30         31         48         47         31         32         49         48         32         33         50         49         34         35         52         51         35         36         53         52         36         37         54         53         37         38         55         54         38         39         56         55         39         40         57         56         40         41         58         57         41         42         59         58         42         43         60         59         43         44         61         60         44         45         62         61         45         46         63         62         46         47         64         63         47         48         65         64         48         49         66         65         49         50         67         66         51         52         69         68         52         53         70         69         53         54         71         70         54         55         72         71         55         56         73         72         56         57         74         73         57         58         75         74         58         59         76         75         59         60         77         76         60         61         78         77         61         62         79         78         62         63         80         79         63         64         81         80         64         65         82         81         65         66         83         82         66         67         84         83         68         69         86         85         69         70         87         86         70         71         88         87         71         72         89         88         72         73         90         89         73         74         91         90         74         75         92         91         75         76         93         92         76         77         94         93         77         78         95         94         78         79         96         95         79         80         97         96         80         81         98         97         81         82         99         98         82         83        100         99         83         84        101        100         85         86        103        102         86         87        104        103         87         88        105        104         88         89        106        105         89         90        107        106         90         91        108        107         91         92        109        108         92         93        110        109         93         94        111        110         94         95        112        111         95         96        113        112         96         97        114        113         97         98        115        114         98         99        116        115         99        100        117        116        100        101        118        117        102        103        120        119        103        104        121        120        104        105        122        121        105        106        123        122        106        107        124        123        107        108        125        124        108        109        126        125        109        110        127        126        110        111        128        127        111        112        129        128        112        113        130        129        113        114        131        130        114        115        132        131        115        116        133        132        116        117        134        133        117        118        135        134        119        120        137        136        120        121        138        137        121        122        139        138        122        123        140        139        123        124        141        140        124        125        142        141        125        126        143        142        126        127        144        143        127        128        145        144        128        129        146        145        129        130        147        146        130        131        148        147        131        132        149        148        132        133        150        149        133        134        151        150        134        135        152        151        136        137        154        153        137        138        155        154        138        139        156        155        139        140        157        156        140        141        158        157        141        142        159        158        142        143        160        159        143        144        161        160        144        145        162        161        145        146        163        162        146        147        164        163        147        148        165        164        148        149        166        165        149        150        167        166        150        151        168        167        151        152        169        168        153        154        171        170        154        155        172        171        155        156        173        172        156        157        174        173        157        158        175        174        158        159        176        175        159        160        177        176        160        161        178        177        161        162        179        178        162        163        180        179        163        164        181        180        164        165        182        181        165        166        183        182        166        167        184        183        167        168        185        184        168        169        186        185        170        171        188        187        171        172        189        188        172        173        190        189        173        174        191        190        174        175        192        191        175        176        193        192        176        177        194        193        177        178        195        194        178        179        196        195        179        180        197        196        180        181        198        197        181        182        199        198        182        183        200        199        183        184        201        200        184        185        202        201        185        186        203        202        187        188        205        204        188        189        206        205        189        190        207        206        190        191        208        207        191        192        209        208        192        193        210        209        193        194        211        210        194        195        212        211        195        196        213        212        196        197        214        213        197        198        215        214        198        199        216        215        199        200        217        216        200        201        218        217        201        202        219        218        202        203        220        219        204        205        222        221        205        206        223        222        206        207        224        223        207        208        225        224        208        209        226        225        209        210        227        226        210        211        228        227        211        212        229        228        212        213        230        229        213        214        231        230        214        215        232        231        215        216        233        232        216        217        234        233        217        218        235        234        218        219        236        235        219        220        237        236        221        222        239        238        222        223        240        239        223        224        241        240        224        225        242        241        225        226        243        242        226        227        244        243        227        228        245        244        228        229        246        245        229        230        247        246        230        231        248        247        231        232        249        248        232        233        250        249        233        234        251        250        234        235        252        251        235        236        253        252        236        237        254        253        238        239        256        255        239        240        257        256        240        241        258        257        241        242        259        258        242        243        260        259        243        244        261        260        244        245        262        261        245        246        263        262        246        247        264        263        247        248        265        264        248        249        266        265        249        250        267        266        250        251        268        267        251        252        269        268        252        253        270        269        253        254        271        270        255        256        273        272        256        257        274        273        257        258        275        274        258        259        276        275        259        260        277        276        260        261        278        277        261        262        279        278        262        263        280        279        263        264        281        280        264        265        282        281        265        266        283        282        266        267        284        283        267        268        285        284        268        269        286        285        269        270        287        286        270        271        288        287        306        307          1          0        307        308          2          1        308        309          3          2        309        310          4          3        310        311          5          4        311        312          6          5        312        313          7          6        313        314          8          7        314        315          9          8        315        316         10          9        316        317         11         10        317        318         12         11        318        319         13         12        319        320         14         13        320        321         15         14        321        322         16         15        323        324        307        306        324        325        308        307        325        326        309        308        326        327        310        309        327        328        311        310        328        329        312        311        329        330        313        312        330        331        314        313        331        332        315        314        332        333        316        315        333        334        317        316        334        335        318        317        335        336        319        318        336        337        320        319        337        338        321        320        338        339        322        321        340        341        324        323        341        342        325        324        342        343        326        325        343        344        327        326        344        345        328        327        345        346        329        328        346        347        330        329        347        348        331        330        348        349        332        331        349        350        333        332        350        351        334        333        351        352        335        334        352        353        336        335        353        354        337        336        354        355        338        337        355        356        339        338        357        358        341        340        358        359        342        341        359        360        343        342        360        361        344        343        361        362        345        344        362        363        346        345        363        364        347        346        364        365        348        347        365        366        349        348        366        367        350        349        367        368        351        350        368        369        352        351        369        370        353        352        370        371        354        353        371        372        355        354        372        373        356        355        374        375        358        357        375        376        359        358        376        377        360        359        377        378        361        360        378        379        362        361        379        380        363        362        380        381        364        363        381        382        365        364        382        383        366        365        383        384        367        366        384        385        368        367        385        386        369        368        386        387        370        369        387        388        371        370        388        389        372        371        389        390        373        372        391        392        375        374        392        393        376        375        393        394        377        376        394        395        378        377        395        396        379        378        396        397        380        379        397        398        381        380        398        399        382        381        399        400        383        382        400        401        384        383        401        402        385        384        402        403        386        385        403        404        387        386        404        405        388        387        405        406        389        388        406        407        390        389        408        409        392        391        409        410        393        392        410        411        394        393        411        412        395        394        412        413        396        395        413        414        397        396        414        415        398        397        415        416        399        398        416        417        400        399        417        418        401        400        418        419        402        401        419        420        403        402        420        421        404        403        421        422        405        404        422        423        406        405        423        424        407        406        425        426        409        408        426        427        410        409        427        428        411        410        428        429        412        411        429        430        413        412        430        431        414        413        431        432        415        414        432        433        416        415        433        434        417        416        434        435        418        417        435        436        419        418        436        437        420        419        437        438        421        420        438        439        422        421        439        440        423        422        440        441        424        423        442        443        426        425        443        444        427        426        444        445        428        427        445        446        429        428        446        447        430        429        447        448        431        430        448        449        432        431        449        450        433        432        450        451        434        433        451        452        435        434        452        453        436        435        453        454        437        436        454        455        438        437        455        456        439        438        456        457        440        439        457        458        441        440        459        460        443        442        460        461        444        443        461        462        445        444        462        463        446        445        463        464        447        446        464        465        448        447        465        466        449        448        466        467        450        449        467        468        451        450        468        469        452        451        469        470        453        452        470        471        454        453        471        472        455        454        472        473        456        455        473        474        457        456        474        475        458        457        476        477        460        459        477        478        461        460        478        479        462        461        479        480        463        462        480        481        464        463        481        482        465        464        482        483        466        465        483        484        467        466        484        485        468        467        485        486        469        468        486        487        470        469        487        488        471        470        488        489        472        471        489        490        473        472        490        491        474        473        491        492        475        474        493        494        477        476        494        495        478        477        495        496        479        478        496        497        480        479        497        498        481        480        498        499        482        481        499        500        483        482        500        501        484        483        501        502        485        484        502        503        486        485        503        504        487        486        504        505        488        487        505        506        489        488        506        507        490        489        507        508        491        490        508        509        492        491        510        511        494        493        511        512        495        494        512        513        496        495        513        514        497        496        514        515        498        497        515        516        499        498        516        517        500        499        517        518        501        500        518        519        502        501        519        520        503        502        520        521        504        503        521        522        505        504        522        523        506        505        523        524        507        506        524        525        508        507        525        526        509        508        527        528        511        510        528        529        512        511        529        530        513        512        530        531        514        513        531        532        515        514        532        533        516        515        533        534        517        516        534        535        518        517        535        536        519        518        536        537        520        519        537        538        521        520        538        539        522        521        539        540        523        522        540        541        524        523        541        542        525        524        542        543        526        525        544        545        528        527        545        546        529        528        546        547        530        529        547        548        531        530        548        549        532        531        549        550        533        532        550        551        534        533        551        552        535        534        552        553        536        535        553        554        537        536        554        555        538        537        555        556        539        538        556        557        540        539        557        558        541        540        558        559        542        541        559        560        543        542        561        562        545        544        562        563        546        545        563        564        547        546        564        565        548        547        565        566        549        548        566        567        550        549        567        568        551        550        568        569        552        551        569        570        553        552        570        571        554        553        571        572        555        554        572        573        556        555        573        574        557        556        574        575        558        557        575        576        559        558        576        577        560        559        578        579        596        595        579        580        597        596        580        581        598        597        581        582        599        598        582        583        600        599        583        584        601        600        584        585        602        601        585        586        603        602        586        587        604        603        587        588        605        604        588        589        606        605        589        590        607        606        590        591        608        607        591        592        609        608        592        593        610        609        593        594        611        610        595        596        613        612        596        597        614        613        597        598        615        614        598        599        616        615        599        600        617        616        600        601        618        617        601        602        619        618        602        603        620        619        603        604        621        620        604        605        622        621        605        606        623        622        606        607        624        623        607        608        625        624        608        609        626        625        609        610        627        626        610        611        628        627        612        613        630        629        613        614        631        630        614        615        632        631        615        616        633        632        616        617        634        633        617        618        635        634        618        619        636        635        619        620        637        636        620        621        638        637        621        622        639        638        622        623        640        639        623        624        641        640        624        625        642        641        625        626        643        642        626        627        644        643        627        628        645        644        629        630        647        646        630        631        648        647        631        632        649        648        632        633        650        649        633        634        651        650        634        635        652        651        635        636        653        652        636        637        654        653        637        638        655        654        638        639        656        655        639        640        657        656        640        641        658        657        641        642        659        658        642        643        660        659        643        644        661        660        644        645        662        661        646        647        664        663        647        648        665        664        648        649        666        665        649        650        667        666        650        651        668        667        651        652        669        668        652        653        670        669        653        654        671        670        654        655        672        671        655        656        673        672        656        657        674        673        657        658        675        674        658        659        676        675        659        660        677        676        660        661        678        677        661        662        679        678        663        664        681        680        664        665        682        681        665        666        683        682        666        667        684        683        667        668        685        684        668        669        686        685        669        670        687        686        670        671        688        687        671        672        689        688        672        673        690        689        673        674        691        690        674        675        692        691        675        676        693        692        676        677        694        693        677        678        695        694        678        679        696        695        680        681        698        697        681        682        699        698        682        683        700        699        683        684        701        700        684        685        702        701        685        686        703        702        686        687        704        703        687        688        705        704        688        689        706        705        689        690        707        706        690        691        708        707        691        692        709        708        692        693        710        709        693        694        711        710        694        695        712        711        695        696        713        712        697        698        715        714        698        699        716        715        699        700        717        716        700        701        718        717        701        702        719        718        702        703        720        719        703        704        721        720        704        705        722        721        705        706        723        722        706        707        724        723        707        708        725        724        708        709        726        725        709        710        727        726        710        711        728        727        711        712        729        728        712        713        730        729        714        715        732        731        715        716        733        732        716        717        734        733        717        718        735        734        718        719        736        735        719        720        737        736        720        721        738        737        721        722        739        738        722        723        740        739        723        724        741        740        724        725        742        741        725        726        743        742        726        727        744        743        727        728        745        744        728        729        746        745        729        730        747        746        731        732        749        748        732        733        750        749        733        734        751        750        734        735        752        751        735        736        753        752        736        737        754        753        737        738        755        754        738        739        756        755        739        740        757        756        740        741        758        757        741        742        759        758        742        743        760        759        743        744        761        760        744        745        762        761        745        746        763        762        746        747        764        763        748        749        766        765        749        750        767        766        750        751        768        767        751        752        769        768        752        753        770        769        753        754        771        770        754        755        772        771        755        756        773        772        756        757        774        773        757        758        775        774        758        759        776        775        759        760        777        776        760        761        778        777        761        762        779        778        762        763        780        779        763        764        781        780        765        766        783        782        766        767        784        783        767        768        785        784        768        769        786        785        769        770        787        786        770        771        788        787        771        772        789        788        772        773        790        789        773        774        791        790        774        775        792        791        775        776        793        792        776        777        794        793        777        778        795        794        778        779        796        795        779        780        797        796        780        781        798        797        782        783        800        799        783        784        801        800        784        785        802        801        785        786        803        802        786        787        804        803        787        788        805        804        788        789        806        805        789        790        807        806        790        791        808        807        791        792        809        808        792        793        810        809        793        794        811        810        794        795        812        811        795        796        813        812        796        797        814        813        797        798        815        814        799        800        817        816        800        801        818        817        801        802        819        818        802        803        820        819        803        804        821        820        804        805        822        821        805        806        823        822        806        807        824        823        807        808        825        824        808        809        826        825        809        810        827        826        810        811        828        827        811        812        829        828        812        813        830        829        813        814        831        830        814        815        832        831        816        817        834        833        817        818        835        834        818        819        836        835        819        820        837        836        820        821        838        837        821        822        839        838        822        823        840        839        823        824        841        840        824        825        842        841        825        826        843        842        826        827        844        843        827        828        845        844        828        829        846        845        829        830        847        846        830        831        848        847        831        832        849        848        833        834        562        561        834        835        563        562        835        836        564        563        836        837        565        564        837        838        566        565        838        839        567        566        839        840        568        567        840        841        569        568        841        842        570        569        842        843        571        570        843        844        572        571        844        845        573        572        845        846        574        573        846        847        575        574        847        848        576        575        848        849        577        576        884        885        579        578        885        886        580        579        886        887        581        580        887        888        582        581        888        889        583        582        889        890        584        583        890        891        585        584        891        892        586        585        892        893        587        586        893        894        588        587        894        895        589        588        895        896        590        589        896        897        591        590        897        898        592        591        898        899        593        592        899        900        594        593        901        902        885        884        902        903        886        885        903        904        887        886        904        905        888        887        905        906        889        888        906        907        890        889        907        908        891        890        908        909        892        891        909        910        893        892        910        911        894        893        911        912        895        894        912        913        896        895        913        914        897        896        914        915        898        897        915        916        899        898        916        917        900        899        918        919        902        901        919        920        903        902        920        921        904        903        921        922        905        904        922        923        906        905        923        924        907        906        924        925        908        907        925        926        909        908        926        927        910        909        927        928        911        910        928        929        912        911        929        930        913        912        930        931        914        913        931        932        915        914        932        933        916        915        933        934        917        916        935        936        919        918        936        937        920        919        937        938        921        920        938        939        922        921        939        940        923        922        940        941        924        923        941        942        925        924        942        943        926        925        943        944        927        926        944        945        928        927        945        946        929        928        946        947        930        929        947        948        931        930        948        949        932        931        949        950        933        932        950        951        934        933        952        953        936        935        953        954        937        936        954        955        938        937        955        956        939        938        956        957        940        939        957        958        941        940        958        959        942        941        959        960        943        942        960        961        944        943        961        962        945        944        962        963        946        945        963        964        947        946        964        965        948        947        965        966        949        948        966        967        950        949        967        968        951        950        969        970        953        952        970        971        954        953        971        972        955        954        972        973        956        955        973        974        957        956        974        975        958        957        975        976        959        958        976        977        960        959        977        978        961        960        978        979        962        961        979        980        963        962        980        981        964        963        981        982        965        964        982        983        966        965        983        984        967        966        984        985        968        967        986        987        970        969        987        988        971        970        988        989        972        971        989        990        973        972        990        991        974        973        991        992        975        974        992        993        976        975        993        994        977        976        994        995        978        977        995        996        979        978        996        997        980        979        997        998        981        980        998        999        982        981        999       1000        983        982       1000       1001        984        983       1001       1002        985        984       1003       1004        987        986       1004       1005        988        987       1005       1006        989        988       1006       1007        990        989       1007       1008        991        990       1008       1009        992        991       1009       1010        993        992       1010       1011        994        993       1011       1012        995        994       1012       1013        996        995       1013       1014        997        996       1014       1015        998        997       1015       1016        999        998       1016       1017       1000        999       1017       1018       1001       1000       1018       1019       1002       1001       1020       1021       1004       1003       1021       1022       1005       1004       1022       1023       1006       1005       1023       1024       1007       1006       1024       1025       1008       1007       1025       1026       1009       1008       1026       1027       1010       1009       1027       1028       1011       1010       1028       1029       1012       1011       1029       1030       1013       1012       1030       1031       1014       1013       1031       1032       1015       1014       1032       1033       1016       1015       1033       1034       1017       1016       1034       1035       1018       1017       1035       1036       1019       1018       1037       1038       1021       1020       1038       1039       1022       1021       1039       1040       1023       1022       1040       1041       1024       1023       1041       1042       1025       1024       1042       1043       1026       1025       1043       1044       1027       1026       1044       1045       1028       1027       1045       1046       1029       1028       1046       1047       1030       1029       1047       1048       1031       1030       1048       1049       1032       1031       1049       1050       1033       1032       1050       1051       1034       1033       1051       1052       1035       1034       1052       1053       1036       1035       1054       1055       1038       1037       1055       1056       1039       1038       1056       1057       1040       1039       1057       1058       1041       1040       1058       1059       1042       1041       1059       1060       1043       1042       1060       1061       1044       1043       1061       1062       1045       1044       1062       1063       1046       1045       1063       1064       1047       1046       1064       1065       1048       1047       1065       1066       1049       1048       1066       1067       1050       1049       1067       1068       1051       1050       1068       1069       1052       1051       1069       1070       1053       1052       1071       1072       1055       1054       1072       1073       1056       1055       1073       1074       1057       1056       1074       1075       1058       1057       1075       1076       1059       1058       1076       1077       1060       1059       1077       1078       1061       1060       1078       1079       1062       1061       1079       1080       1063       1062       1080       1081       1064       1063       1081       1082       1065       1064       1082       1083       1066       1065       1083       1084       1067       1066       1084       1085       1068       1067       1085       1086       1069       1068       1086       1087       1070       1069       1088       1089       1072       1071       1089       1090       1073       1072       1090       1091       1074       1073       1091       1092       1075       1074       1092       1093       1076       1075       1093       1094       1077       1076       1094       1095       1078       1077       1095       1096       1079       1078       1096       1097       1080       1079       1097       1098       1081       1080       1098       1099       1082       1081       1099       1100       1083       1082       1100       1101       1084       1083       1101       1102       1085       1084       1102       1103       1086       1085       1103       1104       1087       1086       1105       1106       1089       1088       1106       1107       1090       1089       1107       1108       1091       1090       1108       1109       1092       1091       1109       1110       1093       1092       1110       1111       1094       1093       1111       1112       1095       1094       1112       1113       1096       1095       1113       1114       1097       1096       1114       1115       1098       1097       1115       1116       1099       1098       1116       1117       1100       1099       1117       1118       1101       1100       1118       1119       1102       1101       1119       1120       1103       1102       1120       1121       1104       1103       1122       1123       1106       1105       1123       1124       1107       1106       1124       1125       1108       1107       1125       1126       1109       1108       1126       1127       1110       1109       1127       1128       1111       1110       1128       1129       1112       1111       1129       1130       1113       1112       1130       1131       1114       1113       1131       1132       1115       1114       1132       1133       1116       1115       1133       1134       1117       1116       1134       1135       1118       1117       1135       1136       1119       1118       1136       1137       1120       1119       1137       1138       1121       1120        272        273       1123       1122        273        274       1124       1123        274        275       1125       1124        275        276       1126       1125        276        277       1127       1126        277        278       1128       1127        278        279       1129       1128        279        280       1130       1129        280        281       1131       1130        281        282       1132       1131        282        283       1133       1132        283        284       1134       1133        284        285       1135       1134        285        286       1136       1135        286        287       1137       1136        287        288       1138       1137 </DataArray>
<DataArray type="Int32"                                    Name="offsets"                                                      NumberOfComponents=" 1" format="ascii">
         4          8         12         16         20         24         28         32         36         40         44         48         52         56         60         64         68         72         76         80         84         88         92         96        100        104        108        112        116        120        124        128        132        136        140        144        148        152        156        160        164        168        172        176        180        184        188        192        196        200        204        208        212        216        220        224        228        232        236        240        244        248        252        256        260        264        268        272        276        280        284        288        292        296        300        304        308        312        316        320        324        328        332        336        340        344        348        352        356        360        364        368        372        376        380        384        388        392        396        400        404        408        412        416        420        424        428        432        436        440        444        448        452        456        460        464        468        472        476        480        484        488        492        496        500        504        508        512        516        520        524        528        532        536        540        544        548        552        556        560        564        568        572        576        580        584        588        592        596        600        604        608        612        616        620        624        628        632        636        640        644        648        652        656        660        664        668        672        676        680        684        688        692        696        700        704        708        712        716        720        724        728        732        736        740        744        748        752        756        760        764        768        772        776        780        784        788        792        796        800        804        808        812        816        820        824        828        832        836        840        844        848        852        856        860        864        868        872        876        880        884        888        892        896        900        904        908        912        916        920        924        928        932        936        940        944        948        952        956        960        964        968        972        976        980        984        988        992        996       1000       1004       1008       1012       1016       1020       1024       1028       1032       1036       1040       1044       1048       1052       1056       1060       1064       1068       1072       1076       1080       1084       1088       1092       1096       1100       1104       1108       1112       1116       1120       1124       1128       1132       1136       1140       1144       1148       1152       1156       1160       1164       1168       1172       1176       1180       1184       1188       1192       1196       1200       1204       1208       1212       1216       1220       1224       1228       1232       1236       1240       1244       1248       1252       1256       1260       1264       1268       1272       1276       1280       1284       1288       1292       1296       1300       1304       1308       1312       1316       1320       1324       1328       1332       1336       1340       1344       1348       1352       1356       1360       1364       1368       1372       1376       1380       1384       1388       1392       1396       1400       1404       1408       1412       1416       1420       1424       1428       1432       1436       1440       1444       1448       1452       1456       1460       1464       1468       1472       1476       1480       1484       1488       1492       1496       1500       1504       1508       1512       1516       1520       1524       1528       1532       1536       1540       1544       1548       1552       1556       1560       1564       1568       1572       1576       1580       1584       1588       1592       1596       1600       1604       1608       1612       1616       1620       1624       1628       1632       1636       1640       1644       1648       1652       1656       1660       1664       1668       1672       1676       1680       1684       1688       1692       1696       1700       1704       1708       1712       1716       1720       1724       1728       1732       1736       1740       1744       1748       1752       1756       1760       1764       1768       1772       1776       1780       1784       1788       1792       1796       1800       1804       1808       1812       1816       1820       1824       1828       1832       1836       1840       1844       1848       1852       1856       1860       1864       1868       1872       1876       1880       1884       1888       1892       1896       1900       1904       1908       1912       1916       1920       1924       1928       1932       1936       1940       1944       1948       1952       1956       1960       1964       1968       1972       1976       1980       1984       1988       1992       1996       2000       2004       2008       2012       2016       2020       2024       2028       2032       2036       2040       2044       2048       2052       2056       2060       2064       2068       2072       2076       2080       2084       2088       2092       2096       2100       2104       2108       2112       2116       2120       2124       2128       2132       2136       2140       2144       2148       2152       2156       2160       2164       2168       2172       2176       2180       2184       2188       2192       2196       2200       2204       2208       2212       2216       2220       2224       2228       2232       2236       2240       2244       2248       2252       2256       2260       2264       2268       2272       2276       2280       2284       2288       2292       2296       2300       2304       2308       2312       2316       2320       2324       2328       2332       2336       2340       2344       2348       2352       2356       2360       2364       2368       2372       2376       2380       2384       2388       2392       2396       2400       2404       2408       2412       2416       2420       2424       2428       2432       2436       2440       2444       2448       2452       2456       2460       2464       2468       2472       2476       2480       2484       2488       2492       2496       2500       2504       2508       2512       2516       2520       2524       2528       2532       2536       2540       2544       2548       2552       2556       2560       2564       2568       2572       2576       2580       2584       2588       2592       2596       2600       2604       2608       2612       2616       2620       2624       2628       2632       2636       2640       2644       2648       2652       2656       2660       2664       2668       2672       2676       2680       2684       2688       2692       2696       2700       2704       2708       2712       2716       2720       2724       2728       2732       2736       2740       2744       2748       2752       2756       2760       2764       2768       2772       2776       2780       2784       2788       2792       2796       2800       2804       2808       2812       2816       2820       2824       2828       2832       2836       2840       2844       2848       2852       2856       2860       2864       2868       2872       2876       2880       2884       2888       2892       2896       2900       2904       2908       2912       2916       2920       2924       2928       2932       2936       2940       2944       2948       2952       2956       2960       2964       2968       2972       2976       2980       2984       2988       2992       2996       3000       3004       3008       3012       3016       3020       3024       3028       3032       3036       3040       3044       3048       3052       3056       3060       3064       3068       3072       3076       3080       3084       3088       3092       3096       3100       3104       3108       3112       3116       3120       3124       3128       3132       3136       3140       3144       3148       3152       3156       3160       3164       3168       3172       3176       3180       3184       3188       3192       3196       3200       3204       3208       3212       3216       3220       3224       3228       3232       3236       3240       3244       3248       3252       3256       3260       3264       3268       3272       3276       3280       3284       3288       3292       3296       3300       3304       3308       3312       3316       3320       3324       3328       3332       3336       3340       3344       3348       3352       3356       3360       3364       3368       3372       3376       3380       3384       3388       3392       3396       3400       3404       3408       3412       3416       3420       3424       3428       3432       3436       3440       3444       3448       3452       3456       3460       3464       3468       3472       3476       3480       3484       3488       3492       3496       3500       3504       3508       3512       3516       3520       3524       3528       3532       3536       3540       3544       3548       3552       3556       3560       3564       3568       3572       3576       3580       3584       3588       3592       3596       3600       3604       3608       3612       3616       3620       3624       3628       3632       3636       3640       3644       3648       3652       3656       3660       3664       3668       3672       3676       3680       3684       3688       3692       3696       3700       3704       3708       3712       3716       3720       3724       3728       3732       3736       3740       3744       3748       3752       3756       3760       3764       3768       3772       3776       3780       3784       3788       3792       3796       3800       3804       3808       3812       3816       3820       3824       3828       3832       3836       3840       3844       3848       3852       3856       3860       3864       3868       3872       3876       3880       3884       3888       3892       3896       3900       3904       3908       3912       3916       3920       3924       3928       3932       3936       3940       3944       3948       3952       3956       3960       3964       3968       3972       3976       3980       3984       3988       3992       3996       4000       4004       4008       4012       4016       4020       4024       4028       4032       4036       4040       4044       4048       4052       4056       4060       4064       4068       4072       4076       4080       4084       4088       4092       4096 </DataArray>
<DataArray type="UInt8"                                    Name="types"                                                      NumberOfComponents=" 1" format="ascii">
         9          9          9          9          9          9          9          9          9          9          9          9          9          9          9          9          9          9          9          9          9          9          9          9          9          9          9          9          9          9          9          9          9          9          9          9          9          9          9          9          9          9          9          9          9          9          9          9          9          9          9          9          9          9          9          9          9          9          9          9          9          9          9          9          9          9          9          9          9          9          9          9          9          9          9          9          9          9          9          9          9          9          9          9          9          9          9          9          9          9          9          9          9          9          9          9          9          9          9          9          9          9          9          9          9          9          9          9          9          9          9          9          9          9          9          9          9          9          9          9          9          9          9          9          9          9          9          9          9          9          9          9          9          9          9          9          9          9          9          9          9          9          9          9          9          9          9          9          9          9          9          9          9          9          9          9          9          9          9          9          9          9          9          9          9          9          9          9          9          9          9          9          9          9          9          9          9          9          9          9          9          9          9          9          9          9          9          9          9          9          9          9          9          9          9          9          9          9          9          9          9          9          9          9          9          9          9          9          9          9          9          9          9          9          9          9          9          9          9          9          9          9          9          9          9          9          9          9          9          9          9          9          9          9          9          9          9          9          9          9          9          9          9          9          9          9          9          9          9          9          9          9          9          9          9          9          9          9          9          9          9          9          9          9          9          9          9          9          9          9          9          9          9          9          9          9          9          9          9          9          9          9          9          9          9          9          9          9          9          9          9          9          9          9          9          9          9          9          9          9          9          9          9          9          9          9          9          9          9          9          9          9          9          9          9          9          9          9          9          9          9          9          9          9          9          9          9          9          9          9          9          9          9          9          9          9          9          9          9          9          9          9          9          9          9          9          9          9          9          9          9          9          9          9          9          9          9          9          9          9          9          9          9          9          9          9          9          9          9          9          9          9          9          9          9          9          9          9          9          9          9          9          9          9          9          9          9          9          9          9          9          9          9          9          9          9          9          9          9          9          9          9          9          9          9          9          9          9          9          9          9          9          9          9          9          9          9          9          9          9          9          9          9          9          9          9          9          9          9          9          9          9          9          9          9          9          9          9          9          9          9          9          9          9          9          9          9          9          9          9          9          9          9          9          9          9          9          9          9          9          9          9          9          9          9          9          9          9          9          9          9          9          9          9          9          9          9          9          9          9          9          9          9          9          9          9          9          9          9          9          9          9          9          9          9          9          9          9          9          9          9          9          9          9          9          9          9          9          9          9          9          9          9          9          9          9          9          9          9          9          9          9          9          9          9          9          9          9          9          9          9          9          9          9          9          9          9          9          9          9          9          9          9          9          9          9          9          9          9          9          9          9          9          9          9          9          9          9          9          9          9          9          9          9          9          9          9          9          9          9          9          9          9          9          9          9          9          9          9          9          9          9          9          9          9          9          9          9          9          9          9          9          9          9          9          9          9          9          9          9          9          9          9          9          9          9          9          9          9          9          9          9          9          9          9          9          9          9          9          9          9          9          9          9          9          9          9          9          9          9          9          9          9          9          9          9          9          9          9          9          9          9          9          9          9          9          9          9          9          9          9          9          9          9          9          9          9          9          9          9          9          9          9          9          9          9          9          9          9          9          9          9          9          9          9          9          9          9          9          9          9          9          9          9          9          9          9          9          9          9          9          9          9          9          9          9          9          9          9          9          9          9          9          9          9          9          9          9          9          9          9          9          9          9          9          9          9          9          9          9          9          9          9          9          9          9          9          9          9          9          9          9          9          9          9          9          9          9          9          9          9          9          9          9          9          9          9          9          9          9          9          9          9          9          9          9          9          9          9          9          9          9          9          9          9          9          9          9          9          9          9          9          9          9          9          9          9          9          9          9          9          9          9          9          9          9          9          9          9          9          9          9          9          9          9          9          9          9          9          9          9          9          9          9          9          9          9          9          9          9          9          9          9          9          9          9          9          9          9          9          9          9          9          9          9          9          9          9          9          9          9          9          9          9          9          9          9          9          9          9          9          9          9          9          9          9          9          9          9          9          9          9          9          9          9          9          9          9          9          9          9          9          9          9          9          9          9          9          9          9          9          9          9          9          9          9          9          9          9          9          9          9          9          9          9          9          9          9          9          9          9          9          9          9          9          9          9          9          9          9          9          9          9          9          9          9          9          9          9          9          9          9          9          9          9          9          9          9          9          9          9          9          9          9          9          9          9          9          9          9          9          9          9          9          9          9          9          9          9          9          9          9          9          9          9          9          9          9          9          9          9          9          9          9          9          9          9          9          9          9          9          9          9          9          9          9          9          9          9          9          9          9          9          9          9          9          9          9          9          9          9          9          9          9          9          9          9          9          9          9          9          9          9          9          9          9          9          9          9          9          9          9          9          9          9          9          9          9          9          9          9          9          9          9          9          9          9          9          9          9          9          9          9          9 </DataArray>
</Cells>
<CellData>
<DataArray type="Int32"                                    Name="material"                                                      NumberOfComponents=" 1" format="ascii">
         1          1          1          1          1          1          1          1          1          1          1          1          1          1          1          1          1          1          1          1          1          1          1          1          1          1          1          1          1          1          1          1          1          1          1          1          1          1          1          1          1          1          1          1          1          1          1          1          1          1          1          1          1          1          1          1          1          1          1          1          1          1          1          1          1          1          1          1          1          1          1          1          1          1          1          1          1          1          1          1          1          1          1          1          1          1          1          1          1          1          1          1          1          1          1          1          1          1          1          1          1          1          1          1          1          1          1          1          1          1          1          1          1          1          1          1          1          1          1          1          1          1          1          1          1          1          1          1          1          1          1          1          1          1          1          1          1          1          1          1          1          1          1          1          1          1          1          1          1          1          1          1          1          1          1          1          1          1          1          1          1          1          1          1          1          1          1          1          1          1          1          1          1          1          1          1          1          1          1          1          1          1          1          1          1          1          1          1          1          1          1          1          1          1          1          1          1          1          1          1          1          1          1          1          1          1          1          1          1          1          1          1          1          1          1          1          1          1          1          1          1          1          1          1          1          1          1          1          1          1          1          1          1          1          1          1          1          1          1          1          1          1          1          1          1          1          1          1          1          1          1          1          1          1          1          1          1          1          1          1          1          1          1          1          1          1          1          1          1          1          1          1          1          1          1          1          1          1          1          1          1          1          1          1          1          1          1          1          1          1          1          1          1          1          1          1          1          1          1          1          1          1          1          1          1          1          1          1          1          1          1          1          1          1          1          1          1          1          1          1          1          1          1          1          1          1          1          1          1          1          1          1          1          1          1          1          1          1          1          1          1          1          1          1          1          1          1          1          1          1          1          1          1          1          1          1          1          1          1          1          1          1          1          1          1          1          1          1          1          1          1          1          1          1          1          1          1          1          1          1          1          1          1          1          1          1          1          1          1          1          1          1          1          1          1          1          1          1          1          1          1          1          1          1          1          1          1          1          1          1          1          1          1          1          1          1          1          1          1          1          1          1          1          1          1          1          1          1          1          1          1          1          1          1          1          1          1          1          1          1          1          1          1          1          1          1          1          1          1          1          1          1          1          1          1          1          1          1          1          1          1          1          1          1          1          1          1          1          1          1          1          1          1          1          1          1          1          1          1          1          1          1          1          1          1          1          1          1          1          1          1          1          1          1          1          1          1          1          1          1          1          1          1          1          1          1          1          1          1          1          1          1          1          1          1          1          1          1          1          1          1          1          1          1          1          1          1          1          1          1          1          1          1          1          1          1          1          1          1          1          1          1          1          1          1          1          1          1          1          1          1          1          1          1          1          1          1          1          1          1          1          1          1          1          1          1          1          1          1          1          1          1          1          1          1          1          1          1          1          1          1          1          1          1          1          1          1          1          1          1          1          1          1          1          1          1          1          1          1          1          1          1          1          1          1          1          1          1          1          1          1          1          1          1          1          1          1          1          1          1          1          1          1          1          1          1          1          1          1          1          1          1          1          1          1          1          1          1          1          1          1          1          1          1          1          1          1          1          1          1          1          1          1          1          1          1          1          1          1          1          1          1          1          1          1          1          1          1          1          1          1          1          1          1          1          1          1          1          1          1          1          1          1          1          1          1          1          1          1          1          1          1          1          1          1          1          1          1          1          1          1          1          1          1          1          1          1          1          1          1          1          1          1          1          1          1          1          1          1          1          1          1          1          1          1          1          1          1          1          1          1          1          1          1          1          1          1          1          1          1          1          1          1          1          1          1          1          1          1          1          1          1          1          1          1          1          1          1          1          1          1          1          1          1          1          1          1          1          1          1          1          1          1          1          1          1          1          1          1          1          1          1          1          1          1          1          1          1          1          1          1          1          1          1          1          1          1          1          1          1          1          1          1          1          1          1          1          1          1          1          1          1          1          1          1          1          1          1          1          1          1          1          1          1          1          1          1          1          1          1          1          1          1          1          1          1          1          1          1          1          1          1          1          1          1          1          1          1          1          1          1          1          1          1          1          1          1          1          1          1          1          1          1          1          1          1          1          1          1          1          1          1          1          1          1          1          1          1          1          1          1          1          1          1          1          1          1          1          1          1          1          1          1          1          1          1          1          1          1          1          1          1          1          1          1          1          1          1          1          1          1          1          1          1          1          1          1          1          1          1          1          1          1          1          1          1          1          1          1          1          1          1          1          1          1          1          1          1          1          1          1          1          1          1          1          1          1          1          1          1          1          1          1          1          1          1          1          1          1          1          1          1          1          1          1          1          1          1          1          1          1          1          1          1          1          1          1          1          1          1          1          1          1          1          1          1          1          1          1          1          1          1          1          1          1          1          1          1          1          1          1          1          1          1          1          1          1          1          1          1          1          1          1          1          1          1          1          1          1          1          1          1          1          1 </DataArray>
</CellData>
<PointData>
<DataArray type="Float64"                                    Name="u"                                                      NumberOfComponents=" 3" format="ascii">
             -0.000777445               0.000000000               0.999999984              -0.000829193              -0.000000000               0.999999984              -0.000851747              -0.000000000               0.999999984              -0.000864311              -0.000000000               0.999999984              -0.000874035               0.000000000               0.999999984              -0.000883555              -0.000000000               0.999999984              -0.000893904               0.000000000               0.999999984              -0.000905411              -0.000000000               0.999999984              -0.000918180               0.000000000               0.999999984              -0.000931940               0.000000000               0.999999984              -0.000946443              -0.000000000               0.999999984              -0.000961465              -0.000000000               0.999999984              -0.000976657               0.000000000               0.999999984              -0.000991616              -0.000000000               0.999999984              -0.001005626              -0.000000000               0.999999984              -0.001017900               0.000000000               0.999999984              -0.001027632              -0.000000000               0.999999984              -0.000773118               0.000133884               0.999999984              -0.000820875               0.000108327               0.999999984              -0.000840885               0.000096937               0.999999984              -0.000851860               0.000092338               0.999999984              -0.000860517               0.000091402               0.999999984              -0.000869344               0.000092248               0.999999984              -0.000879233               0.000094274               0.999999984              -0.000890276               0.000096674               0.999999984              -0.000902410               0.000098979               0.999999984              -0.000915456               0.000100894               0.999999984              -0.000929045               0.000102081               0.999999984              -0.000942900               0.000102233               0.999999984              -0.000956632               0.000100853               0.999999984              -0.000969661               0.000097168               0.999999984              -0.000981482               0.000090522               0.999999984              -0.000991431               0.000080279               0.999999984              -0.000998839               0.000065598               0.999999984              -0.000760293               0.000266464               0.999999984              -0.000796449               0.000216118               0.999999984              -0.000809376               0.000194516               0.999999984              -0.000816039               0.000186442               0.999999984              -0.000821977               0.000185356               0.999999984              -0.000828825               0.000187804               0.999999984              -0.000837108               0.000192127               0.999999984              -0.000846721               0.000197131               0.999999984              -0.000857365               0.000201833               0.999999984              -0.000868566               0.000205527               0.999999984              -0.000879679               0.000207565               0.999999984              -0.000890159               0.000207339               0.999999984              -0.000899520               0.000204062               0.999999984              -0.000907396               0.000196587               0.999999984              -0.000913341               0.000183959               0.999999984              -0.000917060               0.000165307               0.999999984              -0.000918304               0.000139296               0.999999984              -0.000739263               0.000396431               0.999999984              -0.000757246               0.000322915               0.999999984              -0.000760074               0.000293215               0.999999984              -0.000760968               0.000283435               0.999999984              -0.000763419               0.000283462               0.999999984              -0.000767920               0.000288201               0.999999984              -0.000774233               0.000295339               0.999999984              -0.000781767               0.000303132               0.999999984              -0.000789813               0.000310151               0.999999984              -0.000797543               0.000315315               0.999999984              -0.000804194               0.000317550               0.999999984              -0.000809045               0.000316257               0.999999984              -0.000811691               0.000310646               0.999999984              -0.000811906               0.000299703               0.999999984              -0.000809539               0.000282612               0.999999984              -0.000804700               0.000258604               0.999999984              -0.000797631               0.000226785               0.999999984              -0.000710498               0.000522543               0.999999984              -0.000705335               0.000428470               0.999999984              -0.000696820               0.000393443               0.999999984              -0.000692075               0.000383807               0.999999984              -0.000691444               0.000386015               0.999999984              -0.000693702               0.000393661               0.999999984              -0.000697849               0.000403902               0.999999984              -0.000702787               0.000414385               0.999999984              -0.000707334               0.000423262               0.999999984              -0.000710466               0.000429133               0.999999984              -0.000711240               0.000430935               0.999999984              -0.000709151               0.000428007               0.999999984              -0.000703985               0.000419895               0.999999984              -0.000695667               0.000406029               0.999999984              -0.000684422               0.000386122               0.999999984              -0.000670764               0.000359950               0.999999984              -0.000655404               0.000327999               0.999999984              -0.000674519               0.000643657               0.999999984              -0.000643277               0.000532796               0.999999984              -0.000624216               0.000495225               0.999999984              -0.000615170               0.000487199               0.999999984              -0.000612412               0.000492195               0.999999984              -0.000613152               0.000502916               0.999999984              -0.000615561               0.000515957               0.999999984              -0.000617739               0.000528515               0.999999984              -0.000618193               0.000538355               0.999999984              -0.000615755               0.000544263               0.999999984              -0.000609775               0.000545153               0.999999984              -0.000600011               0.000540602               0.999999984              -0.000586543               0.000530378               0.999999984              -0.000569623               0.000514544               0.999999984              -0.000549824               0.000493460               0.999999984              -0.000527880               0.000467690               0.999999984              -0.000504497               0.000438411               0.999999984              -0.000632156               0.000758569               0.999999984              -0.000574294               0.000635713               0.999999984              -0.000547046               0.000597903               0.999999984              -0.000535798               0.000592301               0.999999984              -0.000532527               0.000600093               0.999999984              -0.000532705               0.000613441               0.999999984              -0.000533530               0.000628750               0.999999984              -0.000532662               0.000642502               0.999999984              -0.000528370               0.000652656               0.999999984              -0.000519716               0.000658014               0.999999984              -0.000506215               0.000657857               0.999999984              -0.000488167               0.000651996               0.999999984              -0.000465969               0.000640416               0.999999984              -0.000440157               0.000623786               0.999999984              -0.000411504               0.000603077               0.999999984              -0.000380809               0.000579188               0.999999984              -0.000348843               0.000553325               0.999999984              -0.000584018               0.000866246               0.999999984              -0.000501492               0.000737035               0.999999984              -0.000469584               0.000700434               0.999999984              -0.000458794               0.000697189               0.999999984              -0.000456343               0.000707356               0.999999984              -0.000456342               0.000722929               0.999999984              -0.000455494               0.000739871               0.999999984              -0.000451134               0.000754184               0.999999984              -0.000441313               0.000764062               0.999999984              -0.000425458               0.000768713               0.999999984              -0.000403684               0.000767457               0.999999984              -0.000376585               0.000760523               0.999999984              -0.000344713               0.000748465               0.999999984              -0.000309094               0.000732176               0.999999984              -0.000270683               0.000712968               0.999999984              -0.000230605               0.000691858               0.999999984              -0.000189668               0.000669687               0.999999984              -0.000531728               0.000964688               0.999999984              -0.000427396               0.000836668               0.999999984              -0.000395749               0.000801509               0.999999984              -0.000387375               0.000799902               0.999999984              -0.000386475               0.000811882               0.999999984              -0.000386509               0.000829313               0.999999984              -0.000383634               0.000847235               0.999999984              -0.000374615               0.000861864               0.999999984              -0.000358049               0.000871338               0.999999984              -0.000333904               0.000875038               0.999999984              -0.000302753               0.000872805               0.999999984              -0.000265295               0.000865247               0.999999984              -0.000222662               0.000853398               0.999999984              -0.000176329               0.000838477               0.999999984              -0.000127822               0.000821788               0.999999984              -0.000078431               0.000804280               0.999999984              -0.000028814               0.000786411               0.999999984              -0.000477709               0.001057501               0.999999984              -0.000365572               0.000947545               0.999999984              -0.000330810               0.000908157               0.999999984              -0.000321394               0.000901154               0.999999984              -0.000320230               0.000908706               0.999999984              -0.000320671               0.000923367               0.999999984              -0.000319281               0.000940674               0.999999984              -0.000313321               0.000957247               0.999999984              -0.000300800               0.000970764               0.999999984              -0.000281148               0.000980103               0.999999984              -0.000254508               0.000984998               0.999999984              -0.000221239               0.000985425               0.999999984              -0.000182013               0.000981948               0.999999984              -0.000137729               0.000975550               0.999999984              -0.000089919               0.000967067               0.999999984              -0.000040290               0.000957492               0.999999984               0.000009953               0.000947370               0.999999984              -0.000418463               0.001141931               0.999999984              -0.000306538               0.001054719               0.999999984              -0.000268921               0.001017457               0.999999984              -0.000257806               0.001007432               0.999999984              -0.000255754               0.001012054               0.999999984              -0.000255933               0.001024546               0.999999984              -0.000255186               0.001041083               0.999999984              -0.000251276               0.001058888               0.999999984              -0.000242262               0.001075649               0.999999984              -0.000226776               0.001089805               0.999999984              -0.000204661               0.001100707               0.999999984              -0.000175864               0.001108128               0.999999984              -0.000140797               0.001112142               0.999999984              -0.000099714               0.001113351               0.999999984              -0.000053543               0.001112448               0.999999984              -0.000004088               0.001110240               0.999999984               0.000047016               0.001107369               0.999999984              -0.000355206               0.001216000               0.999999984              -0.000250333               0.001154904               0.999999984              -0.000211711               0.001124467               0.999999984              -0.000198773               0.001114913               0.999999984              -0.000195312               0.001118493               0.999999984              -0.000194725               0.001130052               0.999999984              -0.000193944               0.001146377               0.999999984              -0.000191169               0.001165136               0.999999984              -0.000184744               0.001184462               0.999999984              -0.000173157               0.001202763               0.999999984              -0.000155491               0.001218978               0.999999984              -0.000131573               0.001232671               0.999999984              -0.000101141               0.001243711               0.999999984              -0.000064125               0.001252123               0.999999984              -0.000020671               0.001258380               0.999999984               0.000028016               0.001263153               0.999999984               0.000080289               0.001267177               0.999999984              -0.000288532               0.001278420               0.999999984              -0.000196851               0.001244159               0.999999984              -0.000159986               0.001223838               0.999999984              -0.000146036               0.001217875               0.999999984              -0.000141337               0.001222516               0.999999984              -0.000139814               0.001234509               0.999999984              -0.000138615               0.001251574               0.999999984              -0.000136306               0.001271807               0.999999984              -0.000131619               0.001293679               0.999999984              -0.000123113               0.001315739               0.999999984              -0.000109573               0.001337004               0.999999984              -0.000090610               0.001356728               0.999999984              -0.000065390               0.001374482               0.999999984              -0.000033300               0.001390004               0.999999984               0.000005870               0.001403407               0.999999984               0.000052128               0.001415040               0.999999984               0.000104814               0.001425747               0.999999984              -0.000219000               0.001328134               0.999999984              -0.000145682               0.001318534               0.999999984              -0.000113881               0.001309717               0.999999984              -0.000100661               0.001309132               0.999999984              -0.000095469               0.001316614               0.999999984              -0.000093125               0.001330543               0.999999984              -0.000091575               0.001349309               0.999999984              -0.000089558               0.001371587               0.999999984              -0.000086053               0.001396176               0.999999984              -0.000079855               0.001421905               0.999999984              -0.000070099               0.001447874               0.999999984              -0.000055903               0.001473360               0.999999984              -0.000036346               0.001497870               0.999999984              -0.000010533               0.001520802               0.999999984               0.000022475               0.001541859               0.999999984               0.000063617               0.001560914               0.999999984               0.000113790               0.001578476               0.999999984              -0.000147247               0.001364325               0.999999984              -0.000096267               0.001374398               0.999999984              -0.000072817               0.001376222               0.999999984              -0.000062323               0.001381514               0.999999984              -0.000057748               0.001392612               0.999999984              -0.000055522               0.001409128               0.999999984              -0.000053935               0.001430135               0.999999984              -0.000052193               0.001454760               0.999999984              -0.000049699               0.001482105               0.999999984              -0.000045634               0.001511258               0.999999984              -0.000039165               0.001541500               0.999999984              -0.000029604               0.001572204               0.999999984              -0.000016200               0.001602779               0.999999984               0.000002018               0.001632721               0.999999984               0.000026252               0.001661404               0.999999984               0.000058077               0.001688176               0.999999984               0.000099316               0.001712828               0.999999984              -0.000074003               0.001386335               0.999999984              -0.000047918               0.001409042               0.999999984              -0.000035448               0.001418386               0.999999984              -0.000029593               0.001428256               0.999999984              -0.000026930               0.001442317               0.999999984              -0.000025527               0.001461107               0.999999984              -0.000024532               0.001484045               0.999999984              -0.000023388               0.001510536               0.999999984              -0.000022071               0.001539963               0.999999984              -0.000020125               0.001571620               0.999999984              -0.000016939               0.001604932               0.999999984              -0.000012055               0.001639326               0.999999984              -0.000005216               0.001674342               0.999999984               0.000004285               0.001709480               0.999999984               0.000017328               0.001743932               0.999999984               0.000034881               0.001776887               0.999999984               0.000058506               0.001807375               0.999999984              -0.000000000               0.001393733               0.999999984               0.000000000               0.001420824               0.999999984              -0.000000000               0.001432902               0.999999984              -0.000000000               0.001444472               0.999999984               0.000000000               0.001459685               0.999999984               0.000000000               0.001479385               0.999999984              -0.000000000               0.001503170               0.999999984               0.000000000               0.001530399               0.999999984               0.000000000               0.001560465               0.999999984               0.000000000               0.001592929               0.999999984               0.000000000               0.001627340               0.999999984              -0.000000000               0.001663121               0.999999984               0.000000000               0.001699751               0.999999984               0.000000000               0.001736811               0.999999984              -0.000000000               0.001773386               0.999999984               0.000000000               0.001808524               0.999999984              -0.000000000               0.001841213               0.999999984              -0.000777445               0.000000000               0.999999984              -0.000829193              -0.000000000               0.999999984              -0.000851747              -0.000000000               0.999999984              -0.000864311              -0.000000000               0.999999984              -0.000874035               0.000000000               0.999999984              -0.000883555              -0.000000000               0.999999984              -0.000893904               0.000000000               0.999999984              -0.000905411              -0.000000000               0.999999984              -0.000918180               0.000000000               0.999999984              -0.000931940               0.000000000               0.999999984              -0.000946443              -0.000000000               0.999999984              -0.000961465              -0.000000000               0.999999984              -0.000976657               0.000000000               0.999999984              -0.000991616              -0.000000000               0.999999984              -0.001005626              -0.000000000               0.999999984              -0.001017900               0.000000000               0.999999984              -0.001027632              -0.000000000               0.999999984              -0.000773118              -0.000133884               0.999999984              -0.000820875              -0.000108327               0.999999984              -0.000840885              -0.000096937               0.999999984              -0.000851860              -0.000092338               0.999999984              -0.000860517              -0.000091402               0.999999984              -0.000869344              -0.000092248               0.999999984              -0.000879233              -0.000094274               0.999999984              -0.000890276              -0.000096674               0.999999984              -0.000902410              -0.000098979               0.999999984              -0.000915456              -0.000100894               0.999999984              -0.000929045              -0.000102081               0.999999984              -0.000942900              -0.000102233               0.999999984              -0.000956632              -0.000100853               0.999999984              -0.000969661              -0.000097168               0.999999984              -0.000981482              -0.000090522               0.999999984              -0.000991431              -0.000080279               0.999999984              -0.000998839              -0.000065598               0.999999984              -0.000760293              -0.000266464               0.999999984              -0.000796449              -0.000216118               0.999999984              -0.000809376              -0.000194516               0.999999984              -0.000816039              -0.000186442               0.999999984              -0.000821977              -0.000185356               0.999999984              -0.000828825              -0.000187804               0.999999984              -0.000837108              -0.000192127               0.999999984              -0.000846721              -0.000197131               0.999999984              -0.000857365              -0.000201833               0.999999984              -0.000868566              -0.000205527               0.999999984              -0.000879679              -0.000207565               0.999999984              -0.000890159              -0.000207339               0.999999984              -0.000899520              -0.000204062               0.999999984              -0.000907396              -0.000196587               0.999999984              -0.000913341              -0.000183959               0.999999984              -0.000917060              -0.000165307               0.999999984              -0.000918304              -0.000139296               0.999999984              -0.000739263              -0.000396431               0.999999984              -0.000757246              -0.000322915               0.999999984              -0.000760074              -0.000293215               0.999999984              -0.000760968              -0.000283435               0.999999984              -0.000763419              -0.000283462               0.999999984              -0.000767920              -0.000288201               0.999999984              -0.000774233              -0.000295339               0.999999984              -0.000781767              -0.000303132               0.999999984              -0.000789813              -0.000310151               0.999999984              -0.000797543              -0.000315315               0.999999984              -0.000804194              -0.000317550               0.999999984              -0.000809045              -0.000316257               0.999999984              -0.000811691              -0.000310646               0.999999984              -0.000811906              -0.000299703               0.999999984              -0.000809539              -0.000282612               0.999999984              -0.000804700              -0.000258604               0.999999984              -0.000797631              -0.000226785               0.999999984              -0.000710498              -0.000522543               0.999999984              -0.000705335              -0.000428470               0.999999984              -0.000696820              -0.000393443               0.999999984              -0.000692075              -0.000383807               0.999999984              -0.000691444              -0.000386015               0.999999984              -0.000693702              -0.000393661               0.999999984              -0.000697849              -0.000403902               0.999999984              -0.000702787              -0.000414385               0.999999984              -0.000707334              -0.000423262               0.999999984              -0.000710466              -0.000429133               0.999999984              -0.000711240              -0.000430935               0.999999984              -0.000709151              -0.000428007               0.999999984              -0.000703985              -0.000419895               0.999999984              -0.000695667              -0.000406029               0.999999984              -0.000684422              -0.000386122               0.999999984              -0.000670764              -0.000359950               0.999999984              -0.000655404              -0.000327999               0.999999984              -0.000674519              -0.000643657               0.999999984              -0.000643277              -0.000532796               0.999999984              -0.000624216              -0.000495225               0.999999984              -0.000615170              -0.000487199               0.999999984              -0.000612412              -0.000492195               0.999999984              -0.000613152              -0.000502916               0.999999984              -0.000615561              -0.000515957               0.999999984              -0.000617739              -0.000528515               0.999999984              -0.000618193              -0.000538355               0.999999984              -0.000615755              -0.000544263               0.999999984              -0.000609775              -0.000545153               0.999999984              -0.000600011              -0.000540602               0.999999984              -0.000586543              -0.000530378               0.999999984              -0.000569623              -0.000514544               0.999999984              -0.000549824              -0.000493460               0.999999984              -0.000527880              -0.000467690               0.999999984              -0.000504497              -0.000438411               0.999999984              -0.000632156              -0.000758569               0.999999984              -0.000574294              -0.000635713               0.999999984              -0.000547046              -0.000597903               0.999999984              -0.000535798              -0.000592301               0.999999984              -0.000532527              -0.000600093               0.999999984              -0.000532705              -0.000613441               0.999999984              -0.000533530              -0.000628750               0.999999984              -0.000532662              -0.000642502               0.999999984              -0.000528370              -0.000652656               0.999999984              -0.000519716              -0.000658014               0.999999984              -0.000506215              -0.000657857               0.999999984              -0.000488167              -0.000651996               0.999999984              -0.000465969              -0.000640416               0.999999984              -0.000440157              -0.000623786               0.999999984              -0.000411504              -0.000603077               0.999999984              -0.000380809              -0.000579188               0.999999984              -0.000348843              -0.000553325               0.999999984              -0.000584018              -0.000866246               0.999999984              -0.000501492              -0.000737035               0.999999984              -0.000469584              -0.000700434               0.999999984              -0.000458794              -0.000697189               0.999999984              -0.000456343              -0.000707356               0.999999984              -0.000456342              -0.000722929               0.999999984              -0.000455494              -0.000739871               0.999999984              -0.000451134              -0.000754184               0.999999984              -0.000441313              -0.000764062               0.999999984              -0.000425458              -0.000768713               0.999999984              -0.000403684              -0.000767457               0.999999984              -0.000376585              -0.000760523               0.999999984              -0.000344713              -0.000748465               0.999999984              -0.000309094              -0.000732176               0.999999984              -0.000270683              -0.000712968               0.999999984              -0.000230605              -0.000691858               0.999999984              -0.000189668              -0.000669687               0.999999984              -0.000531728              -0.000964688               0.999999984              -0.000427396              -0.000836668               0.999999984              -0.000395749              -0.000801509               0.999999984              -0.000387375              -0.000799902               0.999999984              -0.000386475              -0.000811882               0.999999984              -0.000386509              -0.000829313               0.999999984              -0.000383634              -0.000847235               0.999999984              -0.000374615              -0.000861864               0.999999984              -0.000358049              -0.000871338               0.999999984              -0.000333904              -0.000875038               0.999999984              -0.000302753              -0.000872805               0.999999984              -0.000265295              -0.000865247               0.999999984              -0.000222662              -0.000853398               0.999999984              -0.000176329              -0.000838477               0.999999984              -0.000127822              -0.000821788               0.999999984              -0.000078431              -0.000804280               0.999999984              -0.000028814              -0.000786411               0.999999984              -0.000477709              -0.001057501               0.999999984              -0.000365572              -0.000947545               0.999999984              -0.000330810              -0.000908157               0.999999984              -0.000321394              -0.000901154               0.999999984              -0.000320230              -0.000908706               0.999999984              -0.000320671              -0.000923367               0.999999984              -0.000319281              -0.000940674               0.999999984              -0.000313321              -0.000957247               0.999999984              -0.000300800              -0.000970764               0.999999984              -0.000281148              -0.000980103               0.999999984              -0.000254508              -0.000984998               0.999999984              -0.000221239              -0.000985425               0.999999984              -0.000182013              -0.000981948               0.999999984              -0.000137729              -0.000975550               0.999999984              -0.000089919              -0.000967067               0.999999984              -0.000040290              -0.000957492               0.999999984               0.000009953              -0.000947370               0.999999984              -0.000418463              -0.001141931               0.999999984              -0.000306538              -0.001054719               0.999999984              -0.000268921              -0.001017457               0.999999984              -0.000257806              -0.001007432               0.999999984              -0.000255754              -0.001012054               0.999999984              -0.000255933              -0.001024546               0.999999984              -0.000255186              -0.001041083               0.999999984              -0.000251276              -0.001058888               0.999999984              -0.000242262              -0.001075649               0.999999984              -0.000226776              -0.001089805               0.999999984              -0.000204661              -0.001100707               0.999999984              -0.000175864              -0.001108128               0.999999984              -0.000140797              -0.001112142               0.999999984              -0.000099714              -0.001113351               0.999999984              -0.000053543              -0.001112448               0.999999984              -0.000004088              -0.001110240               0.999999984               0.000047016              -0.001107369               0.999999984              -0.000355206              -0.001216000               0.999999984              -0.000250333              -0.001154904               0.999999984              -0.000211711              -0.001124467               0.999999984              -0.000198773              -0.001114913               0.999999984              -0.000195312              -0.001118493               0.999999984              -0.000194725              -0.001130052               0.999999984              -0.000193944              -0.001146377               0.999999984              -0.000191169              -0.001165136               0.999999984              -0.000184744              -0.001184462               0.999999984              -0.000173157              -0.001202763               0.999999984              -0.000155491              -0.001218978               0.999999984              -0.000131573              -0.001232671               0.999999984              -0.000101141              -0.001243711               0.999999984              -0.000064125              -0.001252123               0.999999984              -0.000020671              -0.001258380               0.999999984               0.000028016              -0.001263153               0.999999984               0.000080289              -0.001267177               0.999999984              -0.000288532              -0.001278420               0.999999984              -0.000196851              -0.001244159               0.999999984              -0.000159986              -0.001223838               0.999999984              -0.000146036              -0.001217875               0.999999984              -0.000141337              -0.001222516               0.999999984              -0.000139814              -0.001234509               0.999999984              -0.000138615              -0.001251574               0.999999984              -0.000136306              -0.001271807               0.999999984              -0.000131619              -0.001293679               0.999999984              -0.000123113              -0.001315739               0.999999984              -0.000109573              -0.001337004               0.999999984              -0.000090610              -0.001356728               0.999999984              -0.000065390              -0.001374482               0.999999984              -0.000033300              -0.001390004               0.999999984               0.000005870              -0.001403407               0.999999984               0.000052128              -0.001415040               0.999999984               0.000104814              -0.001425747               0.999999984              -0.000219000              -0.001328134               0.999999984              -0.000145682              -0.001318534               0.999999984              -0.000113881              -0.001309717               0.999999984              -0.000100661              -0.001309132               0.999999984              -0.000095469              -0.001316614               0.999999984              -0.000093125              -0.001330543               0.999999984              -0.000091575              -0.001349309               0.999999984              -0.000089558              -0.001371587               0.999999984              -0.000086053              -0.001396176               0.999999984              -0.000079855              -0.001421905               0.999999984              -0.000070099              -0.001447874               0.999999984              -0.000055903              -0.001473360               0.999999984              -0.000036346              -0.001497870               0.999999984              -0.000010533              -0.001520802               0.999999984               0.000022475              -0.001541859               0.999999984               0.000063617              -0.001560914               0.999999984               0.000113790              -0.001578476               0.999999984              -0.000147247              -0.001364325               0.999999984              -0.000096267              -0.001374398               0.999999984              -0.000072817              -0.001376222               0.999999984              -0.000062323              -0.001381514               0.999999984              -0.000057748              -0.001392612               0.999999984              -0.000055522              -0.001409128               0.999999984              -0.000053935              -0.001430135               0.999999984              -0.000052193              -0.001454760               0.999999984              -0.000049699              -0.001482105               0.999999984              -0.000045634              -0.001511258               0.999999984              -0.000039165              -0.001541500               0.999999984              -0.000029604              -0.001572204               0.999999984              -0.000016200              -0.001602779               0.999999984               0.000002018              -0.001632721               0.999999984               0.000026252              -0.001661404               0.999999984               0.000058077              -0.001688176               0.999999984               0.000099316              -0.001712828               0.999999984              -0.000074003              -0.001386335               0.999999984              -0.000047918              -0.001409042               0.999999984              -0.000035448              -0.001418386               0.999999984              -0.000029593              -0.001428256               0.999999984              -0.000026930              -0.001442317               0.999999984              -0.000025527              -0.001461107               0.999999984              -0.000024532              -0.001484045               0.999999984              -0.000023388              -0.001510536               0.999999984              -0.000022071              -0.001539963               0.999999984              -0.000020125              -0.001571620               0.999999984              -0.000016939              -0.001604932               0.999999984              -0.000012055              -0.001639326               0.999999984              -0.000005216              -0.001674342               0.999999984               0.000004285              -0.001709480               0.999999984               0.000017328              -0.001743932               0.999999984               0.000034881              -0.001776887               0.999999984               0.000058506              -0.001807375               0.999999984              -0.000000000              -0.001393733               0.999999984               0.000000000              -0.001420824               0.999999984               0.000000000              -0.001432902               0.999999984               0.000000000              -0.001444472               0.999999984              -0.000000000              -0.001459685               0.999999984              -0.000000000              -0.001479385               0.999999984              -0.000000000              -0.001503170               0.999999984              -0.000000000              -0.001530399               0.999999984              -0.000000000              -0.001560465               0.999999984               0.000000000              -0.001592929               0.999999984              -0.000000000              -0.001627340               0.999999984              -0.000000000              -0.001663121               0.999999984              -0.000000000              -0.001699751               0.999999984              -0.000000000              -0.001736811               0.999999984              -0.000000000              -0.001773386               0.999999984               0.000000000              -0.001808524               0.999999984              -0.000000000              -0.001841213               0.999999984               0.000777445              -0.000000000               0.999999984               0.000829193              -0.000000000               0.999999984               0.000851747               0.000000000               0.999999984               0.000864311              -0.000000000               0.999999984               0.000874035               0.000000000               0.999999984               0.000883555              -0.000000000               0.999999984               0.000893904               0.000000000               0.999999984               0.000905411              -0.000000000               0.999999984               0.000918180               0.000000000               0.999999984               0.000931940              -0.000000000               0.999999984               0.000946443               0.000000000               0.999999984               0.000961465               0.000000000               0.999999984               0.000976657              -0.000000000               0.999999984               0.000991616               0.000000000               0.999999984               0.001005626              -0.000000000               0.999999984               0.001017900               0.000000000               0.999999984               0.001027632              -0.000000000               0.999999984               0.000773118              -0.000133884               0.999999984               0.000820875              -0.000108327               0.999999984               0.000840885              -0.000096937               0.999999984               0.000851860              -0.000092338               0.999999984               0.000860517              -0.000091402               0.999999984               0.000869344              -0.000092248               0.999999984               0.000879233              -0.000094274               0.999999984               0.000890276              -0.000096674               0.999999984               0.000902410              -0.000098979               0.999999984               0.000915456              -0.000100894               0.999999984               0.000929045              -0.000102081               0.999999984               0.000942900              -0.000102233               0.999999984               0.000956632              -0.000100853               0.999999984               0.000969661              -0.000097168               0.999999984               0.000981482              -0.000090522               0.999999984               0.000991431              -0.000080279               0.999999984               0.000998839              -0.000065598               0.999999984               0.000760293              -0.000266464               0.999999984               0.000796449              -0.000216118               0.999999984               0.000809376              -0.000194516               0.999999984               0.000816039              -0.000186442               0.999999984               0.000821977              -0.000185356               0.999999984               0.000828825              -0.000187804               0.999999984               0.000837108              -0.000192127               0.999999984               0.000846721              -0.000197131               0.999999984               0.000857365              -0.000201833               0.999999984               0.000868566              -0.000205527               0.999999984               0.000879679              -0.000207565               0.999999984               0.000890159              -0.000207339               0.999999984               0.000899520              -0.000204062               0.999999984               0.000907396              -0.000196587               0.999999984               0.000913341              -0.000183959               0.999999984               0.000917060              -0.000165307               0.999999984               0.000918304              -0.000139296               0.999999984               0.000739263              -0.000396431               0.999999984               0.000757246              -0.000322915               0.999999984               0.000760074              -0.000293215               0.999999984               0.000760968              -0.000283435               0.999999984               0.000763419              -0.000283462               0.999999984               0.000767920              -0.000288201               0.999999984               0.000774233              -0.000295339               0.999999984               0.000781767              -0.000303132               0.999999984               0.000789813              -0.000310151               0.999999984               0.000797543              -0.000315315               0.999999984               0.000804194              -0.000317550               0.999999984               0.000809045              -0.000316257               0.999999984               0.000811691              -0.000310646               0.999999984               0.000811906              -0.000299703               0.999999984               0.000809539              -0.000282612               0.999999984               0.000804700              -0.000258604               0.999999984               0.000797631              -0.000226785               0.999999984               0.000710498              -0.000522543               0.999999984               0.000705335              -0.000428470               0.999999984               0.000696820              -0.000393443               0.999999984               0.000692075              -0.000383807               0.999999984               0.000691444              -0.000386015               0.999999984               0.000693702              -0.000393661               0.999999984               0.000697849              -0.000403902               0.999999984               0.000702787              -0.000414385               0.999999984               0.000707334              -0.000423262               0.999999984               0.000710466              -0.000429133               0.999999984               0.000711240              -0.000430935               0.999999984               0.000709151              -0.000428007               0.999999984               0.000703985              -0.000419895               0.999999984               0.000695667              -0.000406029               0.999999984               0.000684422              -0.000386122               0.999999984               0.000670764              -0.000359950               0.999999984               0.000655404              -0.000327999               0.999999984               0.000674519              -0.000643657               0.999999984               0.000643277              -0.000532796               0.999999984               0.000624216              -0.000495225               0.999999984               0.000615170              -0.000487199               0.999999984               0.000612412              -0.000492195               0.999999984               0.000613152              -0.000502916               0.999999984               0.000615561              -0.000515957               0.999999984               0.000617739              -0.000528515               0.999999984               0.000618193              -0.000538355               0.999999984               0.000615755              -0.000544263               0.999999984               0.000609775              -0.000545153               0.999999984               0.000600011              -0.000540602               0.999999984               0.000586543              -0.000530378               0.999999984               0.000569623              -0.000514544               0.999999984               0.000549824              -0.000493460               0.999999984               0.000527880              -0.000467690               0.999999984               0.000504497              -0.000438411               0.999999984               0.000632156              -0.000758569               0.999999984               0.000574294              -0.000635713               0.999999984               0.000547046              -0.000597903               0.999999984               0.000535798              -0.000592301               0.999999984               0.000532527              -0.000600093               0.999999984               0.000532705              -0.000613441               0.999999984               0.000533530              -0.000628750               0.999999984               0.000532662              -0.000642502               0.999999984               0.000528370              -0.000652656               0.999999984               0.000519716              -0.000658014               0.999999984               0.000506215              -0.000657857               0.999999984               0.000488167              -0.000651996               0.999999984               0.000465969              -0.000640416               0.999999984               0.000440157              -0.000623786               0.999999984               0.000411504              -0.000603077               0.999999984               0.000380809              -0.000579188               0.999999984               0.000348843              -0.000553325               0.999999984               0.000584018              -0.000866246               0.999999984               0.000501492              -0.000737035               0.999999984               0.000469584              -0.000700434               0.999999984               0.000458794              -0.000697189               0.999999984               0.000456343              -0.000707356               0.999999984               0.000456342              -0.000722929               0.999999984               0.000455494              -0.000739871               0.999999984               0.000451134              -0.000754184               0.999999984               0.000441313              -0.000764062               0.999999984               0.000425458              -0.000768713               0.999999984               0.000403684              -0.000767457               0.999999984               0.000376585              -0.000760523               0.999999984               0.000344713              -0.000748465               0.999999984               0.000309094              -0.000732176               0.999999984               0.000270683              -0.000712968               0.999999984               0.000230605              -0.000691858               0.999999984               0.000189668              -0.000669687               0.999999984               0.000531728              -0.000964688               0.999999984               0.000427396              -0.000836668               0.999999984               0.000395749              -0.000801509               0.999999984               0.000387375              -0.000799902               0.999999984               0.000386475              -0.000811882               0.999999984               0.000386509              -0.000829313               0.999999984               0.000383634              -0.000847235               0.999999984               0.000374615              -0.000861864               0.999999984               0.000358049              -0.000871338               0.999999984               0.000333904              -0.000875038               0.999999984               0.000302753              -0.000872805               0.999999984               0.000265295              -0.000865247               0.999999984               0.000222662              -0.000853398               0.999999984               0.000176329              -0.000838477               0.999999984               0.000127822              -0.000821788               0.999999984               0.000078431              -0.000804280               0.999999984               0.000028814              -0.000786411               0.999999984               0.000477709              -0.001057501               0.999999984               0.000365572              -0.000947545               0.999999984               0.000330810              -0.000908157               0.999999984               0.000321394              -0.000901154               0.999999984               0.000320230              -0.000908706               0.999999984               0.000320671              -0.000923367               0.999999984               0.000319281              -0.000940674               0.999999984               0.000313321              -0.000957247               0.999999984               0.000300800              -0.000970764               0.999999984               0.000281148              -0.000980103               0.999999984               0.000254508              -0.000984998               0.999999984               0.000221239              -0.000985425               0.999999984               0.000182013              -0.000981948               0.999999984               0.000137729              -0.000975550               0.999999984               0.000089919              -0.000967067               0.999999984               0.000040290              -0.000957492               0.999999984              -0.000009953              -0.000947370               0.999999984               0.000418463              -0.001141931               0.999999984               0.000306538              -0.001054719               0.999999984               0.000268921              -0.001017457               0.999999984               0.000257806              -0.001007432               0.999999984               0.000255754              -0.001012054               0.999999984               0.000255933              -0.001024546               0.999999984               0.000255186              -0.001041083               0.999999984               0.000251276              -0.001058888               0.999999984               0.000242262              -0.001075649               0.999999984               0.000226776              -0.001089805               0.999999984               0.000204661              -0.001100707               0.999999984               0.000175864              -0.001108128               0.999999984               0.000140797              -0.001112142               0.999999984               0.000099714              -0.001113351               0.999999984               0.000053543              -0.001112448               0.999999984               0.000004088              -0.001110240               0.999999984              -0.000047016              -0.001107369               0.999999984               0.000355206              -0.001216000               0.999999984               0.000250333              -0.001154904               0.999999984               0.000211711              -0.001124467               0.999999984               0.000198773              -0.001114913               0.999999984               0.000195312              -0.001118493               0.999999984               0.000194725              -0.001130052               0.999999984               0.000193944              -0.001146377               0.999999984               0.000191169              -0.001165136               0.999999984               0.000184744              -0.001184462               0.999999984               0.000173157              -0.001202763               0.999999984               0.000155491              -0.001218978               0.999999984               0.000131573              -0.001232671               0.999999984               0.000101141              -0.001243711               0.999999984               0.000064125              -0.001252123               0.999999984               0.000020671              -0.001258380               0.999999984              -0.000028016              -0.001263153               0.999999984              -0.000080289              -0.001267177               0.999999984               0.000288532              -0.001278420               0.999999984               0.000196851              -0.001244159               0.999999984               0.000159986              -0.001223838               0.999999984               0.000146036              -0.001217875               0.999999984               0.000141337              -0.001222516               0.999999984               0.000139814              -0.001234509               0.999999984               0.000138615              -0.001251574               0.999999984               0.000136306              -0.001271807               0.999999984               0.000131619              -0.001293679               0.999999984               0.000123113              -0.001315739               0.999999984               0.000109573              -0.001337004               0.999999984               0.000090610              -0.001356728               0.999999984               0.000065390              -0.001374482               0.999999984               0.000033300              -0.001390004               0.999999984              -0.000005870              -0.001403407               0.999999984              -0.000052128              -0.001415040               0.999999984              -0.000104814              -0.001425747               0.999999984               0.000219000              -0.001328134               0.999999984               0.000145682              -0.001318534               0.999999984               0.000113881              -0.001309717               0.999999984               0.000100661              -0.001309132               0.999999984               0.000095469              -0.001316614               0.999999984               0.000093125              -0.001330543               0.999999984               0.000091575              -0.001349309               0.999999984               0.000089558              -0.001371587               0.999999984               0.000086053              -0.001396176               0.999999984               0.000079855              -0.001421905               0.999999984               0.000070099              -0.001447874               0.999999984               0.000055903              -0.001473360               0.999999984               0.000036346              -0.001497870               0.999999984               0.000010533              -0.001520802               0.999999984              -0.000022475              -0.001541859               0.999999984              -0.000063617              -0.001560914               0.999999984              -0.000113790              -0.001578476               0.999999984               0.000147247              -0.001364325               0.999999984               0.000096267              -0.001374398               0.999999984               0.000072817              -0.001376222               0.999999984               0.000062323              -0.001381514               0.999999984               0.000057748              -0.001392612               0.999999984               0.000055522              -0.001409128               0.999999984               0.000053935              -0.001430135               0.999999984               0.000052193              -0.001454760               0.999999984               0.000049699              -0.001482105               0.999999984               0.000045634              -0.001511258               0.999999984               0.000039165              -0.001541500               0.999999984               0.000029604              -0.001572204               0.999999984               0.000016200              -0.001602779               0.999999984              -0.000002018              -0.001632721               0.999999984              -0.000026252              -0.001661404               0.999999984              -0.000058077              -0.001688176               0.999999984              -0.000099316              -0.001712828               0.999999984               0.000074003              -0.001386335               0.999999984               0.000047918              -0.001409042               0.999999984               0.000035448              -0.001418386               0.999999984               0.000029593              -0.001428256               0.999999984               0.000026930              -0.001442317               0.999999984               0.000025527              -0.001461107               0.999999984               0.000024532              -0.001484045               0.999999984               0.000023388              -0.001510536               0.999999984               0.000022071              -0.001539963               0.999999984               0.000020125              -0.001571620               0.999999984               0.000016939              -0.001604932               0.999999984               0.000012055              -0.001639326               0.999999984               0.000005216              -0.001674342               0.999999984              -0.000004285              -0.001709480               0.999999984              -0.000017328              -0.001743932               0.999999984              -0.000034881              -0.001776887               0.999999984              -0.000058506              -0.001807375               0.999999984              -0.000000000              -0.001393733               0.999999984               0.000000000              -0.001420824               0.999999984               0.000000000              -0.001432902               0.999999984               0.000000000              -0.001444472               0.999999984              -0.000000000              -0.001459685               0.999999984              -0.000000000              -0.001479385               0.999999984              -0.000000000              -0.001503170               0.999999984              -0.000000000              -0.001530399               0.999999984              -0.000000000              -0.001560465               0.999999984               0.000000000              -0.001592929               0.999999984              -0.000000000              -0.001627340               0.999999984              -0.000000000              -0.001663121               0.999999984              -0.000000000              -0.001699751               0.999999984              -0.000000000              -0.001736811               0.999999984              -0.000000000              -0.001773386               0.999999984               0.000000000              -0.001808524               0.999999984              -0.000000000              -0.001841213               0.999999984               0.000777445              -0.000000000               0.999999984               0.000829193              -0.000000000               0.999999984               0.000851747               0.000000000               0.999999984               0.000864311              -0.000000000               0.999999984               0.000874035               0.000000000               0.999999984               0.000883555              -0.000000000               0.999999984               0.000893904               0.000000000               0.999999984               0.000905411              -0.000000000               0.999999984               0.000918180               0.000000000               0.999999984               0.000931940              -0.000000000               0.999999984               0.000946443               0.000000000               0.999999984               0.000961465               0.000000000               0.999999984               0.000976657              -0.000000000               0.999999984               0.000991616               0.000000000               0.999999984               0.001005626              -0.000000000               0.999999984               0.001017900               0.000000000               0.999999984               0.001027632              -0.000000000               0.999999984               0.000773118               0.000133884               0.999999984               0.000820875               0.000108327               0.999999984               0.000840885               0.000096937               0.999999984               0.000851860               0.000092338               0.999999984               0.000860517               0.000091402               0.999999984               0.000869344               0.000092248               0.999999984               0.000879233               0.000094274               0.999999984               0.000890276               0.000096674               0.999999984               0.000902410               0.000098979               0.999999984               0.000915456               0.000100894               0.999999984               0.000929045               0.000102081               0.999999984               0.000942900               0.000102233               0.999999984               0.000956632               0.000100853               0.999999984               0.000969661               0.000097168               0.999999984               0.000981482               0.000090522               0.999999984               0.000991431               0.000080279               0.999999984               0.000998839               0.000065598               0.999999984               0.000760293               0.000266464               0.999999984               0.000796449               0.000216118               0.999999984               0.000809376               0.000194516               0.999999984               0.000816039               0.000186442               0.999999984               0.000821977               0.000185356               0.999999984               0.000828825               0.000187804               0.999999984               0.000837108               0.000192127               0.999999984               0.000846721               0.000197131               0.999999984               0.000857365               0.000201833               0.999999984               0.000868566               0.000205527               0.999999984               0.000879679               0.000207565               0.999999984               0.000890159               0.000207339               0.999999984               0.000899520               0.000204062               0.999999984               0.000907396               0.000196587               0.999999984               0.000913341               0.000183959               0.999999984               0.000917060               0.000165307               0.999999984               0.000918304               0.000139296               0.999999984               0.000739263               0.000396431               0.999999984               0.000757246               0.000322915               0.999999984               0.000760074               0.000293215               0.999999984               0.000760968               0.000283435               0.999999984               0.000763419               0.000283462               0.999999984               0.000767920               0.000288201               0.999999984               0.000774233               0.000295339               0.999999984               0.000781767               0.000303132               0.999999984               0.000789813               0.000310151               0.999999984               0.000797543               0.000315315               0.999999984               0.000804194               0.000317550               0.999999984               0.000809045               0.000316257               0.999999984               0.000811691               0.000310646               0.999999984               0.000811906               0.000299703               0.999999984               0.000809539               0.000282612               0.999999984               0.000804700               0.000258604               0.999999984               0.000797631               0.000226785               0.999999984               0.000710498               0.000522543               0.999999984               0.000705335               0.000428470               0.999999984               0.000696820               0.000393443               0.999999984               0.000692075               0.000383807               0.999999984               0.000691444               0.000386015               0.999999984               0.000693702               0.000393661               0.999999984               0.000697849               0.000403902               0.999999984               0.000702787               0.000414385               0.999999984               0.000707334               0.000423262               0.999999984               0.000710466               0.000429133               0.999999984               0.000711240               0.000430935               0.999999984               0.000709151               0.000428007               0.999999984               0.000703985               0.000419895               0.999999984               0.000695667               0.000406029               0.999999984               0.000684422               0.000386122               0.999999984               0.000670764               0.000359950               0.999999984               0.000655404               0.000327999               0.999999984               0.000674519               0.000643657               0.999999984               0.000643277               0.000532796               0.999999984               0.000624216               0.000495225               0.999999984               0.000615170               0.000487199               0.999999984               0.000612412               0.000492195               0.999999984               0.000613152               0.000502916               0.999999984               0.000615561               0.000515957               0.999999984               0.000617739               0.000528515               0.999999984               0.000618193               0.000538355               0.999999984               0.000615755               0.000544263               0.999999984               0.000609775               0.000545153               0.999999984               0.000600011               0.000540602               0.999999984               0.000586543               0.000530378               0.999999984               0.000569623               0.000514544               0.999999984               0.000549824               0.000493460               0.999999984               0.000527880               0.000467690               0.999999984               0.000504497               0.000438411               0.999999984               0.000632156               0.000758569               0.999999984               0.000574294               0.000635713               0.999999984               0.000547046               0.000597903               0.999999984               0.000535798               0.000592301               0.999999984               0.000532527               0.000600093               0.999999984               0.000532705               0.000613441               0.999999984               0.000533530               0.000628750               0.999999984               0.000532662               0.000642502               0.999999984               0.000528370               0.000652656               0.999999984               0.000519716               0.000658014               0.999999984               0.000506215               0.000657857               0.999999984               0.000488167               0.000651996               0.999999984               0.000465969               0.000640416               0.999999984               0.000440157               0.000623786               0.999999984               0.000411504               0.000603077               0.999999984               0.000380809               0.000579188               0.999999984               0.000348843               0.000553325               0.999999984               0.000584018               0.000866246               0.999999984               0.000501492               0.000737035               0.999999984               0.000469584               0.000700434               0.999999984               0.000458794               0.000697189               0.999999984               0.000456343               0.000707356               0.999999984               0.000456342               0.000722929               0.999999984               0.000455494               0.000739871               0.999999984               0.000451134               0.000754184               0.999999984               0.000441313               0.000764062               0.999999984               0.000425458               0.000768713               0.999999984               0.000403684               0.000767457               0.999999984               0.000376585               0.000760523               0.999999984               0.000344713               0.000748465               0.999999984               0.000309094               0.000732176               0.999999984               0.000270683               0.000712968               0.999999984               0.000230605               0.000691858               0.999999984               0.000189668               0.000669687               0.999999984               0.000531728               0.000964688               0.999999984               0.000427396               0.000836668               0.999999984               0.000395749               0.000801509               0.999999984               0.000387375               0.000799902               0.999999984               0.000386475               0.000811882               0.999999984               0.000386509               0.000829313               0.999999984               0.000383634               0.000847235               0.999999984               0.000374615               0.000861864               0.999999984               0.000358049               0.000871338               0.999999984               0.000333904               0.000875038               0.999999984               0.000302753               0.000872805               0.999999984               0.000265295               0.000865247               0.999999984               0.000222662               0.000853398               0.999999984               0.000176329               0.000838477               0.999999984               0.000127822               0.000821788               0.999999984               0.000078431               0.000804280               0.999999984               0.000028814               0.000786411               0.999999984               0.000477709               0.001057501               0.999999984               0.000365572               0.000947545               0.999999984               0.000330810               0.000908157               0.999999984               0.000321394               0.000901154               0.999999984               0.000320230               0.000908706               0.999999984               0.000320671               0.000923367               0.999999984               0.000319281               0.000940674               0.999999984               0.000313321               0.000957247               0.999999984               0.000300800               0.000970764               0.999999984               0.000281148               0.000980103               0.999999984               0.000254508               0.000984998               0.999999984               0.000221239               0.000985425               0.999999984               0.000182013               0.000981948               0.999999984               0.000137729               0.000975550               0.999999984               0.000089919               0.000967067               0.999999984               0.000040290               0.000957492               0.999999984              -0.000009953               0.000947370               0.999999984               0.000418463               0.001141931               0.999999984               0.000306538               0.001054719               0.999999984               0.000268921               0.001017457               0.999999984               0.000257806               0.001007432               0.999999984               0.000255754               0.001012054               0.999999984               0.000255933               0.001024546               0.999999984               0.000255186               0.001041083               0.999999984               0.000251276               0.001058888               0.999999984               0.000242262               0.001075649               0.999999984               0.000226776               0.001089805               0.999999984               0.000204661               0.001100707               0.999999984               0.000175864               0.001108128               0.999999984               0.000140797               0.001112142               0.999999984               0.000099714               0.001113351               0.999999984               0.000053543               0.001112448               0.999999984               0.000004088               0.001110240               0.999999984              -0.000047016               0.001107369               0.999999984               0.000355206               0.001216000               0.999999984               0.000250333               0.001154904               0.999999984               0.000211711               0.001124467               0.999999984               0.000198773               0.001114913               0.999999984               0.000195312               0.001118493               0.999999984               0.000194725               0.001130052               0.999999984               0.000193944               0.001146377               0.999999984               0.000191169               0.001165136               0.999999984               0.000184744               0.001184462               0.999999984               0.000173157               0.001202763               0.999999984               0.000155491               0.001218978               0.999999984               0.000131573               0.001232671               0.999999984               0.000101141               0.001243711               0.999999984               0.000064125               0.001252123               0.999999984               0.000020671               0.001258380               0.999999984              -0.000028016               0.001263153               0.999999984              -0.000080289               0.001267177               0.999999984               0.000288532               0.001278420               0.999999984               0.000196851               0.001244159               0.999999984               0.000159986               0.001223838               0.999999984               0.000146036               0.001217875               0.999999984               0.000141337               0.001222516               0.999999984               0.000139814               0.001234509               0.999999984               0.000138615               0.001251574               0.999999984               0.000136306               0.001271807               0.999999984               0.000131619               0.001293679               0.999999984               0.000123113               0.001315739               0.999999984               0.000109573               0.001337004               0.999999984               0.000090610               0.001356728               0.999999984               0.000065390               0.001374482               0.999999984               0.000033300               0.001390004               0.999999984              -0.000005870               0.001403407               0.999999984              -0.000052128               0.001415040               0.999999984              -0.000104814               0.001425747               0.999999984               0.000219000               0.001328134               0.999999984               0.000145682               0.001318534               0.999999984               0.000113881               0.001309717               0.999999984               0.000100661               0.001309132               0.999999984               0.000095469               0.001316614               0.999999984               0.000093125               0.001330543               0.999999984               0.000091575               0.001349309               0.999999984               0.000089558               0.001371587               0.999999984               0.000086053               0.001396176               0.999999984               0.000079855               0.001421905               0.999999984               0.000070099               0.001447874               0.999999984               0.000055903               0.001473360               0.999999984               0.000036346               0.001497870               0.999999984               0.000010533               0.001520802               0.999999984              -0.000022475               0.001541859               0.999999984              -0.000063617               0.001560914               0.999999984              -0.000113790               0.001578476               0.999999984               0.000147247               0.001364325               0.999999984               0.000096267               0.001374398               0.999999984               0.000072817               0.001376222               0.999999984               0.000062323               0.001381514               0.999999984               0.000057748               0.001392612               0.999999984               0.000055522               0.001409128               0.999999984               0.000053935               0.001430135               0.999999984               0.000052193               0.001454760               0.999999984               0.000049699               0.001482105               0.999999984               0.000045634               0.001511258               0.999999984               0.000039165               0.001541500               0.999999984               0.000029604               0.001572204               0.999999984               0.000016200               0.001602779               0.999999984              -0.000002018               0.001632721               0.999999984              -0.000026252               0.001661404               0.999999984              -0.000058077               0.001688176               0.999999984              -0.000099316               0.001712828               0.999999984               0.000074003               0.001386335               0.999999984               0.000047918               0.001409042               0.999999984               0.000035448               0.001418386               0.999999984               0.000029593               0.001428256               0.999999984               0.000026930               0.001442317               0.999999984               0.000025527               0.001461107               0.999999984               0.000024532               0.001484045               0.999999984               0.000023388               0.001510536               0.999999984               0.000022071               0.001539963               0.999999984               0.000020125               0.001571620               0.999999984               0.000016939               0.001604932               0.999999984               0.000012055               0.001639326               0.999999984               0.000005216               0.001674342               0.999999984              -0.000004285               0.001709480               0.999999984              -0.000017328               0.001743932               0.999999984              -0.000034881               0.001776887               0.999999984              -0.000058506               0.001807375               0.999999984              -0.000000000               0.001393733               0.999999984               0.000000000               0.001420824               0.999999984              -0.000000000               0.001432902               0.999999984              -0.000000000               0.001444472               0.999999984               0.000000000               0.001459685               0.999999984               0.000000000               0.001479385               0.999999984              -0.000000000               0.001503170               0.999999984               0.000000000               0.001530399               0.999999984               0.000000000               0.001560465               0.999999984               0.000000000               0.001592929               0.999999984               0.000000000               0.001627340               0.999999984              -0.000000000               0.001663121               0.999999984               0.000000000               0.001699751               0.999999984               0.000000000               0.001736811               0.999999984              -0.000000000               0.001773386               0.999999984               0.000000000               0.001808524               0.999999984              -0.000000000               0.001841213               0.999999984 </DataArray>
<DataArray type="Float64"                                    Name="defo"                                                      NumberOfComponents=" 3" format="ascii">
             -0.000777445               0.000000000               0.999999984              -0.000829193              -0.000000000               0.999999984              -0.000851747              -0.000000000               0.999999984              -0.000864311              -0.000000000               0.999999984              -0.000874035               0.000000000               0.999999984              -0.000883555              -0.000000000               0.999999984              -0.000893904               0.000000000               0.999999984              -0.000905411              -0.000000000               0.999999984              -0.000918180               0.000000000               0.999999984              -0.000931940               0.000000000               0.999999984              -0.000946443              -0.000000000               0.999999984              -0.000961465              -0.000000000               0.999999984              -0.000976657               0.000000000               0.999999984              -0.000991616              -0.000000000               0.999999984              -0.001005626              -0.000000000               0.999999984              -0.001017900               0.000000000               0.999999984              -0.001027632              -0.000000000               0.999999984              -0.000773118               0.000133884               0.999999984              -0.000820875               0.000108327               0.999999984              -0.000840885               0.000096937               0.999999984              -0.000851860               0.000092338               0.999999984              -0.000860517               0.000091402               0.999999984              -0.000869344               0.000092248               0.999999984              -0.000879233               0.000094274               0.999999984              -0.000890276               0.000096674               0.999999984              -0.000902410               0.000098979               0.999999984              -0.000915456               0.000100894               0.999999984              -0.000929045               0.000102081               0.999999984              -0.000942900               0.000102233               0.999999984              -0.000956632               0.000100853               0.999999984              -0.000969661               0.000097168               0.999999984              -0.000981482               0.000090522               0.999999984              -0.000991431               0.000080279               0.999999984              -0.000998839               0.000065598               0.999999984              -0.000760293               0.000266464               0.999999984              -0.000796449               0.000216118               0.999999984              -0.000809376               0.000194516               0.999999984              -0.000816039               0.000186442               0.999999984              -0.000821977               0.000185356               0.999999984              -0.000828825               0.000187804               0.999999984              -0.000837108               0.000192127               0.999999984              -0.000846721               0.000197131               0.999999984              -0.000857365               0.000201833               0.999999984              -0.000868566               0.000205527               0.999999984              -0.000879679               0.000207565               0.999999984              -0.000890159               0.000207339               0.999999984              -0.000899520               0.000204062               0.999999984              -0.000907396               0.000196587               0.999999984              -0.000913341               0.000183959               0.999999984              -0.000917060               0.000165307               0.999999984              -0.000918304               0.000139296               0.999999984              -0.000739263               0.000396431               0.999999984              -0.000757246               0.000322915               0.999999984              -0.000760074               0.000293215               0.999999984              -0.000760968               0.000283435               0.999999984              -0.000763419               0.000283462               0.999999984              -0.000767920               0.000288201               0.999999984              -0.000774233               0.000295339               0.999999984              -0.000781767               0.000303132               0.999999984              -0.000789813               0.000310151               0.999999984              -0.000797543               0.000315315               0.999999984              -0.000804194               0.000317550               0.999999984              -0.000809045               0.000316257               0.999999984              -0.000811691               0.000310646               0.999999984              -0.000811906               0.000299703               0.999999984              -0.000809539               0.000282612               0.999999984              -0.000804700               0.000258604               0.999999984              -0.000797631               0.000226785               0.999999984              -0.000710498               0.000522543               0.999999984              -0.000705335               0.000428470               0.999999984              -0.000696820               0.000393443               0.999999984              -0.000692075               0.000383807               0.999999984              -0.000691444               0.000386015               0.999999984              -0.000693702               0.000393661               0.999999984              -0.000697849               0.000403902               0.999999984              -0.000702787               0.000414385               0.999999984              -0.000707334               0.000423262               0.999999984              -0.000710466               0.000429133               0.999999984              -0.000711240               0.000430935               0.999999984              -0.000709151               0.000428007               0.999999984              -0.000703985               0.000419895               0.999999984              -0.000695667               0.000406029               0.999999984              -0.000684422               0.000386122               0.999999984              -0.000670764               0.000359950               0.999999984              -0.000655404               0.000327999               0.999999984              -0.000674519               0.000643657               0.999999984              -0.000643277               0.000532796               0.999999984              -0.000624216               0.000495225               0.999999984              -0.000615170               0.000487199               0.999999984              -0.000612412               0.000492195               0.999999984              -0.000613152               0.000502916               0.999999984              -0.000615561               0.000515957               0.999999984              -0.000617739               0.000528515               0.999999984              -0.000618193               0.000538355               0.999999984              -0.000615755               0.000544263               0.999999984              -0.000609775               0.000545153               0.999999984              -0.000600011               0.000540602               0.999999984              -0.000586543               0.000530378               0.999999984              -0.000569623               0.000514544               0.999999984              -0.000549824               0.000493460               0.999999984              -0.000527880               0.000467690               0.999999984              -0.000504497               0.000438411               0.999999984              -0.000632156               0.000758569               0.999999984              -0.000574294               0.000635713               0.999999984              -0.000547046               0.000597903               0.999999984              -0.000535798               0.000592301               0.999999984              -0.000532527               0.000600093               0.999999984              -0.000532705               0.000613441               0.999999984              -0.000533530               0.000628750               0.999999984              -0.000532662               0.000642502               0.999999984              -0.000528370               0.000652656               0.999999984              -0.000519716               0.000658014               0.999999984              -0.000506215               0.000657857               0.999999984              -0.000488167               0.000651996               0.999999984              -0.000465969               0.000640416               0.999999984              -0.000440157               0.000623786               0.999999984              -0.000411504               0.000603077               0.999999984              -0.000380809               0.000579188               0.999999984              -0.000348843               0.000553325               0.999999984              -0.000584018               0.000866246               0.999999984              -0.000501492               0.000737035               0.999999984              -0.000469584               0.000700434               0.999999984              -0.000458794               0.000697189               0.999999984              -0.000456343               0.000707356               0.999999984              -0.000456342               0.000722929               0.999999984              -0.000455494               0.000739871               0.999999984              -0.000451134               0.000754184               0.999999984              -0.000441313               0.000764062               0.999999984              -0.000425458               0.000768713               0.999999984              -0.000403684               0.000767457               0.999999984              -0.000376585               0.000760523               0.999999984              -0.000344713               0.000748465               0.999999984              -0.000309094               0.000732176               0.999999984              -0.000270683               0.000712968               0.999999984              -0.000230605               0.000691858               0.999999984              -0.000189668               0.000669687               0.999999984              -0.000531728               0.000964688               0.999999984              -0.000427396               0.000836668               0.999999984              -0.000395749               0.000801509               0.999999984              -0.000387375               0.000799902               0.999999984              -0.000386475               0.000811882               0.999999984              -0.000386509               0.000829313               0.999999984              -0.000383634               0.000847235               0.999999984              -0.000374615               0.000861864               0.999999984              -0.000358049               0.000871338               0.999999984              -0.000333904               0.000875038               0.999999984              -0.000302753               0.000872805               0.999999984              -0.000265295               0.000865247               0.999999984              -0.000222662               0.000853398               0.999999984              -0.000176329               0.000838477               0.999999984              -0.000127822               0.000821788               0.999999984              -0.000078431               0.000804280               0.999999984              -0.000028814               0.000786411               0.999999984              -0.000477709               0.001057501               0.999999984              -0.000365572               0.000947545               0.999999984              -0.000330810               0.000908157               0.999999984              -0.000321394               0.000901154               0.999999984              -0.000320230               0.000908706               0.999999984              -0.000320671               0.000923367               0.999999984              -0.000319281               0.000940674               0.999999984              -0.000313321               0.000957247               0.999999984              -0.000300800               0.000970764               0.999999984              -0.000281148               0.000980103               0.999999984              -0.000254508               0.000984998               0.999999984              -0.000221239               0.000985425               0.999999984              -0.000182013               0.000981948               0.999999984              -0.000137729               0.000975550               0.999999984              -0.000089919               0.000967067               0.999999984              -0.000040290               0.000957492               0.999999984               0.000009953               0.000947370               0.999999984              -0.000418463               0.001141931               0.999999984              -0.000306538               0.001054719               0.999999984              -0.000268921               0.001017457               0.999999984              -0.000257806               0.001007432               0.999999984              -0.000255754               0.001012054               0.999999984              -0.000255933               0.001024546               0.999999984              -0.000255186               0.001041083               0.999999984              -0.000251276               0.001058888               0.999999984              -0.000242262               0.001075649               0.999999984              -0.000226776               0.001089805               0.999999984              -0.000204661               0.001100707               0.999999984              -0.000175864               0.001108128               0.999999984              -0.000140797               0.001112142               0.999999984              -0.000099714               0.001113351               0.999999984              -0.000053543               0.001112448               0.999999984              -0.000004088               0.001110240               0.999999984               0.000047016               0.001107369               0.999999984              -0.000355206               0.001216000               0.999999984              -0.000250333               0.001154904               0.999999984              -0.000211711               0.001124467               0.999999984              -0.000198773               0.001114913               0.999999984              -0.000195312               0.001118493               0.999999984              -0.000194725               0.001130052               0.999999984              -0.000193944               0.001146377               0.999999984              -0.000191169               0.001165136               0.999999984              -0.000184744               0.001184462               0.999999984              -0.000173157               0.001202763               0.999999984              -0.000155491               0.001218978               0.999999984              -0.000131573               0.001232671               0.999999984              -0.000101141               0.001243711               0.999999984              -0.000064125               0.001252123               0.999999984              -0.000020671               0.001258380               0.999999984               0.000028016               0.001263153               0.999999984               0.000080289               0.001267177               0.999999984              -0.000288532               0.001278420               0.999999984              -0.000196851               0.001244159               0.999999984              -0.000159986               0.001223838               0.999999984              -0.000146036               0.001217875               0.999999984              -0.000141337               0.001222516               0.999999984              -0.000139814               0.001234509               0.999999984              -0.000138615               0.001251574               0.999999984              -0.000136306               0.001271807               0.999999984              -0.000131619               0.001293679               0.999999984              -0.000123113               0.001315739               0.999999984              -0.000109573               0.001337004               0.999999984              -0.000090610               0.001356728               0.999999984              -0.000065390               0.001374482               0.999999984              -0.000033300               0.001390004               0.999999984               0.000005870               0.001403407               0.999999984               0.000052128               0.001415040               0.999999984               0.000104814               0.001425747               0.999999984              -0.000219000               0.001328134               0.999999984              -0.000145682               0.001318534               0.999999984              -0.000113881               0.001309717               0.999999984              -0.000100661               0.001309132               0.999999984              -0.000095469               0.001316614               0.999999984              -0.000093125               0.001330543               0.999999984              -0.000091575               0.001349309               0.999999984              -0.000089558               0.001371587               0.999999984              -0.000086053               0.001396176               0.999999984              -0.000079855               0.001421905               0.999999984              -0.000070099               0.001447874               0.999999984              -0.000055903               0.001473360               0.999999984              -0.000036346               0.001497870               0.999999984              -0.000010533               0.001520802               0.999999984               0.000022475               0.001541859               0.999999984               0.000063617               0.001560914               0.999999984               0.000113790               0.001578476               0.999999984              -0.000147247               0.001364325               0.999999984              -0.000096267               0.001374398               0.999999984              -0.000072817               0.001376222               0.999999984              -0.000062323               0.001381514               0.999999984              -0.000057748               0.001392612               0.999999984              -0.000055522               0.001409128               0.999999984              -0.000053935               0.001430135               0.999999984              -0.000052193               0.001454760               0.999999984              -0.000049699               0.001482105               0.999999984              -0.000045634               0.001511258               0.999999984              -0.000039165               0.001541500               0.999999984              -0.000029604               0.001572204               0.999999984              -0.000016200               0.001602779               0.999999984               0.000002018               0.001632721               0.999999984               0.000026252               0.001661404               0.999999984               0.000058077               0.001688176               0.999999984               0.000099316               0.001712828               0.999999984              -0.000074003               0.001386335               0.999999984              -0.000047918               0.001409042               0.999999984              -0.000035448               0.001418386               0.999999984              -0.000029593               0.001428256               0.999999984              -0.000026930               0.001442317               0.999999984              -0.000025527               0.001461107               0.999999984              -0.000024532               0.001484045               0.999999984              -0.000023388               0.001510536               0.999999984              -0.000022071               0.001539963               0.999999984              -0.000020125               0.001571620               0.999999984              -0.000016939               0.001604932               0.999999984              -0.000012055               0.001639326               0.999999984              -0.000005216               0.001674342               0.999999984               0.000004285               0.001709480               0.999999984               0.000017328               0.001743932               0.999999984               0.000034881               0.001776887               0.999999984               0.000058506               0.001807375               0.999999984              -0.000000000               0.001393733               0.999999984               0.000000000               0.001420824               0.999999984              -0.000000000               0.001432902               0.999999984              -0.000000000               0.001444472               0.999999984               0.000000000               0.001459685               0.999999984               0.000000000               0.001479385               0.999999984              -0.000000000               0.001503170               0.999999984               0.000000000               0.001530399               0.999999984               0.000000000               0.001560465               0.999999984               0.000000000               0.001592929               0.999999984               0.000000000               0.001627340               0.999999984              -0.000000000               0.001663121               0.999999984               0.000000000               0.001699751               0.999999984               0.000000000               0.001736811               0.999999984              -0.000000000               0.001773386               0.999999984               0.000000000               0.001808524               0.999999984              -0.000000000               0.001841213               0.999999984              -0.000777445               0.000000000               0.999999984              -0.000829193              -0.000000000               0.999999984              -0.000851747              -0.000000000               0.999999984              -0.000864311              -0.000000000               0.999999984              -0.000874035               0.000000000               0.999999984              -0.000883555              -0.000000000               0.999999984              -0.000893904               0.000000000               0.999999984              -0.000905411              -0.000000000               0.999999984              -0.000918180               0.000000000               0.999999984              -0.000931940               0.000000000               0.999999984              -0.000946443              -0.000000000               0.999999984              -0.000961465              -0.000000000               0.999999984              -0.000976657               0.000000000               0.999999984              -0.000991616              -0.000000000               0.999999984              -0.001005626              -0.000000000               0.999999984              -0.001017900               0.000000000               0.999999984              -0.001027632              -0.000000000               0.999999984              -0.000773118              -0.000133884               0.999999984              -0.000820875              -0.000108327               0.999999984              -0.000840885              -0.000096937               0.999999984              -0.000851860              -0.000092338               0.999999984              -0.000860517              -0.000091402               0.999999984              -0.000869344              -0.000092248               0.999999984              -0.000879233              -0.000094274               0.999999984              -0.000890276              -0.000096674               0.999999984              -0.000902410              -0.000098979               0.999999984              -0.000915456              -0.000100894               0.999999984              -0.000929045              -0.000102081               0.999999984              -0.000942900              -0.000102233               0.999999984              -0.000956632              -0.000100853               0.999999984              -0.000969661              -0.000097168               0.999999984              -0.000981482              -0.000090522               0.999999984              -0.000991431              -0.000080279               0.999999984              -0.000998839              -0.000065598               0.999999984              -0.000760293              -0.000266464               0.999999984              -0.000796449              -0.000216118               0.999999984              -0.000809376              -0.000194516               0.999999984              -0.000816039              -0.000186442               0.999999984              -0.000821977              -0.000185356               0.999999984              -0.000828825              -0.000187804               0.999999984              -0.000837108              -0.000192127               0.999999984              -0.000846721              -0.000197131               0.999999984              -0.000857365              -0.000201833               0.999999984              -0.000868566              -0.000205527               0.999999984              -0.000879679              -0.000207565               0.999999984              -0.000890159              -0.000207339               0.999999984              -0.000899520              -0.000204062               0.999999984              -0.000907396              -0.000196587               0.999999984              -0.000913341              -0.000183959               0.999999984              -0.000917060              -0.000165307               0.999999984              -0.000918304              -0.000139296               0.999999984              -0.000739263              -0.000396431               0.999999984              -0.000757246              -0.000322915               0.999999984              -0.000760074              -0.000293215               0.999999984              -0.000760968              -0.000283435               0.999999984              -0.000763419              -0.000283462               0.999999984              -0.000767920              -0.000288201               0.999999984              -0.000774233              -0.000295339               0.999999984              -0.000781767              -0.000303132               0.999999984              -0.000789813              -0.000310151               0.999999984              -0.000797543              -0.000315315               0.999999984              -0.000804194              -0.000317550               0.999999984              -0.000809045              -0.000316257               0.999999984              -0.000811691              -0.000310646               0.999999984              -0.000811906              -0.000299703               0.999999984              -0.000809539              -0.000282612               0.999999984              -0.000804700              -0.000258604               0.999999984              -0.000797631              -0.000226785               0.999999984              -0.000710498              -0.000522543               0.999999984              -0.000705335              -0.000428470               0.999999984              -0.000696820              -0.000393443               0.999999984              -0.000692075              -0.000383807               0.999999984              -0.000691444              -0.000386015               0.999999984              -0.000693702              -0.000393661               0.999999984              -0.000697849              -0.000403902               0.999999984              -0.000702787              -0.000414385               0.999999984              -0.000707334              -0.000423262               0.999999984              -0.000710466              -0.000429133               0.999999984              -0.000711240              -0.000430935               0.999999984              -0.000709151              -0.000428007               0.999999984              -0.000703985              -0.000419895               0.999999984              -0.000695667              -0.000406029               0.999999984              -0.000684422              -0.000386122               0.999999984              -0.000670764              -0.000359950               0.999999984              -0.000655404              -0.000327999               0.999999984              -0.000674519              -0.000643657               0.999999984              -0.000643277              -0.000532796               0.999999984              -0.000624216              -0.000495225               0.999999984              -0.000615170              -0.000487199               0.999999984              -0.000612412              -0.000492195               0.999999984              -0.000613152              -0.000502916               0.999999984              -0.000615561              -0.000515957               0.999999984              -0.000617739              -0.000528515               0.999999984              -0.000618193              -0.000538355               0.999999984              -0.000615755              -0.000544263               0.999999984              -0.000609775              -0.000545153               0.999999984              -0.000600011              -0.000540602               0.999999984              -0.000586543              -0.000530378               0.999999984              -0.000569623              -0.000514544               0.999999984              -0.000549824              -0.000493460               0.999999984              -0.000527880              -0.000467690               0.999999984              -0.000504497              -0.000438411               0.999999984              -0.000632156              -0.000758569               0.999999984              -0.000574294              -0.000635713               0.999999984              -0.000547046              -0.000597903               0.999999984              -0.000535798              -0.000592301               0.999999984              -0.000532527              -0.000600093               0.999999984              -0.000532705              -0.000613441               0.999999984              -0.000533530              -0.000628750               0.999999984              -0.000532662              -0.000642502               0.999999984              -0.000528370              -0.000652656               0.999999984              -0.000519716              -0.000658014               0.999999984              -0.000506215              -0.000657857               0.999999984              -0.000488167              -0.000651996               0.999999984              -0.000465969              -0.000640416               0.999999984              -0.000440157              -0.000623786               0.999999984              -0.000411504              -0.000603077               0.999999984              -0.000380809              -0.000579188               0.999999984              -0.000348843              -0.000553325               0.999999984              -0.000584018              -0.000866246               0.999999984              -0.000501492              -0.000737035               0.999999984              -0.000469584              -0.000700434               0.999999984              -0.000458794              -0.000697189               0.999999984              -0.000456343              -0.000707356               0.999999984              -0.000456342              -0.000722929               0.999999984              -0.000455494              -0.000739871               0.999999984              -0.000451134              -0.000754184               0.999999984              -0.000441313              -0.000764062               0.999999984              -0.000425458              -0.000768713               0.999999984              -0.000403684              -0.000767457               0.999999984              -0.000376585              -0.000760523               0.999999984              -0.000344713              -0.000748465               0.999999984              -0.000309094              -0.000732176               0.999999984              -0.000270683              -0.000712968               0.999999984              -0.000230605              -0.000691858               0.999999984              -0.000189668              -0.000669687               0.999999984              -0.000531728              -0.000964688               0.999999984              -0.000427396              -0.000836668               0.999999984              -0.000395749              -0.000801509               0.999999984              -0.000387375              -0.000799902               0.999999984              -0.000386475              -0.000811882               0.999999984              -0.000386509              -0.000829313               0.999999984              -0.000383634              -0.000847235               0.999999984              -0.000374615              -0.000861864               0.999999984              -0.000358049              -0.000871338               0.999999984              -0.000333904              -0.000875038               0.999999984              -0.000302753              -0.000872805               0.999999984              -0.000265295              -0.000865247               0.999999984              -0.000222662              -0.000853398               0.999999984              -0.000176329              -0.000838477               0.999999984              -0.000127822              -0.000821788               0.999999984              -0.000078431              -0.000804280               0.999999984              -0.000028814              -0.000786411               0.999999984              -0.000477709              -0.001057501               0.999999984              -0.000365572              -0.000947545               0.999999984              -0.000330810              -0.000908157               0.999999984              -0.000321394              -0.000901154               0.999999984              -0.000320230              -0.000908706               0.999999984              -0.000320671              -0.000923367               0.999999984              -0.000319281              -0.000940674               0.999999984              -0.000313321              -0.000957247               0.999999984              -0.000300800              -0.000970764               0.999999984              -0.000281148              -0.000980103               0.999999984              -0.000254508              -0.000984998               0.999999984              -0.000221239              -0.000985425               0.999999984              -0.000182013              -0.000981948               0.999999984              -0.000137729              -0.000975550               0.999999984              -0.000089919              -0.000967067               0.999999984              -0.000040290              -0.000957492               0.999999984               0.000009953              -0.000947370               0.999999984              -0.000418463              -0.001141931               0.999999984              -0.000306538              -0.001054719               0.999999984              -0.000268921              -0.001017457               0.999999984              -0.000257806              -0.001007432               0.999999984              -0.000255754              -0.001012054               0.999999984              -0.000255933              -0.001024546               0.999999984              -0.000255186              -0.001041083               0.999999984              -0.000251276              -0.001058888               0.999999984              -0.000242262              -0.001075649               0.999999984              -0.000226776              -0.001089805               0.999999984              -0.000204661              -0.001100707               0.999999984              -0.000175864              -0.001108128               0.999999984              -0.000140797              -0.001112142               0.999999984              -0.000099714              -0.001113351               0.999999984              -0.000053543              -0.001112448               0.999999984              -0.000004088              -0.001110240               0.999999984               0.000047016              -0.001107369               0.999999984              -0.000355206              -0.001216000               0.999999984              -0.000250333              -0.001154904               0.999999984              -0.000211711              -0.001124467               0.999999984              -0.000198773              -0.001114913               0.999999984              -0.000195312              -0.001118493               0.999999984              -0.000194725              -0.001130052               0.999999984              -0.000193944              -0.001146377               0.999999984              -0.000191169              -0.001165136               0.999999984              -0.000184744              -0.001184462               0.999999984              -0.000173157              -0.001202763               0.999999984              -0.000155491              -0.001218978               0.999999984              -0.000131573              -0.001232671               0.999999984              -0.000101141              -0.001243711               0.999999984              -0.000064125              -0.001252123               0.999999984              -0.000020671              -0.001258380               0.999999984               0.000028016              -0.001263153               0.999999984               0.000080289              -0.001267177               0.999999984              -0.000288532              -0.001278420               0.999999984              -0.000196851              -0.001244159               0.999999984              -0.000159986              -0.001223838               0.999999984              -0.000146036              -0.001217875               0.999999984              -0.000141337              -0.001222516               0.999999984              -0.000139814              -0.001234509               0.999999984              -0.000138615              -0.001251574               0.999999984              -0.000136306              -0.001271807               0.999999984              -0.000131619              -0.001293679               0.999999984              -0.000123113              -0.001315739               0.999999984              -0.000109573              -0.001337004               0.999999984              -0.000090610              -0.001356728               0.999999984              -0.000065390              -0.001374482               0.999999984              -0.000033300              -0.001390004               0.999999984               0.000005870              -0.001403407               0.999999984               0.000052128              -0.001415040               0.999999984               0.000104814              -0.001425747               0.999999984              -0.000219000              -0.001328134               0.999999984              -0.000145682              -0.001318534               0.999999984              -0.000113881              -0.001309717               0.999999984              -0.000100661              -0.001309132               0.999999984              -0.000095469              -0.001316614               0.999999984              -0.000093125              -0.001330543               0.999999984              -0.000091575              -0.001349309               0.999999984              -0.000089558              -0.001371587               0.999999984              -0.000086053              -0.001396176               0.999999984              -0.000079855              -0.001421905               0.999999984              -0.000070099              -0.001447874               0.999999984              -0.000055903              -0.001473360               0.999999984              -0.000036346              -0.001497870               0.999999984              -0.000010533              -0.001520802               0.999999984               0.000022475              -0.001541859               0.999999984               0.000063617              -0.001560914               0.999999984               0.000113790              -0.001578476               0.999999984              -0.000147247              -0.001364325               0.999999984              -0.000096267              -0.001374398               0.999999984              -0.000072817              -0.001376222               0.999999984              -0.000062323              -0.001381514               0.999999984              -0.000057748              -0.001392612               0.999999984              -0.000055522              -0.001409128               0.999999984              -0.000053935              -0.001430135               0.999999984              -0.000052193              -0.001454760               0.999999984              -0.000049699              -0.001482105               0.999999984              -0.000045634              -0.001511258               0.999999984              -0.000039165              -0.001541500               0.999999984              -0.000029604              -0.001572204               0.999999984              -0.000016200              -0.001602779               0.999999984               0.000002018              -0.001632721               0.999999984               0.000026252              -0.001661404               0.999999984               0.000058077              -0.001688176               0.999999984               0.000099316              -0.001712828               0.999999984              -0.000074003              -0.001386335               0.999999984              -0.000047918              -0.001409042               0.999999984              -0.000035448              -0.001418386               0.999999984              -0.000029593              -0.001428256               0.999999984              -0.000026930              -0.001442317               0.999999984              -0.000025527              -0.001461107               0.999999984              -0.000024532              -0.001484045               0.999999984              -0.000023388              -0.001510536               0.999999984              -0.000022071              -0.001539963               0.999999984              -0.000020125              -0.001571620               0.999999984              -0.000016939              -0.001604932               0.999999984              -0.000012055              -0.001639326               0.999999984              -0.000005216              -0.001674342               0.999999984               0.000004285              -0.001709480               0.999999984               0.000017328              -0.001743932               0.999999984               0.000034881              -0.001776887               0.999999984               0.000058506              -0.001807375               0.999999984              -0.000000000              -0.001393733               0.999999984               0.000000000              -0.001420824               0.999999984               0.000000000              -0.001432902               0.999999984               0.000000000              -0.001444472               0.999999984              -0.000000000              -0.001459685               0.999999984              -0.000000000              -0.001479385               0.999999984              -0.000000000              -0.001503170               0.999999984              -0.000000000              -0.001530399               0.999999984              -0.000000000              -0.001560465               0.999999984               0.000000000              -0.001592929               0.999999984              -0.000000000              -0.001627340               0.999999984              -0.000000000              -0.001663121               0.999999984              -0.000000000              -0.001699751               0.999999984              -0.000000000              -0.001736811               0.999999984              -0.000000000              -0.001773386               0.999999984               0.000000000              -0.001808524               0.999999984              -0.000000000              -0.001841213               0.999999984               0.000777445              -0.000000000               0.999999984               0.000829193              -0.000000000               0.999999984               0.000851747               0.000000000               0.999999984               0.000864311              -0.000000000               0.999999984               0.000874035               0.000000000               0.999999984               0.000883555              -0.000000000               0.999999984               0.000893904               0.000000000               0.999999984               0.000905411              -0.000000000               0.999999984               0.000918180               0.000000000               0.999999984               0.000931940              -0.000000000               0.999999984               0.000946443               0.000000000               0.999999984               0.000961465               0.000000000               0.999999984               0.000976657              -0.000000000               0.999999984               0.000991616               0.000000000               0.999999984               0.001005626              -0.000000000               0.999999984               0.001017900               0.000000000               0.999999984               0.001027632              -0.000000000               0.999999984               0.000773118              -0.000133884               0.999999984               0.000820875              -0.000108327               0.999999984               0.000840885              -0.000096937               0.999999984               0.000851860              -0.000092338               0.999999984               0.000860517              -0.000091402               0.999999984               0.000869344              -0.000092248               0.999999984               0.000879233              -0.000094274               0.999999984               0.000890276              -0.000096674               0.999999984               0.000902410              -0.000098979               0.999999984               0.000915456              -0.000100894               0.999999984               0.000929045              -0.000102081               0.999999984               0.000942900              -0.000102233               0.999999984               0.000956632              -0.000100853               0.999999984               0.000969661              -0.000097168               0.999999984               0.000981482              -0.000090522               0.999999984               0.000991431              -0.000080279               0.999999984               0.000998839              -0.000065598               0.999999984               0.000760293              -0.000266464               0.999999984               0.000796449              -0.000216118               0.999999984               0.000809376              -0.000194516               0.999999984               0.000816039              -0.000186442               0.999999984               0.000821977              -0.000185356               0.999999984               0.000828825              -0.000187804               0.999999984               0.000837108              -0.000192127               0.999999984               0.000846721              -0.000197131               0.999999984               0.000857365              -0.000201833               0.999999984               0.000868566              -0.000205527               0.999999984               0.000879679              -0.000207565               0.999999984               0.000890159              -0.000207339               0.999999984               0.000899520              -0.000204062               0.999999984               0.000907396              -0.000196587               0.999999984               0.000913341              -0.000183959               0.999999984               0.000917060              -0.000165307               0.999999984               0.000918304              -0.000139296               0.999999984               0.000739263              -0.000396431               0.999999984               0.000757246              -0.000322915               0.999999984               0.000760074              -0.000293215               0.999999984               0.000760968              -0.000283435               0.999999984               0.000763419              -0.000283462               0.999999984               0.000767920              -0.000288201               0.999999984               0.000774233              -0.000295339               0.999999984               0.000781767              -0.000303132               0.999999984               0.000789813              -0.000310151               0.999999984               0.000797543              -0.000315315               0.999999984               0.000804194              -0.000317550               0.999999984               0.000809045              -0.000316257               0.999999984               0.000811691              -0.000310646               0.999999984               0.000811906              -0.000299703               0.999999984               0.000809539              -0.000282612               0.999999984               0.000804700              -0.000258604               0.999999984               0.000797631              -0.000226785               0.999999984               0.000710498              -0.000522543               0.999999984               0.000705335              -0.000428470               0.999999984               0.000696820              -0.000393443               0.999999984               0.000692075              -0.000383807               0.999999984               0.000691444              -0.000386015               0.999999984               0.000693702              -0.000393661               0.999999984               0.000697849              -0.000403902               0.999999984               0.000702787              -0.000414385               0.999999984               0.000707334              -0.000423262               0.999999984               0.000710466              -0.000429133               0.999999984               0.000711240              -0.000430935               0.999999984               0.000709151              -0.000428007               0.999999984               0.000703985              -0.000419895               0.999999984               0.000695667              -0.000406029               0.999999984               0.000684422              -0.000386122               0.999999984               0.000670764              -0.000359950               0.999999984               0.000655404              -0.000327999               0.999999984               0.000674519              -0.000643657               0.999999984               0.000643277              -0.000532796               0.999999984               0.000624216              -0.000495225               0.999999984               0.000615170              -0.000487199               0.999999984               0.000612412              -0.000492195               0.999999984               0.000613152              -0.000502916               0.999999984               0.000615561              -0.000515957               0.999999984               0.000617739              -0.000528515               0.999999984               0.000618193              -0.000538355               0.999999984               0.000615755              -0.000544263               0.999999984               0.000609775              -0.000545153               0.999999984               0.000600011              -0.000540602               0.999999984               0.000586543              -0.000530378               0.999999984               0.000569623              -0.000514544               0.999999984               0.000549824              -0.000493460               0.999999984               0.000527880              -0.000467690               0.999999984               0.000504497              -0.000438411               0.999999984               0.000632156              -0.000758569               0.999999984               0.000574294              -0.000635713               0.999999984               0.000547046              -0.000597903               0.999999984               0.000535798              -0.000592301               0.999999984               0.000532527              -0.000600093               0.999999984               0.000532705              -0.000613441               0.999999984               0.000533530              -0.000628750               0.999999984               0.000532662              -0.000642502               0.999999984               0.000528370              -0.000652656               0.999999984               0.000519716              -0.000658014               0.999999984               0.000506215              -0.000657857               0.999999984               0.000488167              -0.000651996               0.999999984               0.000465969              -0.000640416               0.999999984               0.000440157              -0.000623786               0.999999984               0.000411504              -0.000603077               0.999999984               0.000380809              -0.000579188               0.999999984               0.000348843              -0.000553325               0.999999984               0.000584018              -0.000866246               0.999999984               0.000501492              -0.000737035               0.999999984               0.000469584              -0.000700434               0.999999984               0.000458794              -0.000697189               0.999999984               0.000456343              -0.000707356               0.999999984               0.000456342              -0.000722929               0.999999984               0.000455494              -0.000739871               0.999999984               0.000451134              -0.000754184               0.999999984               0.000441313              -0.000764062               0.999999984               0.000425458              -0.000768713               0.999999984               0.000403684              -0.000767457               0.999999984               0.000376585              -0.000760523               0.999999984               0.000344713              -0.000748465               0.999999984               0.000309094              -0.000732176               0.999999984               0.000270683              -0.000712968               0.999999984               0.000230605              -0.000691858               0.999999984               0.000189668              -0.000669687               0.999999984               0.000531728              -0.000964688               0.999999984               0.000427396              -0.000836668               0.999999984               0.000395749              -0.000801509               0.999999984               0.000387375              -0.000799902               0.999999984               0.000386475              -0.000811882               0.999999984               0.000386509              -0.000829313               0.999999984               0.000383634              -0.000847235               0.999999984               0.000374615              -0.000861864               0.999999984               0.000358049              -0.000871338               0.999999984               0.000333904              -0.000875038               0.999999984               0.000302753              -0.000872805               0.999999984               0.000265295              -0.000865247               0.999999984               0.000222662              -0.000853398               0.999999984               0.000176329              -0.000838477               0.999999984               0.000127822              -0.000821788               0.999999984               0.000078431              -0.000804280               0.999999984               0.000028814              -0.000786411               0.999999984               0.000477709              -0.001057501               0.999999984               0.000365572              -0.000947545               0.999999984               0.000330810              -0.000908157               0.999999984               0.000321394              -0.000901154               0.999999984               0.000320230              -0.000908706               0.999999984               0.000320671              -0.000923367               0.999999984               0.000319281              -0.000940674               0.999999984               0.000313321              -0.000957247               0.999999984               0.000300800              -0.000970764               0.999999984               0.000281148              -0.000980103               0.999999984               0.000254508              -0.000984998               0.999999984               0.000221239              -0.000985425               0.999999984               0.000182013              -0.000981948               0.999999984               0.000137729              -0.000975550               0.999999984               0.000089919              -0.000967067               0.999999984               0.000040290              -0.000957492               0.999999984              -0.000009953              -0.000947370               0.999999984               0.000418463              -0.001141931               0.999999984               0.000306538              -0.001054719               0.999999984               0.000268921              -0.001017457               0.999999984               0.000257806              -0.001007432               0.999999984               0.000255754              -0.001012054               0.999999984               0.000255933              -0.001024546               0.999999984               0.000255186              -0.001041083               0.999999984               0.000251276              -0.001058888               0.999999984               0.000242262              -0.001075649               0.999999984               0.000226776              -0.001089805               0.999999984               0.000204661              -0.001100707               0.999999984               0.000175864              -0.001108128               0.999999984               0.000140797              -0.001112142               0.999999984               0.000099714              -0.001113351               0.999999984               0.000053543              -0.001112448               0.999999984               0.000004088              -0.001110240               0.999999984              -0.000047016              -0.001107369               0.999999984               0.000355206              -0.001216000               0.999999984               0.000250333              -0.001154904               0.999999984               0.000211711              -0.001124467               0.999999984               0.000198773              -0.001114913               0.999999984               0.000195312              -0.001118493               0.999999984               0.000194725              -0.001130052               0.999999984               0.000193944              -0.001146377               0.999999984               0.000191169              -0.001165136               0.999999984               0.000184744              -0.001184462               0.999999984               0.000173157              -0.001202763               0.999999984               0.000155491              -0.001218978               0.999999984               0.000131573              -0.001232671               0.999999984               0.000101141              -0.001243711               0.999999984               0.000064125              -0.001252123               0.999999984               0.000020671              -0.001258380               0.999999984              -0.000028016              -0.001263153               0.999999984              -0.000080289              -0.001267177               0.999999984               0.000288532              -0.001278420               0.999999984               0.000196851              -0.001244159               0.999999984               0.000159986              -0.001223838               0.999999984               0.000146036              -0.001217875               0.999999984               0.000141337              -0.001222516               0.999999984               0.000139814              -0.001234509               0.999999984               0.000138615              -0.001251574               0.999999984               0.000136306              -0.001271807               0.999999984               0.000131619              -0.001293679               0.999999984               0.000123113              -0.001315739               0.999999984               0.000109573              -0.001337004               0.999999984               0.000090610              -0.001356728               0.999999984               0.000065390              -0.001374482               0.999999984               0.000033300              -0.001390004               0.999999984              -0.000005870              -0.001403407               0.999999984              -0.000052128              -0.001415040               0.999999984              -0.000104814              -0.001425747               0.999999984               0.000219000              -0.001328134               0.999999984               0.000145682              -0.001318534               0.999999984               0.000113881              -0.001309717               0.999999984               0.000100661              -0.001309132               0.999999984               0.000095469              -0.001316614               0.999999984               0.000093125              -0.001330543               0.999999984               0.000091575              -0.001349309               0.999999984               0.000089558              -0.001371587               0.999999984               0.000086053              -0.001396176               0.999999984               0.000079855              -0.001421905               0.999999984               0.000070099              -0.001447874               0.999999984               0.000055903              -0.001473360               0.999999984               0.000036346              -0.001497870               0.999999984               0.000010533              -0.001520802               0.999999984              -0.000022475              -0.001541859               0.999999984              -0.000063617              -0.001560914               0.999999984              -0.000113790              -0.001578476               0.999999984               0.000147247              -0.001364325               0.999999984               0.000096267              -0.001374398               0.999999984               0.000072817              -0.001376222               0.999999984               0.000062323              -0.001381514               0.999999984               0.000057748              -0.001392612               0.999999984               0.000055522              -0.001409128               0.999999984               0.000053935              -0.001430135               0.999999984               0.000052193              -0.001454760               0.999999984               0.000049699              -0.001482105               0.999999984               0.000045634              -0.001511258               0.999999984               0.000039165              -0.001541500               0.999999984               0.000029604              -0.001572204               0.999999984               0.000016200              -0.001602779               0.999999984              -0.000002018              -0.001632721               0.999999984              -0.000026252              -0.001661404               0.999999984              -0.000058077              -0.001688176               0.999999984              -0.000099316              -0.001712828               0.999999984               0.000074003              -0.001386335               0.999999984               0.000047918              -0.001409042               0.999999984               0.000035448              -0.001418386               0.999999984               0.000029593              -0.001428256               0.999999984               0.000026930              -0.001442317               0.999999984               0.000025527              -0.001461107               0.999999984               0.000024532              -0.001484045               0.999999984               0.000023388              -0.001510536               0.999999984               0.000022071              -0.001539963               0.999999984               0.000020125              -0.001571620               0.999999984               0.000016939              -0.001604932               0.999999984               0.000012055              -0.001639326               0.999999984               0.000005216              -0.001674342               0.999999984              -0.000004285              -0.001709480               0.999999984              -0.000017328              -0.001743932               0.999999984              -0.000034881              -0.001776887               0.999999984              -0.000058506              -0.001807375               0.999999984              -0.000000000              -0.001393733               0.999999984               0.000000000              -0.001420824               0.999999984               0.000000000              -0.001432902               0.999999984               0.000000000              -0.001444472               0.999999984              -0.000000000              -0.001459685               0.999999984              -0.000000000              -0.001479385               0.999999984              -0.000000000              -0.001503170               0.999999984              -0.000000000              -0.001530399               0.999999984              -0.000000000              -0.001560465               0.999999984               0.000000000              -0.001592929               0.999999984              -0.000000000              -0.001627340               0.999999984              -0.000000000              -0.001663121               0.999999984              -0.000000000              -0.001699751               0.999999984              -0.000000000              -0.001736811               0.999999984              -0.000000000              -0.001773386               0.999999984               0.000000000              -0.001808524               0.999999984              -0.000000000              -0.001841213               0.999999984               0.000777445              -0.000000000               0.999999984               0.000829193              -0.000000000               0.999999984               0.000851747               0.000000000               0.999999984               0.000864311              -0.000000000               0.999999984               0.000874035               0.000000000               0.999999984               0.000883555              -0.000000000               0.999999984               0.000893904               0.000000000               0.999999984               0.000905411              -0.000000000               0.999999984               0.000918180               0.000000000               0.999999984               0.000931940              -0.000000000               0.999999984               0.000946443               0.000000000               0.999999984               0.000961465               0.000000000               0.999999984               0.000976657              -0.000000000               0.999999984               0.000991616               0.000000000               0.999999984               0.001005626              -0.000000000               0.999999984               0.001017900               0.000000000               0.999999984               0.001027632              -0.000000000               0.999999984               0.000773118               0.000133884               0.999999984               0.000820875               0.000108327               0.999999984               0.000840885               0.000096937               0.999999984               0.000851860               0.000092338               0.999999984               0.000860517               0.000091402               0.999999984               0.000869344               0.000092248               0.999999984               0.000879233               0.000094274               0.999999984               0.000890276               0.000096674               0.999999984               0.000902410               0.000098979               0.999999984               0.000915456               0.000100894               0.999999984               0.000929045               0.000102081               0.999999984               0.000942900               0.000102233               0.999999984               0.000956632               0.000100853               0.999999984               0.000969661               0.000097168               0.999999984               0.000981482               0.000090522               0.999999984               0.000991431               0.000080279               0.999999984               0.000998839               0.000065598               0.999999984               0.000760293               0.000266464               0.999999984               0.000796449               0.000216118               0.999999984               0.000809376               0.000194516               0.999999984               0.000816039               0.000186442               0.999999984               0.000821977               0.000185356               0.999999984               0.000828825               0.000187804               0.999999984               0.000837108               0.000192127               0.999999984               0.000846721               0.000197131               0.999999984               0.000857365               0.000201833               0.999999984               0.000868566               0.000205527               0.999999984               0.000879679               0.000207565               0.999999984               0.000890159               0.000207339               0.999999984               0.000899520               0.000204062               0.999999984               0.000907396               0.000196587               0.999999984               0.000913341               0.000183959               0.999999984               0.000917060               0.000165307               0.999999984               0.000918304               0.000139296               0.999999984               0.000739263               0.000396431               0.999999984               0.000757246               0.000322915               0.999999984               0.000760074               0.000293215               0.999999984               0.000760968               0.000283435               0.999999984               0.000763419               0.000283462               0.999999984               0.000767920               0.000288201               0.999999984               0.000774233               0.000295339               0.999999984               0.000781767               0.000303132               0.999999984               0.000789813               0.000310151               0.999999984               0.000797543               0.000315315               0.999999984               0.000804194               0.000317550               0.999999984               0.000809045               0.000316257               0.999999984               0.000811691               0.000310646               0.999999984               0.000811906               0.000299703               0.999999984               0.000809539               0.000282612               0.999999984               0.000804700               0.000258604               0.999999984               0.000797631               0.000226785               0.999999984               0.000710498               0.000522543               0.999999984               0.000705335               0.000428470               0.999999984               0.000696820               0.000393443               0.999999984               0.000692075               0.000383807               0.999999984               0.000691444               0.000386015               0.999999984               0.000693702               0.000393661               0.999999984               0.000697849               0.000403902               0.999999984               0.000702787               0.000414385               0.999999984               0.000707334               0.000423262               0.999999984               0.000710466               0.000429133               0.999999984               0.000711240               0.000430935               0.999999984               0.000709151               0.000428007               0.999999984               0.000703985               0.000419895               0.999999984               0.000695667               0.000406029               0.999999984               0.000684422               0.000386122               0.999999984               0.000670764               0.000359950               0.999999984               0.000655404               0.000327999               0.999999984               0.000674519               0.000643657               0.999999984               0.000643277               0.000532796               0.999999984               0.000624216               0.000495225               0.999999984               0.000615170               0.000487199               0.999999984               0.000612412               0.000492195               0.999999984               0.000613152               0.000502916               0.999999984               0.000615561               0.000515957               0.999999984               0.000617739               0.000528515               0.999999984               0.000618193               0.000538355               0.999999984               0.000615755               0.000544263               0.999999984               0.000609775               0.000545153               0.999999984               0.000600011               0.000540602               0.999999984               0.000586543               0.000530378               0.999999984               0.000569623               0.000514544               0.999999984               0.000549824               0.000493460               0.999999984               0.000527880               0.000467690               0.999999984               0.000504497               0.000438411               0.999999984               0.000632156               0.000758569               0.999999984               0.000574294               0.000635713               0.999999984               0.000547046               0.000597903               0.999999984               0.000535798               0.000592301               0.999999984               0.000532527               0.000600093               0.999999984               0.000532705               0.000613441               0.999999984               0.000533530               0.000628750               0.999999984               0.000532662               0.000642502               0.999999984               0.000528370               0.000652656               0.999999984               0.000519716               0.000658014               0.999999984               0.000506215               0.000657857               0.999999984               0.000488167               0.000651996               0.999999984               0.000465969               0.000640416               0.999999984               0.000440157               0.000623786               0.999999984               0.000411504               0.000603077               0.999999984               0.000380809               0.000579188               0.999999984               0.000348843               0.000553325               0.999999984               0.000584018               0.000866246               0.999999984               0.000501492               0.000737035               0.999999984               0.000469584               0.000700434               0.999999984               0.000458794               0.000697189               0.999999984               0.000456343               0.000707356               0.999999984               0.000456342               0.000722929               0.999999984               0.000455494               0.000739871               0.999999984               0.000451134               0.000754184               0.999999984               0.000441313               0.000764062               0.999999984               0.000425458               0.000768713               0.999999984               0.000403684               0.000767457               0.999999984               0.000376585               0.000760523               0.999999984               0.000344713               0.000748465               0.999999984               0.000309094               0.000732176               0.999999984               0.000270683               0.000712968               0.999999984               0.000230605               0.000691858               0.999999984               0.000189668               0.000669687               0.999999984               0.000531728               0.000964688               0.999999984               0.000427396               0.000836668               0.999999984               0.000395749               0.000801509               0.999999984               0.000387375               0.000799902               0.999999984               0.000386475               0.000811882               0.999999984               0.000386509               0.000829313               0.999999984               0.000383634               0.000847235               0.999999984               0.000374615               0.000861864               0.999999984               0.000358049               0.000871338               0.999999984               0.000333904               0.000875038               0.999999984               0.000302753               0.000872805               0.999999984               0.000265295               0.000865247               0.999999984               0.000222662               0.000853398               0.999999984               0.000176329               0.000838477               0.999999984               0.000127822               0.000821788               0.999999984               0.000078431               0.000804280               0.999999984               0.000028814               0.000786411               0.999999984               0.000477709               0.001057501               0.999999984               0.000365572               0.000947545               0.999999984               0.000330810               0.000908157               0.999999984               0.000321394               0.000901154               0.999999984               0.000320230               0.000908706               0.999999984               0.000320671               0.000923367               0.999999984               0.000319281               0.000940674               0.999999984               0.000313321               0.000957247               0.999999984               0.000300800               0.000970764               0.999999984               0.000281148               0.000980103               0.999999984               0.000254508               0.000984998               0.999999984               0.000221239               0.000985425               0.999999984               0.000182013               0.000981948               0.999999984               0.000137729               0.000975550               0.999999984               0.000089919               0.000967067               0.999999984               0.000040290               0.000957492               0.999999984              -0.000009953               0.000947370               0.999999984               0.000418463               0.001141931               0.999999984               0.000306538               0.001054719               0.999999984               0.000268921               0.001017457               0.999999984               0.000257806               0.001007432               0.999999984               0.000255754               0.001012054               0.999999984               0.000255933               0.001024546               0.999999984               0.000255186               0.001041083               0.999999984               0.000251276               0.001058888               0.999999984               0.000242262               0.001075649               0.999999984               0.000226776               0.001089805               0.999999984               0.000204661               0.001100707               0.999999984               0.000175864               0.001108128               0.999999984               0.000140797               0.001112142               0.999999984               0.000099714               0.001113351               0.999999984               0.000053543               0.001112448               0.999999984               0.000004088               0.001110240               0.999999984              -0.000047016               0.001107369               0.999999984               0.000355206               0.001216000               0.999999984               0.000250333               0.001154904               0.999999984               0.000211711               0.001124467               0.999999984               0.000198773               0.001114913               0.999999984               0.000195312               0.001118493               0.999999984               0.000194725               0.001130052               0.999999984               0.000193944               0.001146377               0.999999984               0.000191169               0.001165136               0.999999984               0.000184744               0.001184462               0.999999984               0.000173157               0.001202763               0.999999984               0.000155491               0.001218978               0.999999984               0.000131573               0.001232671               0.999999984               0.000101141               0.001243711               0.999999984               0.000064125               0.001252123               0.999999984               0.000020671               0.001258380               0.999999984              -0.000028016               0.001263153               0.999999984              -0.000080289               0.001267177               0.999999984               0.000288532               0.001278420               0.999999984               0.000196851               0.001244159               0.999999984               0.000159986               0.001223838               0.999999984               0.000146036               0.001217875               0.999999984               0.000141337               0.001222516               0.999999984               0.000139814               0.001234509               0.999999984               0.000138615               0.001251574               0.999999984               0.000136306               0.001271807               0.999999984               0.000131619               0.001293679               0.999999984               0.000123113               0.001315739               0.999999984               0.000109573               0.001337004               0.999999984               0.000090610               0.001356728               0.999999984               0.000065390               0.001374482               0.999999984               0.000033300               0.001390004               0.999999984              -0.000005870               0.001403407               0.999999984              -0.000052128               0.001415040               0.999999984              -0.000104814               0.001425747               0.999999984               0.000219000               0.001328134               0.999999984               0.000145682               0.001318534               0.999999984               0.000113881               0.001309717               0.999999984               0.000100661               0.001309132               0.999999984               0.000095469               0.001316614               0.999999984               0.000093125               0.001330543               0.999999984               0.000091575               0.001349309               0.999999984               0.000089558               0.001371587               0.999999984               0.000086053               0.001396176               0.999999984               0.000079855               0.001421905               0.999999984               0.000070099               0.001447874               0.999999984               0.000055903               0.001473360               0.999999984               0.000036346               0.001497870               0.999999984               0.000010533               0.001520802               0.999999984              -0.000022475               0.001541859               0.999999984              -0.000063617               0.001560914               0.999999984              -0.000113790               0.001578476               0.999999984               0.000147247               0.001364325               0.999999984               0.000096267               0.001374398               0.999999984               0.000072817               0.001376222               0.999999984               0.000062323               0.001381514               0.999999984               0.000057748               0.001392612               0.999999984               0.000055522               0.001409128               0.999999984               0.000053935               0.001430135               0.999999984               0.000052193               0.001454760               0.999999984               0.000049699               0.001482105               0.999999984               0.000045634               0.001511258               0.999999984               0.000039165               0.001541500               0.999999984               0.000029604               0.001572204               0.999999984               0.000016200               0.001602779               0.999999984              -0.000002018               0.001632721               0.999999984              -0.000026252               0.001661404               0.999999984              -0.000058077               0.001688176               0.999999984              -0.000099316               0.001712828               0.999999984               0.000074003               0.001386335               0.999999984               0.000047918               0.001409042               0.999999984               0.000035448               0.001418386               0.999999984               0.000029593               0.001428256               0.999999984               0.000026930               0.001442317               0.999999984               0.000025527               0.001461107               0.999999984               0.000024532               0.001484045               0.999999984               0.000023388               0.001510536               0.999999984               0.000022071               0.001539963               0.999999984               0.000020125               0.001571620               0.999999984               0.000016939               0.001604932               0.999999984               0.000012055               0.001639326               0.999999984               0.000005216               0.001674342               0.999999984              -0.000004285               0.001709480               0.999999984              -0.000017328               0.001743932               0.999999984              -0.000034881               0.001776887               0.999999984              -0.000058506               0.001807375               0.999999984              -0.000000000               0.001393733               0.999999984               0.000000000               0.001420824               0.999999984              -0.000000000               0.001432902               0.999999984              -0.000000000               0.001444472               0.999999984               0.000000000               0.001459685               0.999999984               0.000000000               0.001479385               0.999999984              -0.000000000               0.001503170               0.999999984               0.000000000               0.001530399               0.999999984               0.000000000               0.001560465               0.999999984               0.000000000               0.001592929               0.999999984               0.000000000               0.001627340               0.999999984              -0.000000000               0.001663121               0.999999984               0.000000000               0.001699751               0.999999984               0.000000000               0.001736811               0.999999984              -0.000000000               0.001773386               0.999999984               0.000000000               0.001808524               0.999999984              -0.000000000               0.001841213               0.999999984 </DataArray>
<DataArray type="Float64"                                    Name="stress"                                                      NumberOfComponents="10" format="ascii">
              0.002246677               0.024423344              -0.000000000              -0.002210409               0.008877836               0.006667428               0.000000000               0.000000000               0.000000000               0.000000000               0.002188172               0.018974119              -0.000000000              -0.001551196               0.006841708               0.005290512               0.000000000               0.000000000               0.000000000               0.000000000               0.002849232               0.014529993               0.000000000              -0.000747785               0.005092544               0.004344759               0.000000000               0.000000000               0.000000000               0.000000000               0.002696965               0.011994530               0.000000000              -0.000487953               0.004160788               0.003672835               0.000000000               0.000000000               0.000000000               0.000000000               0.002317403               0.010390704              -0.000000000              -0.000429811               0.003606804               0.003176993               0.000000000               0.000000000               0.000000000               0.000000000               0.001900830               0.009280249              -0.000000000              -0.000447219               0.003242458               0.002795239               0.000000000               0.000000000               0.000000000               0.000000000               0.001512944               0.008465574               0.000000000              -0.000490842               0.002985444               0.002494602               0.000000000               0.000000000               0.000000000               0.000000000               0.001163312               0.007818426              -0.000000000              -0.000541060               0.002786469               0.002245409               0.000000000               0.000000000               0.000000000               0.000000000               0.000856484               0.007267525               0.000000000              -0.000587258               0.002618237               0.002030979               0.000000000               0.000000000               0.000000000               0.000000000               0.000598994               0.006774951              -0.000000000              -0.000622245               0.002465709               0.001843465               0.000000000               0.000000000               0.000000000               0.000000000               0.000380176               0.006308554              -0.000000000              -0.000646002               0.002318164               0.001672163               0.000000000               0.000000000               0.000000000               0.000000000               0.000196895               0.005845234               0.000000000              -0.000656817               0.002167331               0.001510514               0.000000000               0.000000000               0.000000000               0.000000000               0.000053685               0.005360894              -0.000000000              -0.000649978               0.002003606               0.001353628               0.000000000               0.000000000               0.000000000               0.000000000              -0.000041826               0.004828683              -0.000000000              -0.000619269               0.001815968               0.001196699               0.000000000               0.000000000               0.000000000               0.000000000              -0.000078577               0.004231035               0.000000000              -0.000558344               0.001596446               0.001038101               0.000000000               0.000000000               0.000000000               0.000000000              -0.000055347               0.003551450               0.000000000              -0.000464685               0.001338700               0.000874015               0.000000000               0.000000000               0.000000000               0.000000000              -0.000085605               0.003029404              -0.000000000              -0.000410776               0.001146717               0.000735940               0.000000000               0.000000000               0.000000000               0.000000000               0.002323567               0.023913794              -0.001655956              -0.002117882               0.008677145               0.006559264               0.000000000               0.000000000               0.000000000               0.000000000               0.002138943               0.018647725              -0.000805911              -0.001528858               0.006725466               0.005196607               0.000000000               0.000000000               0.000000000               0.000000000               0.002662831               0.014392487               0.000030723              -0.000800497               0.005064280               0.004263783               0.000000000               0.000000000               0.000000000               0.000000000               0.002458397               0.011959188               0.000377477              -0.000572998               0.004177356               0.003604357               0.000000000               0.000000000               0.000000000               0.000000000               0.002066213               0.010410007               0.000516568              -0.000526420               0.003645441               0.003119021               0.000000000               0.000000000               0.000000000               0.000000000               0.001653564               0.009331368               0.000565593              -0.000546333               0.003292536               0.002746203               0.000000000               0.000000000               0.000000000               0.000000000               0.001277978               0.008527104               0.000572626              -0.000586645               0.003037888               0.002451243               0.000000000               0.000000000               0.000000000               0.000000000               0.000952262               0.007885279               0.000554371              -0.000628560               0.002837920               0.002209360               0.000000000               0.000000000               0.000000000               0.000000000               0.000671422               0.007335304               0.000526422              -0.000665128               0.002666786               0.002001658               0.000000000               0.000000000               0.000000000               0.000000000               0.000440067               0.006837596               0.000494638              -0.000689673               0.002509067               0.001819394               0.000000000               0.000000000               0.000000000               0.000000000               0.000251679               0.006362977               0.000462023              -0.000700991               0.002354635               0.001653644               0.000000000               0.000000000               0.000000000               0.000000000               0.000098998               0.005889227               0.000427125              -0.000699028               0.002196065               0.001497038               0.000000000               0.000000000               0.000000000               0.000000000              -0.000011519               0.005398905               0.000380843              -0.000679181               0.002026011               0.001346830               0.000000000               0.000000000               0.000000000               0.000000000              -0.000077635               0.004871968               0.000318647              -0.000638108               0.001836676               0.001198568               0.000000000               0.000000000               0.000000000               0.000000000              -0.000095660               0.004295445               0.000239963              -0.000572802               0.001622735               0.001049933               0.000000000               0.000000000               0.000000000               0.000000000              -0.000061764               0.003659546               0.000136157              -0.000480603               0.001380038               0.000899434               0.000000000               0.000000000               0.000000000               0.000000000              -0.000084706               0.003180541               0.000087911              -0.000429331               0.001203280               0.000773949               0.000000000               0.000000000               0.000000000               0.000000000               0.002506668               0.022451981              -0.003075393              -0.001866494               0.008106083               0.006239589               0.000000000               0.000000000               0.000000000               0.000000000               0.001974896               0.017715116              -0.001500247              -0.001473800               0.006396246               0.004922446               0.000000000               0.000000000               0.000000000               0.000000000               0.002126261               0.013997375               0.000037450              -0.000952321               0.004983185               0.004030864               0.000000000               0.000000000               0.000000000               0.000000000               0.001788579               0.011842076               0.000654149              -0.000809540               0.004217166               0.003407626               0.000000000               0.000000000               0.000000000               0.000000000               0.001375456               0.010438223               0.000894051              -0.000788980               0.003742366               0.002953386               0.000000000               0.000000000               0.000000000               0.000000000               0.000991830               0.009435127               0.000973219              -0.000807453               0.003414162               0.002606709               0.000000000               0.000000000               0.000000000               0.000000000               0.000660333               0.008662356               0.000981610              -0.000835168               0.003165812               0.002330644               0.000000000               0.000000000               0.000000000               0.000000000               0.000388487               0.008029456               0.000950416              -0.000857998               0.002962458               0.002104460               0.000000000               0.000000000               0.000000000               0.000000000               0.000172358               0.007476219               0.000900691              -0.000869891               0.002782012               0.001912120               0.000000000               0.000000000               0.000000000               0.000000000               0.000014956               0.006965434               0.000844724              -0.000865069               0.002610144               0.001745075               0.000000000               0.000000000               0.000000000               0.000000000              -0.000089201               0.006471350               0.000787536              -0.000842367               0.002437884               0.001595517               0.000000000               0.000000000               0.000000000               0.000000000              -0.000152830               0.005980297               0.000726900              -0.000804847               0.002261695               0.001456848               0.000000000               0.000000000               0.000000000               0.000000000              -0.000183993               0.005484366               0.000647877              -0.000754542               0.002079618               0.001325076               0.000000000               0.000000000               0.000000000               0.000000000              -0.000181553               0.004981608               0.000541433              -0.000690782               0.001890780               0.001199998               0.000000000               0.000000000               0.000000000               0.000000000              -0.000146372               0.004471734               0.000406699              -0.000613855               0.001695181               0.001081327               0.000000000               0.000000000               0.000000000               0.000000000              -0.000083122               0.003953959               0.000229583              -0.000525414               0.001493111               0.000967697               0.000000000               0.000000000               0.000000000               0.000000000              -0.000085537               0.003589200               0.000144320              -0.000480725               0.001356630               0.000875905               0.000000000               0.000000000               0.000000000               0.000000000               0.002677228               0.020229790              -0.004076192              -0.001524762               0.007251449               0.005726687               0.000000000               0.000000000               0.000000000               0.000000000               0.001660894               0.016312448              -0.002000512              -0.001416218               0.005909501               0.004493282               0.000000000               0.000000000               0.000000000               0.000000000               0.001299397               0.013404201               0.000001037              -0.001188248               0.004864105               0.003675857               0.000000000               0.000000000               0.000000000               0.000000000               0.000813333               0.011636176               0.000763150              -0.001149520               0.004261860               0.003112340               0.000000000               0.000000000               0.000000000               0.000000000               0.000399252               0.010419192               0.001044116              -0.001152677               0.003857255               0.002704578               0.000000000               0.000000000               0.000000000               0.000000000               0.000075822               0.009505229               0.001131912              -0.001159718               0.003554950               0.002395233               0.000000000               0.000000000               0.000000000               0.000000000              -0.000169153               0.008775822               0.001138416              -0.001160407               0.003312047               0.002151640               0.000000000               0.000000000               0.000000000               0.000000000              -0.000342893               0.008153329               0.001101166              -0.001147748               0.003100332               0.001952584               0.000000000               0.000000000               0.000000000               0.000000000              -0.000451375               0.007590519               0.001043529              -0.001118078               0.002902840               0.001784762               0.000000000               0.000000000               0.000000000               0.000000000              -0.000498373               0.007059485               0.000976073              -0.001069323               0.002709579               0.001640256               0.000000000               0.000000000               0.000000000               0.000000000              -0.000491704               0.006546045               0.000905518              -0.001002643               0.002516207               0.001513565               0.000000000               0.000000000               0.000000000               0.000000000              -0.000447470               0.006045353               0.000830296              -0.000923468               0.002322920               0.001399452               0.000000000               0.000000000               0.000000000               0.000000000              -0.000380935               0.005561214               0.000734184              -0.000838000               0.002133053               0.001295052               0.000000000               0.000000000               0.000000000               0.000000000              -0.000295245               0.005106073               0.000608418              -0.000748974               0.001951665               0.001202691               0.000000000               0.000000000               0.000000000               0.000000000              -0.000198267               0.004690373               0.000449107              -0.000660645               0.001783657               0.001123012               0.000000000               0.000000000               0.000000000               0.000000000              -0.000099707               0.004325423               0.000246868              -0.000578067               0.001634482               0.001056415               0.000000000               0.000000000               0.000000000               0.000000000              -0.000073074               0.004106713               0.000146291              -0.000540740               0.001549137               0.001008397               0.000000000               0.000000000               0.000000000               0.000000000               0.002690067               0.017522036              -0.004570129              -0.001181480               0.006234446               0.005052966               0.000000000               0.000000000               0.000000000               0.000000000               0.001174736               0.014634003              -0.002278467              -0.001388722               0.005340859               0.003952137               0.000000000               0.000000000               0.000000000               0.000000000               0.000279878               0.012690041              -0.000101256              -0.001481297               0.004723737               0.003242440               0.000000000               0.000000000               0.000000000               0.000000000              -0.000308585               0.011338527               0.000677177              -0.001533032               0.004290482               0.002757450               0.000000000               0.000000000               0.000000000               0.000000000              -0.000667822               0.010308843               0.000952325              -0.001539035               0.003949258               0.002410223               0.000000000               0.000000000               0.000000000               0.000000000              -0.000881715               0.009483214               0.001038356              -0.001516041               0.003666387               0.002150345               0.000000000               0.000000000               0.000000000               0.000000000              -0.001001694               0.008787148               0.001045965              -0.001474025               0.003420362               0.001946336               0.000000000               0.000000000               0.000000000               0.000000000              -0.001044574               0.008164275               0.001010474              -0.001412246               0.003192146               0.001779900               0.000000000               0.000000000               0.000000000               0.000000000              -0.001022864               0.007583516               0.000954802              -0.001331510               0.002971650               0.001640140               0.000000000               0.000000000               0.000000000               0.000000000              -0.000943586               0.007037370               0.000887751              -0.001233513               0.002756938               0.001523424               0.000000000               0.000000000               0.000000000               0.000000000              -0.000821536               0.006522267               0.000813128              -0.001123357               0.002548519               0.001425163               0.000000000               0.000000000               0.000000000               0.000000000              -0.000678656               0.006036628               0.000730848              -0.001009072               0.002348547               0.001339474               0.000000000               0.000000000               0.000000000               0.000000000              -0.000524606               0.005589848               0.000631102              -0.000895456               0.002161749               0.001266293               0.000000000               0.000000000               0.000000000               0.000000000              -0.000367207               0.005199655               0.000507335              -0.000787658               0.001995753               0.001208096               0.000000000               0.000000000               0.000000000               0.000000000              -0.000222238               0.004880937               0.000356354              -0.000693455               0.001858114               0.001164660               0.000000000               0.000000000               0.000000000               0.000000000              -0.000100788               0.004651158               0.000183140              -0.000619189               0.001756767               0.001137578               0.000000000               0.000000000               0.000000000               0.000000000              -0.000055370               0.004545796               0.000098879              -0.000588987               0.001711579               0.001122592               0.000000000               0.000000000               0.000000000               0.000000000               0.002428414               0.014606399              -0.004569611              -0.000915146               0.005173799               0.004258652               0.000000000               0.000000000               0.000000000               0.000000000               0.000519472               0.012852488              -0.002363227              -0.001411757               0.004754705               0.003342948               0.000000000               0.000000000               0.000000000               0.000000000              -0.000811221               0.011897670              -0.000292794              -0.001791412               0.004562988               0.002771576               0.000000000               0.000000000               0.000000000               0.000000000              -0.001403104               0.010933986               0.000405449              -0.001892908               0.004275595               0.002382687               0.000000000               0.000000000               0.000000000               0.000000000              -0.001643122               0.010066949               0.000649747              -0.001874535               0.003980461               0.002105926               0.000000000               0.000000000               0.000000000               0.000000000              -0.001712654               0.009309863               0.000734029              -0.001805974               0.003705248               0.001899274               0.000000000               0.000000000               0.000000000               0.000000000              -0.001680533               0.008637824               0.000752073              -0.001709924               0.003449220               0.001739297               0.000000000               0.000000000               0.000000000               0.000000000              -0.001571637               0.008013017               0.000731585              -0.001590987               0.003201308               0.001610321               0.000000000               0.000000000               0.000000000               0.000000000              -0.001407513               0.007428901               0.000693709              -0.001456426               0.002961751               0.001505324               0.000000000               0.000000000               0.000000000               0.000000000              -0.001204746               0.006889656               0.000643576              -0.001312984               0.002734190               0.001421207               0.000000000               0.000000000               0.000000000               0.000000000              -0.000986511               0.006396992               0.000580641              -0.001169563               0.002522164               0.001352601               0.000000000               0.000000000               0.000000000               0.000000000              -0.000769658               0.005953845               0.000505482              -0.001032850               0.002328878               0.001296029               0.000000000               0.000000000               0.000000000               0.000000000              -0.000560797               0.005566137               0.000417169              -0.000906064               0.002157382               0.001251318               0.000000000               0.000000000               0.000000000               0.000000000              -0.000369642               0.005249505               0.000316935              -0.000794802               0.002014752               0.001219950               0.000000000               0.000000000               0.000000000               0.000000000              -0.000210869               0.005015959               0.000205524              -0.000706069               0.001907326               0.001201257               0.000000000               0.000000000               0.000000000               0.000000000              -0.000089327               0.004873325               0.000094741              -0.000642661               0.001838646               0.001195984               0.000000000               0.000000000               0.000000000               0.000000000              -0.000043778               0.004818648               0.000046126              -0.000618746               0.001812449               0.001193702               0.000000000               0.000000000               0.000000000               0.000000000               0.001815170               0.011726189              -0.004158044              -0.000785087               0.004170385               0.003385298               0.000000000               0.000000000               0.000000000               0.000000000              -0.000276852               0.011104350              -0.002311143              -0.001491861               0.004198699               0.002706838               0.000000000               0.000000000               0.000000000               0.000000000              -0.001854050               0.011051065              -0.000579161              -0.002076647               0.004375867               0.002299220               0.000000000               0.000000000               0.000000000               0.000000000              -0.002334109               0.010407707              -0.000012581              -0.002176249               0.004194617               0.002018369               0.000000000               0.000000000               0.000000000               0.000000000              -0.002402285               0.009676273               0.000201913              -0.002110386               0.003928854               0.001818468               0.000000000               0.000000000               0.000000000               0.000000000              -0.002302929               0.008987129               0.000303047              -0.001986984               0.003658008               0.001671023               0.000000000               0.000000000               0.000000000               0.000000000              -0.002111494               0.008347078               0.000349387              -0.001835190               0.003394062               0.001558871               0.000000000               0.000000000               0.000000000               0.000000000              -0.001851978               0.007737673               0.000359888              -0.001661697               0.003133097               0.001471401               0.000000000               0.000000000               0.000000000               0.000000000              -0.001558090               0.007173640               0.000356078              -0.001480985               0.002884851               0.001403866               0.000000000               0.000000000               0.000000000               0.000000000              -0.001253891               0.006664118               0.000337042              -0.001303221               0.002655757               0.001352537               0.000000000               0.000000000               0.000000000               0.000000000              -0.000966057               0.006210028               0.000302185              -0.001138522               0.002449496               0.001310974               0.000000000               0.000000000               0.000000000               0.000000000              -0.000709275               0.005816696               0.000252546              -0.000993063               0.002269900               0.001276837               0.000000000               0.000000000               0.000000000               0.000000000              -0.000483218               0.005493955               0.000194070              -0.000867949               0.002120616               0.001252667               0.000000000               0.000000000               0.000000000               0.000000000              -0.000295260               0.005247578               0.000136475              -0.000766668               0.002004731               0.001238063               0.000000000               0.000000000               0.000000000               0.000000000              -0.000154105               0.005079236               0.000081007              -0.000692692               0.001923959               0.001231267               0.000000000               0.000000000               0.000000000               0.000000000              -0.000059401               0.004982308               0.000033182              -0.000645062               0.001875774               0.001230711               0.000000000               0.000000000               0.000000000               0.000000000              -0.000030490               0.004942613               0.000017050              -0.000629259               0.001857274               0.001228015               0.000000000               0.000000000               0.000000000               0.000000000               0.000868859               0.009054801              -0.003446335              -0.000806029               0.003286912               0.002480883               0.000000000               0.000000000               0.000000000               0.000000000              -0.001174492               0.009493586              -0.002180965              -0.001627130               0.003706873               0.002079743               0.000000000               0.000000000               0.000000000               0.000000000              -0.002754862               0.010172179              -0.000955685              -0.002304590               0.004158889               0.001854299               0.000000000               0.000000000               0.000000000               0.000000000              -0.003017582               0.009774004              -0.000513116              -0.002353338               0.004042415               0.001689077               0.000000000               0.000000000               0.000000000               0.000000000              -0.002883446               0.009168519              -0.000296669              -0.002227352               0.003798593               0.001571241               0.000000000               0.000000000               0.000000000               0.000000000              -0.002612671               0.008560913              -0.000160335              -0.002049861               0.003536896               0.001487035               0.000000000               0.000000000               0.000000000               0.000000000              -0.002275010               0.007964332              -0.000072277              -0.001848666               0.003270973               0.001422307               0.000000000               0.000000000               0.000000000               0.000000000              -0.001887973               0.007394955              -0.000017548              -0.001632355               0.003009079               0.001376724               0.000000000               0.000000000               0.000000000               0.000000000              -0.001492686               0.006871642               0.000024986              -0.001418709               0.002763427               0.001344718               0.000000000               0.000000000               0.000000000               0.000000000              -0.001127320               0.006400063               0.000048252              -0.001222750               0.002540916               0.001318167               0.000000000               0.000000000               0.000000000               0.000000000              -0.000807135               0.005987709               0.000051883              -0.001051137               0.002346262               0.001295125               0.000000000               0.000000000               0.000000000               0.000000000              -0.000537148               0.005645954               0.000046002              -0.000907173               0.002184357               0.001277184               0.000000000               0.000000000               0.000000000               0.000000000              -0.000321875               0.005383158               0.000033946              -0.000793596               0.002058900               0.001265304               0.000000000               0.000000000               0.000000000               0.000000000              -0.000166935               0.005195807               0.000023686              -0.000712075               0.001969277               0.001257202               0.000000000               0.000000000               0.000000000               0.000000000              -0.000070101               0.005074955               0.000015901              -0.000660656               0.001911853               0.001251198               0.000000000               0.000000000               0.000000000               0.000000000              -0.000021228               0.005007647               0.000007293              -0.000633915               0.001880504               0.001246589               0.000000000               0.000000000               0.000000000               0.000000000              -0.000011037               0.004980378               0.000005929              -0.000626685               0.001869004               0.001242320               0.000000000               0.000000000               0.000000000               0.000000000              -0.000264035               0.006784724              -0.002563878              -0.000947103               0.002577252               0.001630149               0.000000000               0.000000000               0.000000000               0.000000000              -0.002045618               0.008053899              -0.002029272              -0.001773841               0.003275886               0.001502045               0.000000000               0.000000000               0.000000000               0.000000000              -0.003448496               0.009308839              -0.001408889              -0.002456785               0.003921843               0.001465058               0.000000000               0.000000000               0.000000000               0.000000000              -0.003472143               0.009169860              -0.001048366              -0.002448280               0.003872683               0.001424403               0.000000000               0.000000000               0.000000000               0.000000000              -0.003163123               0.008720110              -0.000804867              -0.002276179               0.003665401               0.001389221               0.000000000               0.000000000               0.000000000               0.000000000              -0.002757304               0.008215435              -0.000623613              -0.002060913               0.003425422               0.001364509               0.000000000               0.000000000               0.000000000               0.000000000              -0.002303854               0.007688376              -0.000483358              -0.001824988               0.003171096               0.001346108               0.000000000               0.000000000               0.000000000               0.000000000              -0.001822316               0.007174665              -0.000373860              -0.001580198               0.002918264               0.001338066               0.000000000               0.000000000               0.000000000               0.000000000              -0.001363174               0.006693342              -0.000284211              -0.001347855               0.002680377               0.001332522               0.000000000               0.000000000               0.000000000               0.000000000              -0.000962317               0.006250685              -0.000214057              -0.001142202               0.002464275               0.001322073               0.000000000               0.000000000               0.000000000               0.000000000              -0.000625108               0.005866508              -0.000160047              -0.000967726               0.002278058               0.001310332               0.000000000               0.000000000               0.000000000               0.000000000              -0.000355803               0.005553151              -0.000112164              -0.000827568               0.002126888               0.001299320               0.000000000               0.000000000               0.000000000               0.000000000              -0.000161634               0.005317778              -0.000070307              -0.000725333               0.002014353               0.001289020               0.000000000               0.000000000               0.000000000               0.000000000              -0.000047045               0.005158268              -0.000035347              -0.000662424               0.001940213               0.001277789               0.000000000               0.000000000               0.000000000               0.000000000               0.000001422               0.005061251              -0.000011018              -0.000632121               0.001897774               0.001265652               0.000000000               0.000000000               0.000000000               0.000000000               0.000010329               0.005010542              -0.000000378              -0.000622443               0.001877645               0.001255202               0.000000000               0.000000000               0.000000000               0.000000000               0.000007789               0.004993708               0.000002258              -0.000621291               0.001871650               0.001250359               0.000000000               0.000000000               0.000000000               0.000000000              -0.001596963               0.004687514              -0.001626616              -0.001184798               0.001957421               0.000772623               0.000000000               0.000000000               0.000000000               0.000000000              -0.002775696               0.006414522              -0.001859967              -0.001842698               0.002752385               0.000909687               0.000000000               0.000000000               0.000000000               0.000000000              -0.003846732               0.008090513              -0.001889569              -0.002453833               0.003514755               0.001060922               0.000000000               0.000000000               0.000000000               0.000000000              -0.003727696               0.008334375              -0.001622835              -0.002439677               0.003591323               0.001151646               0.000000000               0.000000000               0.000000000               0.000000000              -0.003333901               0.008147840              -0.001358417              -0.002268687               0.003472148               0.001203461               0.000000000               0.000000000               0.000000000               0.000000000              -0.002885358               0.007835989              -0.001129936              -0.002061503               0.003299138               0.001237635               0.000000000               0.000000000               0.000000000               0.000000000              -0.002417642               0.007466467              -0.000937823              -0.001839920               0.003102104               0.001262184               0.000000000               0.000000000               0.000000000               0.000000000              -0.001927878               0.007073546              -0.000775591              -0.001607144               0.002893540               0.001286396               0.000000000               0.000000000               0.000000000               0.000000000              -0.001450843               0.006678081              -0.000635534              -0.001378823               0.002685612               0.001306790               0.000000000               0.000000000               0.000000000               0.000000000              -0.001026561               0.006298704              -0.000513273              -0.001172296               0.002490312               0.001318016               0.000000000               0.000000000               0.000000000               0.000000000              -0.000668115               0.005950156              -0.000403911              -0.000994310               0.002314802               0.001320492               0.000000000               0.000000000               0.000000000               0.000000000              -0.000379440               0.005644029              -0.000301548              -0.000847792               0.002163921               0.001316130               0.000000000               0.000000000               0.000000000               0.000000000              -0.000159834               0.005402597              -0.000203489              -0.000735260               0.002045935               0.001310674               0.000000000               0.000000000               0.000000000               0.000000000              -0.000019213               0.005225765              -0.000115284              -0.000660424               0.001962046               0.001301622               0.000000000               0.000000000               0.000000000               0.000000000               0.000045741               0.005106892              -0.000051043              -0.000621207               0.001909349               0.001288142               0.000000000               0.000000000               0.000000000               0.000000000               0.000058748               0.005036486              -0.000015222              -0.000607529               0.001881321               0.001273793               0.000000000               0.000000000               0.000000000               0.000000000               0.000052996               0.005009361              -0.000003190              -0.000606295               0.001871869               0.001265573               0.000000000               0.000000000               0.000000000               0.000000000              -0.003314819               0.002797101              -0.000703351              -0.001592692               0.001463254              -0.000129438               0.000000000               0.000000000               0.000000000               0.000000000              -0.003602431               0.004776919              -0.001620317              -0.001948022               0.002241630               0.000293608               0.000000000               0.000000000               0.000000000               0.000000000              -0.004152584               0.006686213              -0.002274172              -0.002392990               0.003026378               0.000633388               0.000000000               0.000000000               0.000000000               0.000000000              -0.003899891               0.007301519              -0.002172371              -0.002375144               0.003225529               0.000850385               0.000000000               0.000000000               0.000000000               0.000000000              -0.003451751               0.007416597              -0.001921813              -0.002221476               0.003212666               0.000991190               0.000000000               0.000000000               0.000000000               0.000000000              -0.002983619               0.007328533              -0.001666485              -0.002034919               0.003121126               0.001086207               0.000000000               0.000000000               0.000000000               0.000000000              -0.002521834               0.007144195              -0.001436223              -0.001838708               0.002994277               0.001155569               0.000000000               0.000000000               0.000000000               0.000000000              -0.002051992               0.006900843              -0.001231863              -0.001632099               0.002844291               0.001212192               0.000000000               0.000000000               0.000000000               0.000000000              -0.001578532               0.006619563              -0.001046827              -0.001419392               0.002679629               0.001260238               0.000000000               0.000000000               0.000000000               0.000000000              -0.001133076               0.006323479              -0.000878470              -0.001215336               0.002512917               0.001297581               0.000000000               0.000000000               0.000000000               0.000000000              -0.000740066               0.006030230              -0.000722771              -0.001031301               0.002353824               0.001322522               0.000000000               0.000000000               0.000000000               0.000000000              -0.000406049               0.005753964              -0.000575685              -0.000871512               0.002208473               0.001336961               0.000000000               0.000000000               0.000000000               0.000000000              -0.000136606               0.005513863              -0.000429193              -0.000740458               0.002084755               0.001344297               0.000000000               0.000000000               0.000000000               0.000000000               0.000057936               0.005318210              -0.000282105              -0.000643049               0.001987068               0.001344020               0.000000000               0.000000000               0.000000000               0.000000000               0.000164906               0.005169035              -0.000155442              -0.000584288               0.001917757               0.001333469               0.000000000               0.000000000               0.000000000               0.000000000               0.000190424               0.005064110              -0.000063838              -0.000561603               0.001875221               0.001313618               0.000000000               0.000000000               0.000000000               0.000000000               0.000176313               0.005016999              -0.000024476              -0.000561006               0.001859318               0.001298312               0.000000000               0.000000000               0.000000000               0.000000000              -0.005301709               0.001247080               0.000120768              -0.002144023               0.001130360              -0.001013663               0.000000000               0.000000000               0.000000000               0.000000000              -0.004576583               0.003236511              -0.001294427              -0.002120779               0.001785751              -0.000335028               0.000000000               0.000000000               0.000000000               0.000000000              -0.004401472               0.005107577              -0.002442448              -0.002288995               0.002465506               0.000176511               0.000000000               0.000000000               0.000000000               0.000000000              -0.003941236               0.005984194              -0.002544527              -0.002225983               0.002736705               0.000510722               0.000000000               0.000000000               0.000000000               0.000000000              -0.003425319               0.006371994              -0.002356898              -0.002080989               0.002817639               0.000736650               0.000000000               0.000000000               0.000000000               0.000000000              -0.002933907               0.006517344              -0.002111255              -0.001914879               0.002810719               0.000895840               0.000000000               0.000000000               0.000000000               0.000000000              -0.002475414               0.006533195              -0.001873228              -0.001744926               0.002759351               0.001014426               0.000000000               0.000000000               0.000000000               0.000000000              -0.002028194               0.006463691              -0.001654433              -0.001568531               0.002677385               0.001108855               0.000000000               0.000000000               0.000000000               0.000000000              -0.001576533               0.006330826              -0.001449110              -0.001382550               0.002571104               0.001188554               0.000000000               0.000000000               0.000000000               0.000000000              -0.001131190               0.006152259              -0.001253325              -0.001193226               0.002448474               0.001255248               0.000000000               0.000000000               0.000000000               0.000000000              -0.000715944               0.005952004              -0.001069277              -0.001012477               0.002321474               0.001308997               0.000000000               0.000000000               0.000000000               0.000000000              -0.000339865               0.005749457              -0.000891652              -0.000846130               0.002198510               0.001352380               0.000000000               0.000000000               0.000000000               0.000000000              -0.000022633               0.005548753              -0.000706557              -0.000702080               0.002083592               0.001381513               0.000000000               0.000000000               0.000000000               0.000000000               0.000224550               0.005362414              -0.000510257              -0.000586094               0.001982818               0.001396724               0.000000000               0.000000000               0.000000000               0.000000000               0.000389914               0.005207512              -0.000317866              -0.000504720               0.001904060               0.001399340               0.000000000               0.000000000               0.000000000               0.000000000               0.000455072               0.005089576              -0.000148330              -0.000465544               0.001851690               0.001386146               0.000000000               0.000000000               0.000000000               0.000000000               0.000447848               0.005033867              -0.000067539              -0.000461289               0.001831702               0.001370413               0.000000000               0.000000000               0.000000000               0.000000000              -0.007415424               0.000125293               0.000730314              -0.002796443               0.000973905              -0.001822538               0.000000000               0.000000000               0.000000000               0.000000000              -0.005642469               0.001879910              -0.000931923              -0.002350911               0.001410264              -0.000940647               0.000000000               0.000000000               0.000000000               0.000000000              -0.004620077               0.003484851              -0.002364173              -0.002168131               0.001884314              -0.000283818               0.000000000               0.000000000               0.000000000               0.000000000              -0.003871198               0.004480861              -0.002644794              -0.002011803               0.002164205               0.000152402               0.000000000               0.000000000               0.000000000               0.000000000              -0.003255873               0.005077859              -0.002550420              -0.001855681               0.002311162               0.000455481               0.000000000               0.000000000               0.000000000               0.000000000              -0.002733740               0.005440859              -0.002348476              -0.001705257               0.002382020               0.000676763               0.000000000               0.000000000               0.000000000               0.000000000              -0.002268981               0.005660158              -0.002134069              -0.001558385               0.002406161               0.000847777               0.000000000               0.000000000               0.000000000               0.000000000              -0.001834967               0.005776201              -0.001931321              -0.001410135               0.002395426               0.000985291               0.000000000               0.000000000               0.000000000               0.000000000              -0.001411244               0.005806698              -0.001734424              -0.001255051               0.002353897               0.001098845               0.000000000               0.000000000               0.000000000               0.000000000              -0.000988781               0.005771855              -0.001537998              -0.001092273               0.002288023               0.001195750               0.000000000               0.000000000               0.000000000               0.000000000              -0.000569332               0.005697755              -0.001350381              -0.000925717               0.002207805               0.001282088               0.000000000               0.000000000               0.000000000               0.000000000              -0.000169316               0.005596608              -0.001163636              -0.000763068               0.002119873               0.001356805               0.000000000               0.000000000               0.000000000               0.000000000               0.000195139               0.005472605              -0.000961961              -0.000610897               0.002027816               0.001416918               0.000000000               0.000000000               0.000000000               0.000000000               0.000509536               0.005336216              -0.000742768              -0.000475950               0.001937371               0.001461421               0.000000000               0.000000000               0.000000000               0.000000000               0.000756618               0.005203479              -0.000506232              -0.000366702               0.001856710               0.001490007               0.000000000               0.000000000               0.000000000               0.000000000               0.000907362               0.005094251              -0.000257154              -0.000296520               0.001796907               0.001500387               0.000000000               0.000000000               0.000000000               0.000000000               0.000949112               0.005045873              -0.000129994              -0.000274816               0.001773546               0.001498730               0.000000000               0.000000000               0.000000000               0.000000000              -0.009448211              -0.000583659               0.001021903              -0.003470119               0.000962147              -0.002507973               0.000000000               0.000000000               0.000000000               0.000000000              -0.006699364               0.000779397              -0.000590715              -0.002609683               0.001129685              -0.001479998               0.000000000               0.000000000               0.000000000               0.000000000              -0.004820422               0.001967326              -0.002037828              -0.002053571               0.001340289              -0.000713282               0.000000000               0.000000000               0.000000000               0.000000000              -0.003738296               0.002962693              -0.002416603              -0.001772195               0.001578284              -0.000193911               0.000000000               0.000000000               0.000000000               0.000000000              -0.002993894               0.003701854              -0.002408040              -0.001585439               0.001762417               0.000176978               0.000000000               0.000000000               0.000000000               0.000000000              -0.002420693               0.004239196              -0.002271368              -0.001437657               0.001892269               0.000454612               0.000000000               0.000000000               0.000000000               0.000000000              -0.001943259               0.004630809              -0.002106438              -0.001307571               0.001979444               0.000671873               0.000000000               0.000000000               0.000000000               0.000000000              -0.001517576               0.004913457              -0.001941441              -0.001183271               0.002032226               0.000848954               0.000000000               0.000000000               0.000000000               0.000000000              -0.001114742               0.005101725              -0.001776233              -0.001055742               0.002052471               0.000996729               0.000000000               0.000000000               0.000000000               0.000000000              -0.000713083               0.005216081              -0.001609895              -0.000919415               0.002045148               0.001125733               0.000000000               0.000000000               0.000000000               0.000000000              -0.000303328               0.005279144              -0.001445400              -0.000773640               0.002017577               0.001243937               0.000000000               0.000000000               0.000000000               0.000000000               0.000109086               0.005304222              -0.001275497              -0.000622120               0.001975429               0.001353310               0.000000000               0.000000000               0.000000000               0.000000000               0.000519093               0.005292336              -0.001090606              -0.000466881               0.001919721               0.001452840               0.000000000               0.000000000               0.000000000               0.000000000               0.000914129               0.005244240              -0.000882224              -0.000312731               0.001852306               0.001539575               0.000000000               0.000000000               0.000000000               0.000000000               0.001272069               0.005165534              -0.000637226              -0.000168666               0.001778049               0.001609384               0.000000000               0.000000000               0.000000000               0.000000000               0.001567426               0.005080218              -0.000342983              -0.000047243               0.001709137               0.001661894               0.000000000               0.000000000               0.000000000               0.000000000               0.001726218               0.005052165              -0.000188287               0.000015810               0.001678768               0.001694578               0.000000000               0.000000000               0.000000000               0.000000000              -0.011155979              -0.000969824               0.000951333              -0.004062262               0.001030806              -0.003031456               0.000000000               0.000000000               0.000000000               0.000000000              -0.007614754              -0.000020597              -0.000318540              -0.002852956               0.000944113              -0.001908843               0.000000000               0.000000000               0.000000000               0.000000000              -0.004995148               0.000733262              -0.001491937              -0.001964836               0.000899359              -0.001065477               0.000000000               0.000000000               0.000000000               0.000000000              -0.003594454               0.001655066              -0.001852280              -0.001554801               0.001069947              -0.000484854               0.000000000               0.000000000               0.000000000               0.000000000              -0.002715198               0.002460728              -0.001894740              -0.001325788               0.001262162              -0.000063625               0.000000000               0.000000000               0.000000000               0.000000000              -0.002082509               0.003110918              -0.001820139              -0.001169804               0.001426896               0.000257092               0.000000000               0.000000000               0.000000000               0.000000000              -0.001584471               0.003628507              -0.001711044              -0.001047738               0.001558736               0.000510997               0.000000000               0.000000000               0.000000000               0.000000000              -0.001161106               0.004040120              -0.001597866              -0.000940428               0.001660169               0.000719740               0.000000000               0.000000000               0.000000000               0.000000000              -0.000767707               0.004359174              -0.001484462              -0.000832786               0.001730638               0.000897853               0.000000000               0.000000000               0.000000000               0.000000000              -0.000375979               0.004604168              -0.001366603              -0.000716512               0.001773544               0.001057032               0.000000000               0.000000000               0.000000000               0.000000000               0.000025037               0.004792999              -0.001244972              -0.000589735               0.001794229               0.001204493               0.000000000               0.000000000               0.000000000               0.000000000               0.000444640               0.004935916              -0.001118666              -0.000450249               0.001795372               0.001345123               0.000000000               0.000000000               0.000000000               0.000000000               0.000892732               0.005039815              -0.000979592              -0.000295202               0.001778322               0.001483120               0.000000000               0.000000000               0.000000000               0.000000000               0.001365353               0.005097902              -0.000815186              -0.000125231               0.001741027               0.001615797               0.000000000               0.000000000               0.000000000               0.000000000               0.001852697               0.005098093              -0.000608382               0.000057499               0.001680181               0.001737680               0.000000000               0.000000000               0.000000000               0.000000000               0.002350737               0.005055588              -0.000338538               0.000249575               0.001601987               0.001851563               0.000000000               0.000000000               0.000000000               0.000000000               0.002697532               0.005062688              -0.000197649               0.000378735               0.001561301               0.001940036               0.000000000               0.000000000               0.000000000               0.000000000              -0.012302151              -0.001142926               0.000565647              -0.004470438               0.001109163              -0.003361275               0.000000000               0.000000000               0.000000000               0.000000000              -0.008248037              -0.000500873              -0.000132043              -0.003030403               0.000843171              -0.002187232               0.000000000               0.000000000               0.000000000               0.000000000              -0.005122406              -0.000069535              -0.000788106              -0.001912209               0.000614220              -0.001297989               0.000000000               0.000000000               0.000000000               0.000000000              -0.003484233               0.000765011              -0.001007745              -0.001402212               0.000722402              -0.000679810               0.000000000               0.000000000               0.000000000               0.000000000              -0.002500678               0.001587592              -0.001048063              -0.001136201               0.000907925              -0.000228277               0.000000000               0.000000000               0.000000000               0.000000000              -0.001824733               0.002296216              -0.001018674              -0.000971300               0.001089164               0.000117864               0.000000000               0.000000000               0.000000000               0.000000000              -0.001304830               0.002884992              -0.000965673              -0.000849933               0.001244965               0.000395032               0.000000000               0.000000000               0.000000000               0.000000000              -0.000869515               0.003375249              -0.000909151              -0.000747973               0.001374396               0.000626423               0.000000000               0.000000000               0.000000000               0.000000000              -0.000479425               0.003777670              -0.000852920              -0.000651992               0.001476541               0.000824549               0.000000000               0.000000000               0.000000000               0.000000000              -0.000099552               0.004109406              -0.000791020              -0.000551007               0.001553457               0.001002450               0.000000000               0.000000000               0.000000000               0.000000000               0.000296273               0.004385212              -0.000724575              -0.000437049               0.001607406               0.001170357               0.000000000               0.000000000               0.000000000               0.000000000               0.000724548               0.004614911              -0.000657496              -0.000305158               0.001640008               0.001334850               0.000000000               0.000000000               0.000000000               0.000000000               0.001200177               0.004808221              -0.000583787              -0.000150961               0.001653045               0.001502083               0.000000000               0.000000000               0.000000000               0.000000000               0.001731761               0.004949252              -0.000491720               0.000030753               0.001639483               0.001670236               0.000000000               0.000000000               0.000000000               0.000000000               0.002330627               0.005022150              -0.000372390               0.000246214               0.001591962               0.001838176               0.000000000               0.000000000               0.000000000               0.000000000               0.003017874               0.005028935              -0.000210199               0.000503081               0.001508601               0.002011682               0.000000000               0.000000000               0.000000000               0.000000000               0.003547985               0.005073157              -0.000126426               0.000696343               0.001458921               0.002155264               0.000000000               0.000000000               0.000000000               0.000000000              -0.012707100              -0.001188426               0.000000000              -0.004616606               0.001142719              -0.003473887               0.000000000               0.000000000               0.000000000               0.000000000              -0.008476375              -0.000659656              -0.000000000              -0.003096182               0.000812170              -0.002284012               0.000000000               0.000000000               0.000000000               0.000000000              -0.005170534              -0.000348510              -0.000000000              -0.001895385               0.000515622              -0.001379764               0.000000000               0.000000000               0.000000000               0.000000000              -0.003443652               0.000448018               0.000000000              -0.001347370               0.000598459              -0.000748912               0.000000000               0.000000000               0.000000000               0.000000000              -0.002421140               0.001271998               0.000000000              -0.001066925               0.000779636              -0.000287290               0.000000000               0.000000000               0.000000000               0.000000000              -0.001726163               0.002000459              -0.000000000              -0.000897367               0.000965935               0.000068568               0.000000000               0.000000000               0.000000000               0.000000000              -0.001196934               0.002611352              -0.000000000              -0.000775267               0.001128864               0.000353597               0.000000000               0.000000000               0.000000000               0.000000000              -0.000754212               0.003122429               0.000000000              -0.000673132               0.001265176               0.000592045               0.000000000               0.000000000               0.000000000               0.000000000              -0.000366525               0.003549939              -0.000000000              -0.000581188               0.001377030               0.000795843               0.000000000               0.000000000               0.000000000               0.000000000               0.000005879               0.003914299              -0.000000000              -0.000487082               0.001467114               0.000980032               0.000000000               0.000000000               0.000000000               0.000000000               0.000398683               0.004224513              -0.000000000              -0.000378557               0.001534342               0.001155785               0.000000000               0.000000000               0.000000000               0.000000000               0.000831766               0.004486740              -0.000000000              -0.000248930               0.001578542               0.001329612               0.000000000               0.000000000               0.000000000               0.000000000               0.001318023               0.004712523               0.000000000              -0.000094807               0.001602427               0.001507621               0.000000000               0.000000000               0.000000000               0.000000000               0.001873384               0.004884518              -0.000000000               0.000091953               0.001597505               0.001689458               0.000000000               0.000000000               0.000000000               0.000000000               0.002517850               0.004982959               0.000000000               0.000321321               0.001553863               0.001875183               0.000000000               0.000000000               0.000000000               0.000000000               0.003281824               0.005010693               0.000000000               0.000604341               0.001468767               0.002073108               0.000000000               0.000000000               0.000000000               0.000000000               0.003887756               0.005073286              -0.000000000               0.000823739               0.001416499               0.002240238               0.000000000               0.000000000               0.000000000               0.000000000               0.000000000               0.000000000               0.000000000               0.000000000               0.000000000               0.000000000               0.000000000               0.000000000               0.000000000               0.000000000               0.000000000               0.000000000               0.000000000               0.000000000               0.000000000               0.000000000               0.000000000               0.000000000               0.000000000               0.000000000               0.000000000               0.000000000               0.000000000               0.000000000               0.000000000               0.000000000               0.000000000               0.000000000               0.000000000               0.000000000               0.000000000               0.000000000               0.000000000               0.000000000               0.000000000               0.000000000               0.000000000               0.000000000               0.000000000               0.000000000               0.000000000               0.000000000               0.000000000               0.000000000               0.000000000               0.000000000               0.000000000               0.000000000               0.000000000               0.000000000               0.000000000               0.000000000               0.000000000               0.000000000               0.000000000               0.000000000               0.000000000               0.000000000               0.000000000               0.000000000               0.000000000               0.000000000               0.000000000               0.000000000               0.000000000               0.000000000               0.000000000               0.000000000               0.000000000               0.000000000               0.000000000               0.000000000               0.000000000               0.000000000               0.000000000               0.000000000               0.000000000               0.000000000               0.000000000               0.000000000               0.000000000               0.000000000               0.000000000               0.000000000               0.000000000               0.000000000               0.000000000               0.000000000               0.000000000               0.000000000               0.000000000               0.000000000               0.000000000               0.000000000               0.000000000               0.000000000               0.000000000               0.000000000               0.000000000               0.000000000               0.000000000               0.000000000               0.000000000               0.000000000               0.000000000               0.000000000               0.000000000               0.000000000               0.000000000               0.000000000               0.000000000               0.000000000               0.000000000               0.000000000               0.000000000               0.000000000               0.000000000               0.000000000               0.000000000               0.000000000               0.000000000               0.000000000               0.000000000               0.000000000               0.000000000               0.000000000               0.000000000               0.000000000               0.000000000               0.000000000               0.000000000               0.000000000               0.000000000               0.000000000               0.000000000               0.000000000               0.000000000               0.000000000               0.000000000               0.000000000               0.000000000               0.000000000               0.000000000               0.000000000               0.000000000               0.000000000               0.000000000               0.000000000               0.000000000               0.000000000               0.000000000               0.000000000               0.000000000               0.000000000               0.000000000               0.000000000               0.000000000               0.000000000               0.000000000               0.000000000               0.000000000               0.000000000               0.000000000               0.000000000               0.000000000               0.000000000               0.000000000               0.000000000               0.000000000               0.000000000               0.002323567               0.023913794               0.001655956              -0.002117882               0.008677145               0.006559264               0.000000000               0.000000000               0.000000000               0.000000000               0.002138943               0.018647725               0.000805911              -0.001528858               0.006725466               0.005196607               0.000000000               0.000000000               0.000000000               0.000000000               0.002662831               0.014392487              -0.000030723              -0.000800497               0.005064280               0.004263783               0.000000000               0.000000000               0.000000000               0.000000000               0.002458397               0.011959188              -0.000377477              -0.000572998               0.004177356               0.003604357               0.000000000               0.000000000               0.000000000               0.000000000               0.002066213               0.010410007              -0.000516568              -0.000526420               0.003645441               0.003119021               0.000000000               0.000000000               0.000000000               0.000000000               0.001653564               0.009331368              -0.000565593              -0.000546333               0.003292536               0.002746203               0.000000000               0.000000000               0.000000000               0.000000000               0.001277978               0.008527104              -0.000572626              -0.000586645               0.003037888               0.002451243               0.000000000               0.000000000               0.000000000               0.000000000               0.000952262               0.007885279              -0.000554371              -0.000628560               0.002837920               0.002209360               0.000000000               0.000000000               0.000000000               0.000000000               0.000671422               0.007335304              -0.000526422              -0.000665128               0.002666786               0.002001658               0.000000000               0.000000000               0.000000000               0.000000000               0.000440067               0.006837596              -0.000494638              -0.000689673               0.002509067               0.001819394               0.000000000               0.000000000               0.000000000               0.000000000               0.000251679               0.006362977              -0.000462023              -0.000700991               0.002354635               0.001653644               0.000000000               0.000000000               0.000000000               0.000000000               0.000098998               0.005889227              -0.000427125              -0.000699028               0.002196065               0.001497038               0.000000000               0.000000000               0.000000000               0.000000000              -0.000011519               0.005398905              -0.000380843              -0.000679181               0.002026011               0.001346830               0.000000000               0.000000000               0.000000000               0.000000000              -0.000077635               0.004871968              -0.000318647              -0.000638108               0.001836676               0.001198568               0.000000000               0.000000000               0.000000000               0.000000000              -0.000095660               0.004295445              -0.000239963              -0.000572802               0.001622735               0.001049933               0.000000000               0.000000000               0.000000000               0.000000000              -0.000061764               0.003659546              -0.000136157              -0.000480603               0.001380038               0.000899434               0.000000000               0.000000000               0.000000000               0.000000000              -0.000084706               0.003180541              -0.000087911              -0.000429331               0.001203280               0.000773949               0.000000000               0.000000000               0.000000000               0.000000000               0.002506668               0.022451981               0.003075393              -0.001866494               0.008106083               0.006239589               0.000000000               0.000000000               0.000000000               0.000000000               0.001974896               0.017715116               0.001500247              -0.001473800               0.006396246               0.004922446               0.000000000               0.000000000               0.000000000               0.000000000               0.002126261               0.013997375              -0.000037450              -0.000952321               0.004983185               0.004030864               0.000000000               0.000000000               0.000000000               0.000000000               0.001788579               0.011842076              -0.000654149              -0.000809540               0.004217166               0.003407626               0.000000000               0.000000000               0.000000000               0.000000000               0.001375456               0.010438223              -0.000894051              -0.000788980               0.003742366               0.002953386               0.000000000               0.000000000               0.000000000               0.000000000               0.000991830               0.009435127              -0.000973219              -0.000807453               0.003414162               0.002606709               0.000000000               0.000000000               0.000000000               0.000000000               0.000660333               0.008662356              -0.000981610              -0.000835168               0.003165812               0.002330644               0.000000000               0.000000000               0.000000000               0.000000000               0.000388487               0.008029456              -0.000950416              -0.000857998               0.002962458               0.002104460               0.000000000               0.000000000               0.000000000               0.000000000               0.000172358               0.007476219              -0.000900691              -0.000869891               0.002782012               0.001912120               0.000000000               0.000000000               0.000000000               0.000000000               0.000014956               0.006965434              -0.000844724              -0.000865069               0.002610144               0.001745075               0.000000000               0.000000000               0.000000000               0.000000000              -0.000089201               0.006471350              -0.000787536              -0.000842367               0.002437884               0.001595517               0.000000000               0.000000000               0.000000000               0.000000000              -0.000152830               0.005980297              -0.000726900              -0.000804847               0.002261695               0.001456848               0.000000000               0.000000000               0.000000000               0.000000000              -0.000183993               0.005484366              -0.000647877              -0.000754542               0.002079618               0.001325076               0.000000000               0.000000000               0.000000000               0.000000000              -0.000181553               0.004981608              -0.000541433              -0.000690782               0.001890780               0.001199998               0.000000000               0.000000000               0.000000000               0.000000000              -0.000146372               0.004471734              -0.000406699              -0.000613855               0.001695181               0.001081327               0.000000000               0.000000000               0.000000000               0.000000000              -0.000083122               0.003953959              -0.000229583              -0.000525414               0.001493111               0.000967697               0.000000000               0.000000000               0.000000000               0.000000000              -0.000085537               0.003589200              -0.000144320              -0.000480725               0.001356630               0.000875905               0.000000000               0.000000000               0.000000000               0.000000000               0.002677228               0.020229790               0.004076192              -0.001524762               0.007251449               0.005726687               0.000000000               0.000000000               0.000000000               0.000000000               0.001660894               0.016312448               0.002000512              -0.001416218               0.005909501               0.004493282               0.000000000               0.000000000               0.000000000               0.000000000               0.001299397               0.013404201              -0.000001037              -0.001188248               0.004864105               0.003675857               0.000000000               0.000000000               0.000000000               0.000000000               0.000813333               0.011636176              -0.000763150              -0.001149520               0.004261860               0.003112340               0.000000000               0.000000000               0.000000000               0.000000000               0.000399252               0.010419192              -0.001044116              -0.001152677               0.003857255               0.002704578               0.000000000               0.000000000               0.000000000               0.000000000               0.000075822               0.009505229              -0.001131912              -0.001159718               0.003554950               0.002395233               0.000000000               0.000000000               0.000000000               0.000000000              -0.000169153               0.008775822              -0.001138416              -0.001160407               0.003312047               0.002151640               0.000000000               0.000000000               0.000000000               0.000000000              -0.000342893               0.008153329              -0.001101166              -0.001147748               0.003100332               0.001952584               0.000000000               0.000000000               0.000000000               0.000000000              -0.000451375               0.007590519              -0.001043529              -0.001118078               0.002902840               0.001784762               0.000000000               0.000000000               0.000000000               0.000000000              -0.000498373               0.007059485              -0.000976073              -0.001069323               0.002709579               0.001640256               0.000000000               0.000000000               0.000000000               0.000000000              -0.000491704               0.006546045              -0.000905518              -0.001002643               0.002516207               0.001513565               0.000000000               0.000000000               0.000000000               0.000000000              -0.000447470               0.006045353              -0.000830296              -0.000923468               0.002322920               0.001399452               0.000000000               0.000000000               0.000000000               0.000000000              -0.000380935               0.005561214              -0.000734184              -0.000838000               0.002133053               0.001295052               0.000000000               0.000000000               0.000000000               0.000000000              -0.000295245               0.005106073              -0.000608418              -0.000748974               0.001951665               0.001202691               0.000000000               0.000000000               0.000000000               0.000000000              -0.000198267               0.004690373              -0.000449107              -0.000660645               0.001783657               0.001123012               0.000000000               0.000000000               0.000000000               0.000000000              -0.000099707               0.004325423              -0.000246868              -0.000578067               0.001634482               0.001056415               0.000000000               0.000000000               0.000000000               0.000000000              -0.000073074               0.004106713              -0.000146291              -0.000540740               0.001549137               0.001008397               0.000000000               0.000000000               0.000000000               0.000000000               0.002690067               0.017522036               0.004570129              -0.001181480               0.006234446               0.005052966               0.000000000               0.000000000               0.000000000               0.000000000               0.001174736               0.014634003               0.002278467              -0.001388722               0.005340859               0.003952137               0.000000000               0.000000000               0.000000000               0.000000000               0.000279878               0.012690041               0.000101256              -0.001481297               0.004723737               0.003242440               0.000000000               0.000000000               0.000000000               0.000000000              -0.000308585               0.011338527              -0.000677177              -0.001533032               0.004290482               0.002757450               0.000000000               0.000000000               0.000000000               0.000000000              -0.000667822               0.010308843              -0.000952325              -0.001539035               0.003949258               0.002410223               0.000000000               0.000000000               0.000000000               0.000000000              -0.000881715               0.009483214              -0.001038356              -0.001516041               0.003666387               0.002150345               0.000000000               0.000000000               0.000000000               0.000000000              -0.001001694               0.008787148              -0.001045965              -0.001474025               0.003420362               0.001946336               0.000000000               0.000000000               0.000000000               0.000000000              -0.001044574               0.008164275              -0.001010474              -0.001412246               0.003192146               0.001779900               0.000000000               0.000000000               0.000000000               0.000000000              -0.001022864               0.007583516              -0.000954802              -0.001331510               0.002971650               0.001640140               0.000000000               0.000000000               0.000000000               0.000000000              -0.000943586               0.007037370              -0.000887751              -0.001233513               0.002756938               0.001523424               0.000000000               0.000000000               0.000000000               0.000000000              -0.000821536               0.006522267              -0.000813128              -0.001123357               0.002548519               0.001425163               0.000000000               0.000000000               0.000000000               0.000000000              -0.000678656               0.006036628              -0.000730848              -0.001009072               0.002348547               0.001339474               0.000000000               0.000000000               0.000000000               0.000000000              -0.000524606               0.005589848              -0.000631102              -0.000895456               0.002161749               0.001266293               0.000000000               0.000000000               0.000000000               0.000000000              -0.000367207               0.005199655              -0.000507335              -0.000787658               0.001995753               0.001208096               0.000000000               0.000000000               0.000000000               0.000000000              -0.000222238               0.004880937              -0.000356354              -0.000693455               0.001858114               0.001164660               0.000000000               0.000000000               0.000000000               0.000000000              -0.000100788               0.004651158              -0.000183140              -0.000619189               0.001756767               0.001137578               0.000000000               0.000000000               0.000000000               0.000000000              -0.000055370               0.004545796              -0.000098879              -0.000588987               0.001711579               0.001122592               0.000000000               0.000000000               0.000000000               0.000000000               0.002428414               0.014606399               0.004569611              -0.000915146               0.005173799               0.004258652               0.000000000               0.000000000               0.000000000               0.000000000               0.000519472               0.012852488               0.002363227              -0.001411757               0.004754705               0.003342948               0.000000000               0.000000000               0.000000000               0.000000000              -0.000811221               0.011897670               0.000292794              -0.001791412               0.004562988               0.002771576               0.000000000               0.000000000               0.000000000               0.000000000              -0.001403104               0.010933986              -0.000405449              -0.001892908               0.004275595               0.002382687               0.000000000               0.000000000               0.000000000               0.000000000              -0.001643122               0.010066949              -0.000649747              -0.001874535               0.003980461               0.002105926               0.000000000               0.000000000               0.000000000               0.000000000              -0.001712654               0.009309863              -0.000734029              -0.001805974               0.003705248               0.001899274               0.000000000               0.000000000               0.000000000               0.000000000              -0.001680533               0.008637824              -0.000752073              -0.001709924               0.003449220               0.001739297               0.000000000               0.000000000               0.000000000               0.000000000              -0.001571637               0.008013017              -0.000731585              -0.001590987               0.003201308               0.001610321               0.000000000               0.000000000               0.000000000               0.000000000              -0.001407513               0.007428901              -0.000693709              -0.001456426               0.002961751               0.001505324               0.000000000               0.000000000               0.000000000               0.000000000              -0.001204746               0.006889656              -0.000643576              -0.001312984               0.002734190               0.001421207               0.000000000               0.000000000               0.000000000               0.000000000              -0.000986511               0.006396992              -0.000580641              -0.001169563               0.002522164               0.001352601               0.000000000               0.000000000               0.000000000               0.000000000              -0.000769658               0.005953845              -0.000505482              -0.001032850               0.002328878               0.001296029               0.000000000               0.000000000               0.000000000               0.000000000              -0.000560797               0.005566137              -0.000417169              -0.000906064               0.002157382               0.001251318               0.000000000               0.000000000               0.000000000               0.000000000              -0.000369642               0.005249505              -0.000316935              -0.000794802               0.002014752               0.001219950               0.000000000               0.000000000               0.000000000               0.000000000              -0.000210869               0.005015959              -0.000205524              -0.000706069               0.001907326               0.001201257               0.000000000               0.000000000               0.000000000               0.000000000              -0.000089327               0.004873325              -0.000094741              -0.000642661               0.001838646               0.001195984               0.000000000               0.000000000               0.000000000               0.000000000              -0.000043778               0.004818648              -0.000046126              -0.000618746               0.001812449               0.001193702               0.000000000               0.000000000               0.000000000               0.000000000               0.001815170               0.011726189               0.004158044              -0.000785087               0.004170385               0.003385298               0.000000000               0.000000000               0.000000000               0.000000000              -0.000276852               0.011104350               0.002311143              -0.001491861               0.004198699               0.002706838               0.000000000               0.000000000               0.000000000               0.000000000              -0.001854050               0.011051065               0.000579161              -0.002076647               0.004375867               0.002299220               0.000000000               0.000000000               0.000000000               0.000000000              -0.002334109               0.010407707               0.000012581              -0.002176249               0.004194617               0.002018369               0.000000000               0.000000000               0.000000000               0.000000000              -0.002402285               0.009676273              -0.000201913              -0.002110386               0.003928854               0.001818468               0.000000000               0.000000000               0.000000000               0.000000000              -0.002302929               0.008987129              -0.000303047              -0.001986984               0.003658008               0.001671023               0.000000000               0.000000000               0.000000000               0.000000000              -0.002111494               0.008347078              -0.000349387              -0.001835190               0.003394062               0.001558871               0.000000000               0.000000000               0.000000000               0.000000000              -0.001851978               0.007737673              -0.000359888              -0.001661697               0.003133097               0.001471401               0.000000000               0.000000000               0.000000000               0.000000000              -0.001558090               0.007173640              -0.000356078              -0.001480985               0.002884851               0.001403866               0.000000000               0.000000000               0.000000000               0.000000000              -0.001253891               0.006664118              -0.000337042              -0.001303221               0.002655757               0.001352537               0.000000000               0.000000000               0.000000000               0.000000000              -0.000966057               0.006210028              -0.000302185              -0.001138522               0.002449496               0.001310974               0.000000000               0.000000000               0.000000000               0.000000000              -0.000709275               0.005816696              -0.000252546              -0.000993063               0.002269900               0.001276837               0.000000000               0.000000000               0.000000000               0.000000000              -0.000483218               0.005493955              -0.000194070              -0.000867949               0.002120616               0.001252667               0.000000000               0.000000000               0.000000000               0.000000000              -0.000295260               0.005247578              -0.000136475              -0.000766668               0.002004731               0.001238063               0.000000000               0.000000000               0.000000000               0.000000000              -0.000154105               0.005079236              -0.000081007              -0.000692692               0.001923959               0.001231267               0.000000000               0.000000000               0.000000000               0.000000000              -0.000059401               0.004982308              -0.000033182              -0.000645062               0.001875774               0.001230711               0.000000000               0.000000000               0.000000000               0.000000000              -0.000030490               0.004942613              -0.000017050              -0.000629259               0.001857274               0.001228015               0.000000000               0.000000000               0.000000000               0.000000000               0.000868859               0.009054801               0.003446335              -0.000806029               0.003286912               0.002480883               0.000000000               0.000000000               0.000000000               0.000000000              -0.001174492               0.009493586               0.002180965              -0.001627130               0.003706873               0.002079743               0.000000000               0.000000000               0.000000000               0.000000000              -0.002754862               0.010172179               0.000955685              -0.002304590               0.004158889               0.001854299               0.000000000               0.000000000               0.000000000               0.000000000              -0.003017582               0.009774004               0.000513116              -0.002353338               0.004042415               0.001689077               0.000000000               0.000000000               0.000000000               0.000000000              -0.002883446               0.009168519               0.000296669              -0.002227352               0.003798593               0.001571241               0.000000000               0.000000000               0.000000000               0.000000000              -0.002612671               0.008560913               0.000160335              -0.002049861               0.003536896               0.001487035               0.000000000               0.000000000               0.000000000               0.000000000              -0.002275010               0.007964332               0.000072277              -0.001848666               0.003270973               0.001422307               0.000000000               0.000000000               0.000000000               0.000000000              -0.001887973               0.007394955               0.000017548              -0.001632355               0.003009079               0.001376724               0.000000000               0.000000000               0.000000000               0.000000000              -0.001492686               0.006871642              -0.000024986              -0.001418709               0.002763427               0.001344718               0.000000000               0.000000000               0.000000000               0.000000000              -0.001127320               0.006400063              -0.000048252              -0.001222750               0.002540916               0.001318167               0.000000000               0.000000000               0.000000000               0.000000000              -0.000807135               0.005987709              -0.000051883              -0.001051137               0.002346262               0.001295125               0.000000000               0.000000000               0.000000000               0.000000000              -0.000537148               0.005645954              -0.000046002              -0.000907173               0.002184357               0.001277184               0.000000000               0.000000000               0.000000000               0.000000000              -0.000321875               0.005383158              -0.000033946              -0.000793596               0.002058900               0.001265304               0.000000000               0.000000000               0.000000000               0.000000000              -0.000166935               0.005195807              -0.000023686              -0.000712075               0.001969277               0.001257202               0.000000000               0.000000000               0.000000000               0.000000000              -0.000070101               0.005074955              -0.000015901              -0.000660656               0.001911853               0.001251198               0.000000000               0.000000000               0.000000000               0.000000000              -0.000021228               0.005007647              -0.000007293              -0.000633915               0.001880504               0.001246589               0.000000000               0.000000000               0.000000000               0.000000000              -0.000011037               0.004980378              -0.000005929              -0.000626685               0.001869004               0.001242320               0.000000000               0.000000000               0.000000000               0.000000000              -0.000264035               0.006784724               0.002563878              -0.000947103               0.002577252               0.001630149               0.000000000               0.000000000               0.000000000               0.000000000              -0.002045618               0.008053899               0.002029272              -0.001773841               0.003275886               0.001502045               0.000000000               0.000000000               0.000000000               0.000000000              -0.003448496               0.009308839               0.001408889              -0.002456785               0.003921843               0.001465058               0.000000000               0.000000000               0.000000000               0.000000000              -0.003472143               0.009169860               0.001048366              -0.002448280               0.003872683               0.001424403               0.000000000               0.000000000               0.000000000               0.000000000              -0.003163123               0.008720110               0.000804867              -0.002276179               0.003665401               0.001389221               0.000000000               0.000000000               0.000000000               0.000000000              -0.002757304               0.008215435               0.000623613              -0.002060913               0.003425422               0.001364509               0.000000000               0.000000000               0.000000000               0.000000000              -0.002303854               0.007688376               0.000483358              -0.001824988               0.003171096               0.001346108               0.000000000               0.000000000               0.000000000               0.000000000              -0.001822316               0.007174665               0.000373860              -0.001580198               0.002918264               0.001338066               0.000000000               0.000000000               0.000000000               0.000000000              -0.001363174               0.006693342               0.000284211              -0.001347855               0.002680377               0.001332522               0.000000000               0.000000000               0.000000000               0.000000000              -0.000962317               0.006250685               0.000214057              -0.001142202               0.002464275               0.001322073               0.000000000               0.000000000               0.000000000               0.000000000              -0.000625108               0.005866508               0.000160047              -0.000967726               0.002278058               0.001310332               0.000000000               0.000000000               0.000000000               0.000000000              -0.000355803               0.005553151               0.000112164              -0.000827568               0.002126888               0.001299320               0.000000000               0.000000000               0.000000000               0.000000000              -0.000161634               0.005317778               0.000070307              -0.000725333               0.002014353               0.001289020               0.000000000               0.000000000               0.000000000               0.000000000              -0.000047045               0.005158268               0.000035347              -0.000662424               0.001940213               0.001277789               0.000000000               0.000000000               0.000000000               0.000000000               0.000001422               0.005061251               0.000011018              -0.000632121               0.001897774               0.001265652               0.000000000               0.000000000               0.000000000               0.000000000               0.000010329               0.005010542               0.000000378              -0.000622443               0.001877645               0.001255202               0.000000000               0.000000000               0.000000000               0.000000000               0.000007789               0.004993708              -0.000002258              -0.000621291               0.001871650               0.001250359               0.000000000               0.000000000               0.000000000               0.000000000              -0.001596963               0.004687514               0.001626616              -0.001184798               0.001957421               0.000772623               0.000000000               0.000000000               0.000000000               0.000000000              -0.002775696               0.006414522               0.001859967              -0.001842698               0.002752385               0.000909687               0.000000000               0.000000000               0.000000000               0.000000000              -0.003846732               0.008090513               0.001889569              -0.002453833               0.003514755               0.001060922               0.000000000               0.000000000               0.000000000               0.000000000              -0.003727696               0.008334375               0.001622835              -0.002439677               0.003591323               0.001151646               0.000000000               0.000000000               0.000000000               0.000000000              -0.003333901               0.008147840               0.001358417              -0.002268687               0.003472148               0.001203461               0.000000000               0.000000000               0.000000000               0.000000000              -0.002885358               0.007835989               0.001129936              -0.002061503               0.003299138               0.001237635               0.000000000               0.000000000               0.000000000               0.000000000              -0.002417642               0.007466467               0.000937823              -0.001839920               0.003102104               0.001262184               0.000000000               0.000000000               0.000000000               0.000000000              -0.001927878               0.007073546               0.000775591              -0.001607144               0.002893540               0.001286396               0.000000000               0.000000000               0.000000000               0.000000000              -0.001450843               0.006678081               0.000635534              -0.001378823               0.002685612               0.001306790               0.000000000               0.000000000               0.000000000               0.000000000              -0.001026561               0.006298704               0.000513273              -0.001172296               0.002490312               0.001318016               0.000000000               0.000000000               0.000000000               0.000000000              -0.000668115               0.005950156               0.000403911              -0.000994310               0.002314802               0.001320492               0.000000000               0.000000000               0.000000000               0.000000000              -0.000379440               0.005644029               0.000301548              -0.000847792               0.002163921               0.001316130               0.000000000               0.000000000               0.000000000               0.000000000              -0.000159834               0.005402597               0.000203489              -0.000735260               0.002045935               0.001310674               0.000000000               0.000000000               0.000000000               0.000000000              -0.000019213               0.005225765               0.000115284              -0.000660424               0.001962046               0.001301622               0.000000000               0.000000000               0.000000000               0.000000000               0.000045741               0.005106892               0.000051043              -0.000621207               0.001909349               0.001288142               0.000000000               0.000000000               0.000000000               0.000000000               0.000058748               0.005036486               0.000015222              -0.000607529               0.001881321               0.001273793               0.000000000               0.000000000               0.000000000               0.000000000               0.000052996               0.005009361               0.000003190              -0.000606295               0.001871869               0.001265573               0.000000000               0.000000000               0.000000000               0.000000000              -0.003314819               0.002797101               0.000703351              -0.001592692               0.001463254              -0.000129438               0.000000000               0.000000000               0.000000000               0.000000000              -0.003602431               0.004776919               0.001620317              -0.001948022               0.002241630               0.000293608               0.000000000               0.000000000               0.000000000               0.000000000              -0.004152584               0.006686213               0.002274172              -0.002392990               0.003026378               0.000633388               0.000000000               0.000000000               0.000000000               0.000000000              -0.003899891               0.007301519               0.002172371              -0.002375144               0.003225529               0.000850385               0.000000000               0.000000000               0.000000000               0.000000000              -0.003451751               0.007416597               0.001921813              -0.002221476               0.003212666               0.000991190               0.000000000               0.000000000               0.000000000               0.000000000              -0.002983619               0.007328533               0.001666485              -0.002034919               0.003121126               0.001086207               0.000000000               0.000000000               0.000000000               0.000000000              -0.002521834               0.007144195               0.001436223              -0.001838708               0.002994277               0.001155569               0.000000000               0.000000000               0.000000000               0.000000000              -0.002051992               0.006900843               0.001231863              -0.001632099               0.002844291               0.001212192               0.000000000               0.000000000               0.000000000               0.000000000              -0.001578532               0.006619563               0.001046827              -0.001419392               0.002679629               0.001260238               0.000000000               0.000000000               0.000000000               0.000000000              -0.001133076               0.006323479               0.000878470              -0.001215336               0.002512917               0.001297581               0.000000000               0.000000000               0.000000000               0.000000000              -0.000740066               0.006030230               0.000722771              -0.001031301               0.002353824               0.001322522               0.000000000               0.000000000               0.000000000               0.000000000              -0.000406049               0.005753964               0.000575685              -0.000871512               0.002208473               0.001336961               0.000000000               0.000000000               0.000000000               0.000000000              -0.000136606               0.005513863               0.000429193              -0.000740458               0.002084755               0.001344297               0.000000000               0.000000000               0.000000000               0.000000000               0.000057936               0.005318210               0.000282105              -0.000643049               0.001987068               0.001344020               0.000000000               0.000000000               0.000000000               0.000000000               0.000164906               0.005169035               0.000155442              -0.000584288               0.001917757               0.001333469               0.000000000               0.000000000               0.000000000               0.000000000               0.000190424               0.005064110               0.000063838              -0.000561603               0.001875221               0.001313618               0.000000000               0.000000000               0.000000000               0.000000000               0.000176313               0.005016999               0.000024476              -0.000561006               0.001859318               0.001298312               0.000000000               0.000000000               0.000000000               0.000000000              -0.005301709               0.001247080              -0.000120768              -0.002144023               0.001130360              -0.001013663               0.000000000               0.000000000               0.000000000               0.000000000              -0.004576583               0.003236511               0.001294427              -0.002120779               0.001785751              -0.000335028               0.000000000               0.000000000               0.000000000               0.000000000              -0.004401472               0.005107577               0.002442448              -0.002288995               0.002465506               0.000176511               0.000000000               0.000000000               0.000000000               0.000000000              -0.003941236               0.005984194               0.002544527              -0.002225983               0.002736705               0.000510722               0.000000000               0.000000000               0.000000000               0.000000000              -0.003425319               0.006371994               0.002356898              -0.002080989               0.002817639               0.000736650               0.000000000               0.000000000               0.000000000               0.000000000              -0.002933907               0.006517344               0.002111255              -0.001914879               0.002810719               0.000895840               0.000000000               0.000000000               0.000000000               0.000000000              -0.002475414               0.006533195               0.001873228              -0.001744926               0.002759351               0.001014426               0.000000000               0.000000000               0.000000000               0.000000000              -0.002028194               0.006463691               0.001654433              -0.001568531               0.002677385               0.001108855               0.000000000               0.000000000               0.000000000               0.000000000              -0.001576533               0.006330826               0.001449110              -0.001382550               0.002571104               0.001188554               0.000000000               0.000000000               0.000000000               0.000000000              -0.001131190               0.006152259               0.001253325              -0.001193226               0.002448474               0.001255248               0.000000000               0.000000000               0.000000000               0.000000000              -0.000715944               0.005952004               0.001069277              -0.001012477               0.002321474               0.001308997               0.000000000               0.000000000               0.000000000               0.000000000              -0.000339865               0.005749457               0.000891652              -0.000846130               0.002198510               0.001352380               0.000000000               0.000000000               0.000000000               0.000000000              -0.000022633               0.005548753               0.000706557              -0.000702080               0.002083592               0.001381513               0.000000000               0.000000000               0.000000000               0.000000000               0.000224550               0.005362414               0.000510257              -0.000586094               0.001982818               0.001396724               0.000000000               0.000000000               0.000000000               0.000000000               0.000389914               0.005207512               0.000317866              -0.000504720               0.001904060               0.001399340               0.000000000               0.000000000               0.000000000               0.000000000               0.000455072               0.005089576               0.000148330              -0.000465544               0.001851690               0.001386146               0.000000000               0.000000000               0.000000000               0.000000000               0.000447848               0.005033867               0.000067539              -0.000461289               0.001831702               0.001370413               0.000000000               0.000000000               0.000000000               0.000000000              -0.007415424               0.000125293              -0.000730314              -0.002796443               0.000973905              -0.001822538               0.000000000               0.000000000               0.000000000               0.000000000              -0.005642469               0.001879910               0.000931923              -0.002350911               0.001410264              -0.000940647               0.000000000               0.000000000               0.000000000               0.000000000              -0.004620077               0.003484851               0.002364173              -0.002168131               0.001884314              -0.000283818               0.000000000               0.000000000               0.000000000               0.000000000              -0.003871198               0.004480861               0.002644794              -0.002011803               0.002164205               0.000152402               0.000000000               0.000000000               0.000000000               0.000000000              -0.003255873               0.005077859               0.002550420              -0.001855681               0.002311162               0.000455481               0.000000000               0.000000000               0.000000000               0.000000000              -0.002733740               0.005440859               0.002348476              -0.001705257               0.002382020               0.000676763               0.000000000               0.000000000               0.000000000               0.000000000              -0.002268981               0.005660158               0.002134069              -0.001558385               0.002406161               0.000847777               0.000000000               0.000000000               0.000000000               0.000000000              -0.001834967               0.005776201               0.001931321              -0.001410135               0.002395426               0.000985291               0.000000000               0.000000000               0.000000000               0.000000000              -0.001411244               0.005806698               0.001734424              -0.001255051               0.002353897               0.001098845               0.000000000               0.000000000               0.000000000               0.000000000              -0.000988781               0.005771855               0.001537998              -0.001092273               0.002288023               0.001195750               0.000000000               0.000000000               0.000000000               0.000000000              -0.000569332               0.005697755               0.001350381              -0.000925717               0.002207805               0.001282088               0.000000000               0.000000000               0.000000000               0.000000000              -0.000169316               0.005596608               0.001163636              -0.000763068               0.002119873               0.001356805               0.000000000               0.000000000               0.000000000               0.000000000               0.000195139               0.005472605               0.000961961              -0.000610897               0.002027816               0.001416918               0.000000000               0.000000000               0.000000000               0.000000000               0.000509536               0.005336216               0.000742768              -0.000475950               0.001937371               0.001461421               0.000000000               0.000000000               0.000000000               0.000000000               0.000756618               0.005203479               0.000506232              -0.000366702               0.001856710               0.001490007               0.000000000               0.000000000               0.000000000               0.000000000               0.000907362               0.005094251               0.000257154              -0.000296520               0.001796907               0.001500387               0.000000000               0.000000000               0.000000000               0.000000000               0.000949112               0.005045873               0.000129994              -0.000274816               0.001773546               0.001498730               0.000000000               0.000000000               0.000000000               0.000000000              -0.009448211              -0.000583659              -0.001021903              -0.003470119               0.000962147              -0.002507973               0.000000000               0.000000000               0.000000000               0.000000000              -0.006699364               0.000779397               0.000590715              -0.002609683               0.001129685              -0.001479998               0.000000000               0.000000000               0.000000000               0.000000000              -0.004820422               0.001967326               0.002037828              -0.002053571               0.001340289              -0.000713282               0.000000000               0.000000000               0.000000000               0.000000000              -0.003738296               0.002962693               0.002416603              -0.001772195               0.001578284              -0.000193911               0.000000000               0.000000000               0.000000000               0.000000000              -0.002993894               0.003701854               0.002408040              -0.001585439               0.001762417               0.000176978               0.000000000               0.000000000               0.000000000               0.000000000              -0.002420693               0.004239196               0.002271368              -0.001437657               0.001892269               0.000454612               0.000000000               0.000000000               0.000000000               0.000000000              -0.001943259               0.004630809               0.002106438              -0.001307571               0.001979444               0.000671873               0.000000000               0.000000000               0.000000000               0.000000000              -0.001517576               0.004913457               0.001941441              -0.001183271               0.002032226               0.000848954               0.000000000               0.000000000               0.000000000               0.000000000              -0.001114742               0.005101725               0.001776233              -0.001055742               0.002052471               0.000996729               0.000000000               0.000000000               0.000000000               0.000000000              -0.000713083               0.005216081               0.001609895              -0.000919415               0.002045148               0.001125733               0.000000000               0.000000000               0.000000000               0.000000000              -0.000303328               0.005279144               0.001445400              -0.000773640               0.002017577               0.001243937               0.000000000               0.000000000               0.000000000               0.000000000               0.000109086               0.005304222               0.001275497              -0.000622120               0.001975429               0.001353310               0.000000000               0.000000000               0.000000000               0.000000000               0.000519093               0.005292336               0.001090606              -0.000466881               0.001919721               0.001452840               0.000000000               0.000000000               0.000000000               0.000000000               0.000914129               0.005244240               0.000882224              -0.000312731               0.001852306               0.001539575               0.000000000               0.000000000               0.000000000               0.000000000               0.001272069               0.005165534               0.000637226              -0.000168666               0.001778049               0.001609384               0.000000000               0.000000000               0.000000000               0.000000000               0.001567426               0.005080218               0.000342983              -0.000047243               0.001709137               0.001661894               0.000000000               0.000000000               0.000000000               0.000000000               0.001726218               0.005052165               0.000188287               0.000015810               0.001678768               0.001694578               0.000000000               0.000000000               0.000000000               0.000000000              -0.011155979              -0.000969824              -0.000951333              -0.004062262               0.001030806              -0.003031456               0.000000000               0.000000000               0.000000000               0.000000000              -0.007614754              -0.000020597               0.000318540              -0.002852956               0.000944113              -0.001908843               0.000000000               0.000000000               0.000000000               0.000000000              -0.004995148               0.000733262               0.001491937              -0.001964836               0.000899359              -0.001065477               0.000000000               0.000000000               0.000000000               0.000000000              -0.003594454               0.001655066               0.001852280              -0.001554801               0.001069947              -0.000484854               0.000000000               0.000000000               0.000000000               0.000000000              -0.002715198               0.002460728               0.001894740              -0.001325788               0.001262162              -0.000063625               0.000000000               0.000000000               0.000000000               0.000000000              -0.002082509               0.003110918               0.001820139              -0.001169804               0.001426896               0.000257092               0.000000000               0.000000000               0.000000000               0.000000000              -0.001584471               0.003628507               0.001711044              -0.001047738               0.001558736               0.000510997               0.000000000               0.000000000               0.000000000               0.000000000              -0.001161106               0.004040120               0.001597866              -0.000940428               0.001660169               0.000719740               0.000000000               0.000000000               0.000000000               0.000000000              -0.000767707               0.004359174               0.001484462              -0.000832786               0.001730638               0.000897853               0.000000000               0.000000000               0.000000000               0.000000000              -0.000375979               0.004604168               0.001366603              -0.000716512               0.001773544               0.001057032               0.000000000               0.000000000               0.000000000               0.000000000               0.000025037               0.004792999               0.001244972              -0.000589735               0.001794229               0.001204493               0.000000000               0.000000000               0.000000000               0.000000000               0.000444640               0.004935916               0.001118666              -0.000450249               0.001795372               0.001345123               0.000000000               0.000000000               0.000000000               0.000000000               0.000892732               0.005039815               0.000979592              -0.000295202               0.001778322               0.001483120               0.000000000               0.000000000               0.000000000               0.000000000               0.001365353               0.005097902               0.000815186              -0.000125231               0.001741027               0.001615797               0.000000000               0.000000000               0.000000000               0.000000000               0.001852697               0.005098093               0.000608382               0.000057499               0.001680181               0.001737680               0.000000000               0.000000000               0.000000000               0.000000000               0.002350737               0.005055588               0.000338538               0.000249575               0.001601987               0.001851563               0.000000000               0.000000000               0.000000000               0.000000000               0.002697532               0.005062688               0.000197649               0.000378735               0.001561301               0.001940036               0.000000000               0.000000000               0.000000000               0.000000000              -0.012302151              -0.001142926              -0.000565647              -0.004470438               0.001109163              -0.003361275               0.000000000               0.000000000               0.000000000               0.000000000              -0.008248037              -0.000500873               0.000132043              -0.003030403               0.000843171              -0.002187232               0.000000000               0.000000000               0.000000000               0.000000000              -0.005122406              -0.000069535               0.000788106              -0.001912209               0.000614220              -0.001297989               0.000000000               0.000000000               0.000000000               0.000000000              -0.003484233               0.000765011               0.001007745              -0.001402212               0.000722402              -0.000679810               0.000000000               0.000000000               0.000000000               0.000000000              -0.002500678               0.001587592               0.001048063              -0.001136201               0.000907925              -0.000228277               0.000000000               0.000000000               0.000000000               0.000000000              -0.001824733               0.002296216               0.001018674              -0.000971300               0.001089164               0.000117864               0.000000000               0.000000000               0.000000000               0.000000000              -0.001304830               0.002884992               0.000965673              -0.000849933               0.001244965               0.000395032               0.000000000               0.000000000               0.000000000               0.000000000              -0.000869515               0.003375249               0.000909151              -0.000747973               0.001374396               0.000626423               0.000000000               0.000000000               0.000000000               0.000000000              -0.000479425               0.003777670               0.000852920              -0.000651992               0.001476541               0.000824549               0.000000000               0.000000000               0.000000000               0.000000000              -0.000099552               0.004109406               0.000791020              -0.000551007               0.001553457               0.001002450               0.000000000               0.000000000               0.000000000               0.000000000               0.000296273               0.004385212               0.000724575              -0.000437049               0.001607406               0.001170357               0.000000000               0.000000000               0.000000000               0.000000000               0.000724548               0.004614911               0.000657496              -0.000305158               0.001640008               0.001334850               0.000000000               0.000000000               0.000000000               0.000000000               0.001200177               0.004808221               0.000583787              -0.000150961               0.001653045               0.001502083               0.000000000               0.000000000               0.000000000               0.000000000               0.001731761               0.004949252               0.000491720               0.000030753               0.001639483               0.001670236               0.000000000               0.000000000               0.000000000               0.000000000               0.002330627               0.005022150               0.000372390               0.000246214               0.001591962               0.001838176               0.000000000               0.000000000               0.000000000               0.000000000               0.003017874               0.005028935               0.000210199               0.000503081               0.001508601               0.002011682               0.000000000               0.000000000               0.000000000               0.000000000               0.003547985               0.005073157               0.000126426               0.000696343               0.001458921               0.002155264               0.000000000               0.000000000               0.000000000               0.000000000              -0.012707100              -0.001188426              -0.000000000              -0.004616606               0.001142719              -0.003473887               0.000000000               0.000000000               0.000000000               0.000000000              -0.008476375              -0.000659656              -0.000000000              -0.003096182               0.000812170              -0.002284012               0.000000000               0.000000000               0.000000000               0.000000000              -0.005170534              -0.000348510               0.000000000              -0.001895385               0.000515622              -0.001379764               0.000000000               0.000000000               0.000000000               0.000000000              -0.003443652               0.000448018               0.000000000              -0.001347370               0.000598459              -0.000748912               0.000000000               0.000000000               0.000000000               0.000000000              -0.002421140               0.001271998               0.000000000              -0.001066925               0.000779636              -0.000287290               0.000000000               0.000000000               0.000000000               0.000000000              -0.001726163               0.002000459               0.000000000              -0.000897367               0.000965935               0.000068568               0.000000000               0.000000000               0.000000000               0.000000000              -0.001196934               0.002611352               0.000000000              -0.000775267               0.001128864               0.000353597               0.000000000               0.000000000               0.000000000               0.000000000              -0.000754212               0.003122429               0.000000000              -0.000673132               0.001265176               0.000592045               0.000000000               0.000000000               0.000000000               0.000000000              -0.000366525               0.003549939              -0.000000000              -0.000581188               0.001377030               0.000795843               0.000000000               0.000000000               0.000000000               0.000000000               0.000005879               0.003914299               0.000000000              -0.000487082               0.001467114               0.000980032               0.000000000               0.000000000               0.000000000               0.000000000               0.000398683               0.004224513               0.000000000              -0.000378557               0.001534342               0.001155785               0.000000000               0.000000000               0.000000000               0.000000000               0.000831766               0.004486740              -0.000000000              -0.000248930               0.001578542               0.001329612               0.000000000               0.000000000               0.000000000               0.000000000               0.001318023               0.004712523               0.000000000              -0.000094807               0.001602427               0.001507621               0.000000000               0.000000000               0.000000000               0.000000000               0.001873384               0.004884518               0.000000000               0.000091953               0.001597505               0.001689458               0.000000000               0.000000000               0.000000000               0.000000000               0.002517850               0.004982959              -0.000000000               0.000321321               0.001553863               0.001875183               0.000000000               0.000000000               0.000000000               0.000000000               0.003281824               0.005010693              -0.000000000               0.000604341               0.001468767               0.002073108               0.000000000               0.000000000               0.000000000               0.000000000               0.003887756               0.005073286               0.000000000               0.000823739               0.001416499               0.002240238               0.000000000               0.000000000               0.000000000               0.000000000               0.002246677               0.024423344               0.000000000              -0.002210409               0.008877836               0.006667428               0.000000000               0.000000000               0.000000000               0.000000000               0.002188172               0.018974119              -0.000000000              -0.001551196               0.006841708               0.005290512               0.000000000               0.000000000               0.000000000               0.000000000               0.002849232               0.014529993              -0.000000000              -0.000747785               0.005092544               0.004344759               0.000000000               0.000000000               0.000000000               0.000000000               0.002696965               0.011994530              -0.000000000              -0.000487953               0.004160788               0.003672835               0.000000000               0.000000000               0.000000000               0.000000000               0.002317403               0.010390704              -0.000000000              -0.000429811               0.003606804               0.003176993               0.000000000               0.000000000               0.000000000               0.000000000               0.001900830               0.009280249              -0.000000000              -0.000447219               0.003242458               0.002795239               0.000000000               0.000000000               0.000000000               0.000000000               0.001512944               0.008465574               0.000000000              -0.000490842               0.002985444               0.002494602               0.000000000               0.000000000               0.000000000               0.000000000               0.001163312               0.007818426               0.000000000              -0.000541060               0.002786469               0.002245409               0.000000000               0.000000000               0.000000000               0.000000000               0.000856484               0.007267525              -0.000000000              -0.000587258               0.002618237               0.002030979               0.000000000               0.000000000               0.000000000               0.000000000               0.000598994               0.006774951               0.000000000              -0.000622245               0.002465709               0.001843465               0.000000000               0.000000000               0.000000000               0.000000000               0.000380176               0.006308554              -0.000000000              -0.000646002               0.002318164               0.001672163               0.000000000               0.000000000               0.000000000               0.000000000               0.000196895               0.005845234               0.000000000              -0.000656817               0.002167331               0.001510514               0.000000000               0.000000000               0.000000000               0.000000000               0.000053685               0.005360894               0.000000000              -0.000649978               0.002003606               0.001353628               0.000000000               0.000000000               0.000000000               0.000000000              -0.000041826               0.004828683               0.000000000              -0.000619269               0.001815968               0.001196699               0.000000000               0.000000000               0.000000000               0.000000000              -0.000078577               0.004231035              -0.000000000              -0.000558344               0.001596446               0.001038101               0.000000000               0.000000000               0.000000000               0.000000000              -0.000055347               0.003551450              -0.000000000              -0.000464685               0.001338700               0.000874015               0.000000000               0.000000000               0.000000000               0.000000000              -0.000085605               0.003029404               0.000000000              -0.000410776               0.001146717               0.000735940               0.000000000               0.000000000               0.000000000               0.000000000               0.002323567               0.023913794              -0.001655956              -0.002117882               0.008677145               0.006559264               0.000000000               0.000000000               0.000000000               0.000000000               0.002138943               0.018647725              -0.000805911              -0.001528858               0.006725466               0.005196607               0.000000000               0.000000000               0.000000000               0.000000000               0.002662831               0.014392487               0.000030723              -0.000800497               0.005064280               0.004263783               0.000000000               0.000000000               0.000000000               0.000000000               0.002458397               0.011959188               0.000377477              -0.000572998               0.004177356               0.003604357               0.000000000               0.000000000               0.000000000               0.000000000               0.002066213               0.010410007               0.000516568              -0.000526420               0.003645441               0.003119021               0.000000000               0.000000000               0.000000000               0.000000000               0.001653564               0.009331368               0.000565593              -0.000546333               0.003292536               0.002746203               0.000000000               0.000000000               0.000000000               0.000000000               0.001277978               0.008527104               0.000572626              -0.000586645               0.003037888               0.002451243               0.000000000               0.000000000               0.000000000               0.000000000               0.000952262               0.007885279               0.000554371              -0.000628560               0.002837920               0.002209360               0.000000000               0.000000000               0.000000000               0.000000000               0.000671422               0.007335304               0.000526422              -0.000665128               0.002666786               0.002001658               0.000000000               0.000000000               0.000000000               0.000000000               0.000440067               0.006837596               0.000494638              -0.000689673               0.002509067               0.001819394               0.000000000               0.000000000               0.000000000               0.000000000               0.000251679               0.006362977               0.000462023              -0.000700991               0.002354635               0.001653644               0.000000000               0.000000000               0.000000000               0.000000000               0.000098998               0.005889227               0.000427125              -0.000699028               0.002196065               0.001497038               0.000000000               0.000000000               0.000000000               0.000000000              -0.000011519               0.005398905               0.000380843              -0.000679181               0.002026011               0.001346830               0.000000000               0.000000000               0.000000000               0.000000000              -0.000077635               0.004871968               0.000318647              -0.000638108               0.001836676               0.001198568               0.000000000               0.000000000               0.000000000               0.000000000              -0.000095660               0.004295445               0.000239963              -0.000572802               0.001622735               0.001049933               0.000000000               0.000000000               0.000000000               0.000000000              -0.000061764               0.003659546               0.000136157              -0.000480603               0.001380038               0.000899434               0.000000000               0.000000000               0.000000000               0.000000000              -0.000084706               0.003180541               0.000087911              -0.000429331               0.001203280               0.000773949               0.000000000               0.000000000               0.000000000               0.000000000               0.002506668               0.022451981              -0.003075393              -0.001866494               0.008106083               0.006239589               0.000000000               0.000000000               0.000000000               0.000000000               0.001974896               0.017715116              -0.001500247              -0.001473800               0.006396246               0.004922446               0.000000000               0.000000000               0.000000000               0.000000000               0.002126261               0.013997375               0.000037450              -0.000952321               0.004983185               0.004030864               0.000000000               0.000000000               0.000000000               0.000000000               0.001788579               0.011842076               0.000654149              -0.000809540               0.004217166               0.003407626               0.000000000               0.000000000               0.000000000               0.000000000               0.001375456               0.010438223               0.000894051              -0.000788980               0.003742366               0.002953386               0.000000000               0.000000000               0.000000000               0.000000000               0.000991830               0.009435127               0.000973219              -0.000807453               0.003414162               0.002606709               0.000000000               0.000000000               0.000000000               0.000000000               0.000660333               0.008662356               0.000981610              -0.000835168               0.003165812               0.002330644               0.000000000               0.000000000               0.000000000               0.000000000               0.000388487               0.008029456               0.000950416              -0.000857998               0.002962458               0.002104460               0.000000000               0.000000000               0.000000000               0.000000000               0.000172358               0.007476219               0.000900691              -0.000869891               0.002782012               0.001912120               0.000000000               0.000000000               0.000000000               0.000000000               0.000014956               0.006965434               0.000844724              -0.000865069               0.002610144               0.001745075               0.000000000               0.000000000               0.000000000               0.000000000              -0.000089201               0.006471350               0.000787536              -0.000842367               0.002437884               0.001595517               0.000000000               0.000000000               0.000000000               0.000000000              -0.000152830               0.005980297               0.000726900              -0.000804847               0.002261695               0.001456848               0.000000000               0.000000000               0.000000000               0.000000000              -0.000183993               0.005484366               0.000647877              -0.000754542               0.002079618               0.001325076               0.000000000               0.000000000               0.000000000               0.000000000              -0.000181553               0.004981608               0.000541433              -0.000690782               0.001890780               0.001199998               0.000000000               0.000000000               0.000000000               0.000000000              -0.000146372               0.004471734               0.000406699              -0.000613855               0.001695181               0.001081327               0.000000000               0.000000000               0.000000000               0.000000000              -0.000083122               0.003953959               0.000229583              -0.000525414               0.001493111               0.000967697               0.000000000               0.000000000               0.000000000               0.000000000              -0.000085537               0.003589200               0.000144320              -0.000480725               0.001356630               0.000875905               0.000000000               0.000000000               0.000000000               0.000000000               0.002677228               0.020229790              -0.004076192              -0.001524762               0.007251449               0.005726687               0.000000000               0.000000000               0.000000000               0.000000000               0.001660894               0.016312448              -0.002000512              -0.001416218               0.005909501               0.004493282               0.000000000               0.000000000               0.000000000               0.000000000               0.001299397               0.013404201               0.000001037              -0.001188248               0.004864105               0.003675857               0.000000000               0.000000000               0.000000000               0.000000000               0.000813333               0.011636176               0.000763150              -0.001149520               0.004261860               0.003112340               0.000000000               0.000000000               0.000000000               0.000000000               0.000399252               0.010419192               0.001044116              -0.001152677               0.003857255               0.002704578               0.000000000               0.000000000               0.000000000               0.000000000               0.000075822               0.009505229               0.001131912              -0.001159718               0.003554950               0.002395233               0.000000000               0.000000000               0.000000000               0.000000000              -0.000169153               0.008775822               0.001138416              -0.001160407               0.003312047               0.002151640               0.000000000               0.000000000               0.000000000               0.000000000              -0.000342893               0.008153329               0.001101166              -0.001147748               0.003100332               0.001952584               0.000000000               0.000000000               0.000000000               0.000000000              -0.000451375               0.007590519               0.001043529              -0.001118078               0.002902840               0.001784762               0.000000000               0.000000000               0.000000000               0.000000000              -0.000498373               0.007059485               0.000976073              -0.001069323               0.002709579               0.001640256               0.000000000               0.000000000               0.000000000               0.000000000              -0.000491704               0.006546045               0.000905518              -0.001002643               0.002516207               0.001513565               0.000000000               0.000000000               0.000000000               0.000000000              -0.000447470               0.006045353               0.000830296              -0.000923468               0.002322920               0.001399452               0.000000000               0.000000000               0.000000000               0.000000000              -0.000380935               0.005561214               0.000734184              -0.000838000               0.002133053               0.001295052               0.000000000               0.000000000               0.000000000               0.000000000              -0.000295245               0.005106073               0.000608418              -0.000748974               0.001951665               0.001202691               0.000000000               0.000000000               0.000000000               0.000000000              -0.000198267               0.004690373               0.000449107              -0.000660645               0.001783657               0.001123012               0.000000000               0.000000000               0.000000000               0.000000000              -0.000099707               0.004325423               0.000246868              -0.000578067               0.001634482               0.001056415               0.000000000               0.000000000               0.000000000               0.000000000              -0.000073074               0.004106713               0.000146291              -0.000540740               0.001549137               0.001008397               0.000000000               0.000000000               0.000000000               0.000000000               0.002690067               0.017522036              -0.004570129              -0.001181480               0.006234446               0.005052966               0.000000000               0.000000000               0.000000000               0.000000000               0.001174736               0.014634003              -0.002278467              -0.001388722               0.005340859               0.003952137               0.000000000               0.000000000               0.000000000               0.000000000               0.000279878               0.012690041              -0.000101256              -0.001481297               0.004723737               0.003242440               0.000000000               0.000000000               0.000000000               0.000000000              -0.000308585               0.011338527               0.000677177              -0.001533032               0.004290482               0.002757450               0.000000000               0.000000000               0.000000000               0.000000000              -0.000667822               0.010308843               0.000952325              -0.001539035               0.003949258               0.002410223               0.000000000               0.000000000               0.000000000               0.000000000              -0.000881715               0.009483214               0.001038356              -0.001516041               0.003666387               0.002150345               0.000000000               0.000000000               0.000000000               0.000000000              -0.001001694               0.008787148               0.001045965              -0.001474025               0.003420362               0.001946336               0.000000000               0.000000000               0.000000000               0.000000000              -0.001044574               0.008164275               0.001010474              -0.001412246               0.003192146               0.001779900               0.000000000               0.000000000               0.000000000               0.000000000              -0.001022864               0.007583516               0.000954802              -0.001331510               0.002971650               0.001640140               0.000000000               0.000000000               0.000000000               0.000000000              -0.000943586               0.007037370               0.000887751              -0.001233513               0.002756938               0.001523424               0.000000000               0.000000000               0.000000000               0.000000000              -0.000821536               0.006522267               0.000813128              -0.001123357               0.002548519               0.001425163               0.000000000               0.000000000               0.000000000               0.000000000              -0.000678656               0.006036628               0.000730848              -0.001009072               0.002348547               0.001339474               0.000000000               0.000000000               0.000000000               0.000000000              -0.000524606               0.005589848               0.000631102              -0.000895456               0.002161749               0.001266293               0.000000000               0.000000000               0.000000000               0.000000000              -0.000367207               0.005199655               0.000507335              -0.000787658               0.001995753               0.001208096               0.000000000               0.000000000               0.000000000               0.000000000              -0.000222238               0.004880937               0.000356354              -0.000693455               0.001858114               0.001164660               0.000000000               0.000000000               0.000000000               0.000000000              -0.000100788               0.004651158               0.000183140              -0.000619189               0.001756767               0.001137578               0.000000000               0.000000000               0.000000000               0.000000000              -0.000055370               0.004545796               0.000098879              -0.000588987               0.001711579               0.001122592               0.000000000               0.000000000               0.000000000               0.000000000               0.002428414               0.014606399              -0.004569611              -0.000915146               0.005173799               0.004258652               0.000000000               0.000000000               0.000000000               0.000000000               0.000519472               0.012852488              -0.002363227              -0.001411757               0.004754705               0.003342948               0.000000000               0.000000000               0.000000000               0.000000000              -0.000811221               0.011897670              -0.000292794              -0.001791412               0.004562988               0.002771576               0.000000000               0.000000000               0.000000000               0.000000000              -0.001403104               0.010933986               0.000405449              -0.001892908               0.004275595               0.002382687               0.000000000               0.000000000               0.000000000               0.000000000              -0.001643122               0.010066949               0.000649747              -0.001874535               0.003980461               0.002105926               0.000000000               0.000000000               0.000000000               0.000000000              -0.001712654               0.009309863               0.000734029              -0.001805974               0.003705248               0.001899274               0.000000000               0.000000000               0.000000000               0.000000000              -0.001680533               0.008637824               0.000752073              -0.001709924               0.003449220               0.001739297               0.000000000               0.000000000               0.000000000               0.000000000              -0.001571637               0.008013017               0.000731585              -0.001590987               0.003201308               0.001610321               0.000000000               0.000000000               0.000000000               0.000000000              -0.001407513               0.007428901               0.000693709              -0.001456426               0.002961751               0.001505324               0.000000000               0.000000000               0.000000000               0.000000000              -0.001204746               0.006889656               0.000643576              -0.001312984               0.002734190               0.001421207               0.000000000               0.000000000               0.000000000               0.000000000              -0.000986511               0.006396992               0.000580641              -0.001169563               0.002522164               0.001352601               0.000000000               0.000000000               0.000000000               0.000000000              -0.000769658               0.005953845               0.000505482              -0.001032850               0.002328878               0.001296029               0.000000000               0.000000000               0.000000000               0.000000000              -0.000560797               0.005566137               0.000417169              -0.000906064               0.002157382               0.001251318               0.000000000               0.000000000               0.000000000               0.000000000              -0.000369642               0.005249505               0.000316935              -0.000794802               0.002014752               0.001219950               0.000000000               0.000000000               0.000000000               0.000000000              -0.000210869               0.005015959               0.000205524              -0.000706069               0.001907326               0.001201257               0.000000000               0.000000000               0.000000000               0.000000000              -0.000089327               0.004873325               0.000094741              -0.000642661               0.001838646               0.001195984               0.000000000               0.000000000               0.000000000               0.000000000              -0.000043778               0.004818648               0.000046126              -0.000618746               0.001812449               0.001193702               0.000000000               0.000000000               0.000000000               0.000000000               0.001815170               0.011726189              -0.004158044              -0.000785087               0.004170385               0.003385298               0.000000000               0.000000000               0.000000000               0.000000000              -0.000276852               0.011104350              -0.002311143              -0.001491861               0.004198699               0.002706838               0.000000000               0.000000000               0.000000000               0.000000000              -0.001854050               0.011051065              -0.000579161              -0.002076647               0.004375867               0.002299220               0.000000000               0.000000000               0.000000000               0.000000000              -0.002334109               0.010407707              -0.000012581              -0.002176249               0.004194617               0.002018369               0.000000000               0.000000000               0.000000000               0.000000000              -0.002402285               0.009676273               0.000201913              -0.002110386               0.003928854               0.001818468               0.000000000               0.000000000               0.000000000               0.000000000              -0.002302929               0.008987129               0.000303047              -0.001986984               0.003658008               0.001671023               0.000000000               0.000000000               0.000000000               0.000000000              -0.002111494               0.008347078               0.000349387              -0.001835190               0.003394062               0.001558871               0.000000000               0.000000000               0.000000000               0.000000000              -0.001851978               0.007737673               0.000359888              -0.001661697               0.003133097               0.001471401               0.000000000               0.000000000               0.000000000               0.000000000              -0.001558090               0.007173640               0.000356078              -0.001480985               0.002884851               0.001403866               0.000000000               0.000000000               0.000000000               0.000000000              -0.001253891               0.006664118               0.000337042              -0.001303221               0.002655757               0.001352537               0.000000000               0.000000000               0.000000000               0.000000000              -0.000966057               0.006210028               0.000302185              -0.001138522               0.002449496               0.001310974               0.000000000               0.000000000               0.000000000               0.000000000              -0.000709275               0.005816696               0.000252546              -0.000993063               0.002269900               0.001276837               0.000000000               0.000000000               0.000000000               0.000000000              -0.000483218               0.005493955               0.000194070              -0.000867949               0.002120616               0.001252667               0.000000000               0.000000000               0.000000000               0.000000000              -0.000295260               0.005247578               0.000136475              -0.000766668               0.002004731               0.001238063               0.000000000               0.000000000               0.000000000               0.000000000              -0.000154105               0.005079236               0.000081007              -0.000692692               0.001923959               0.001231267               0.000000000               0.000000000               0.000000000               0.000000000              -0.000059401               0.004982308               0.000033182              -0.000645062               0.001875774               0.001230711               0.000000000               0.000000000               0.000000000               0.000000000              -0.000030490               0.004942613               0.000017050              -0.000629259               0.001857274               0.001228015               0.000000000               0.000000000               0.000000000               0.000000000               0.000868859               0.009054801              -0.003446335              -0.000806029               0.003286912               0.002480883               0.000000000               0.000000000               0.000000000               0.000000000              -0.001174492               0.009493586              -0.002180965              -0.001627130               0.003706873               0.002079743               0.000000000               0.000000000               0.000000000               0.000000000              -0.002754862               0.010172179              -0.000955685              -0.002304590               0.004158889               0.001854299               0.000000000               0.000000000               0.000000000               0.000000000              -0.003017582               0.009774004              -0.000513116              -0.002353338               0.004042415               0.001689077               0.000000000               0.000000000               0.000000000               0.000000000              -0.002883446               0.009168519              -0.000296669              -0.002227352               0.003798593               0.001571241               0.000000000               0.000000000               0.000000000               0.000000000              -0.002612671               0.008560913              -0.000160335              -0.002049861               0.003536896               0.001487035               0.000000000               0.000000000               0.000000000               0.000000000              -0.002275010               0.007964332              -0.000072277              -0.001848666               0.003270973               0.001422307               0.000000000               0.000000000               0.000000000               0.000000000              -0.001887973               0.007394955              -0.000017548              -0.001632355               0.003009079               0.001376724               0.000000000               0.000000000               0.000000000               0.000000000              -0.001492686               0.006871642               0.000024986              -0.001418709               0.002763427               0.001344718               0.000000000               0.000000000               0.000000000               0.000000000              -0.001127320               0.006400063               0.000048252              -0.001222750               0.002540916               0.001318167               0.000000000               0.000000000               0.000000000               0.000000000              -0.000807135               0.005987709               0.000051883              -0.001051137               0.002346262               0.001295125               0.000000000               0.000000000               0.000000000               0.000000000              -0.000537148               0.005645954               0.000046002              -0.000907173               0.002184357               0.001277184               0.000000000               0.000000000               0.000000000               0.000000000              -0.000321875               0.005383158               0.000033946              -0.000793596               0.002058900               0.001265304               0.000000000               0.000000000               0.000000000               0.000000000              -0.000166935               0.005195807               0.000023686              -0.000712075               0.001969277               0.001257202               0.000000000               0.000000000               0.000000000               0.000000000              -0.000070101               0.005074955               0.000015901              -0.000660656               0.001911853               0.001251198               0.000000000               0.000000000               0.000000000               0.000000000              -0.000021228               0.005007647               0.000007293              -0.000633915               0.001880504               0.001246589               0.000000000               0.000000000               0.000000000               0.000000000              -0.000011037               0.004980378               0.000005929              -0.000626685               0.001869004               0.001242320               0.000000000               0.000000000               0.000000000               0.000000000              -0.000264035               0.006784724              -0.002563878              -0.000947103               0.002577252               0.001630149               0.000000000               0.000000000               0.000000000               0.000000000              -0.002045618               0.008053899              -0.002029272              -0.001773841               0.003275886               0.001502045               0.000000000               0.000000000               0.000000000               0.000000000              -0.003448496               0.009308839              -0.001408889              -0.002456785               0.003921843               0.001465058               0.000000000               0.000000000               0.000000000               0.000000000              -0.003472143               0.009169860              -0.001048366              -0.002448280               0.003872683               0.001424403               0.000000000               0.000000000               0.000000000               0.000000000              -0.003163123               0.008720110              -0.000804867              -0.002276179               0.003665401               0.001389221               0.000000000               0.000000000               0.000000000               0.000000000              -0.002757304               0.008215435              -0.000623613              -0.002060913               0.003425422               0.001364509               0.000000000               0.000000000               0.000000000               0.000000000              -0.002303854               0.007688376              -0.000483358              -0.001824988               0.003171096               0.001346108               0.000000000               0.000000000               0.000000000               0.000000000              -0.001822316               0.007174665              -0.000373860              -0.001580198               0.002918264               0.001338066               0.000000000               0.000000000               0.000000000               0.000000000              -0.001363174               0.006693342              -0.000284211              -0.001347855               0.002680377               0.001332522               0.000000000               0.000000000               0.000000000               0.000000000              -0.000962317               0.006250685              -0.000214057              -0.001142202               0.002464275               0.001322073               0.000000000               0.000000000               0.000000000               0.000000000              -0.000625108               0.005866508              -0.000160047              -0.000967726               0.002278058               0.001310332               0.000000000               0.000000000               0.000000000               0.000000000              -0.000355803               0.005553151              -0.000112164              -0.000827568               0.002126888               0.001299320               0.000000000               0.000000000               0.000000000               0.000000000              -0.000161634               0.005317778              -0.000070307              -0.000725333               0.002014353               0.001289020               0.000000000               0.000000000               0.000000000               0.000000000              -0.000047045               0.005158268              -0.000035347              -0.000662424               0.001940213               0.001277789               0.000000000               0.000000000               0.000000000               0.000000000               0.000001422               0.005061251              -0.000011018              -0.000632121               0.001897774               0.001265652               0.000000000               0.000000000               0.000000000               0.000000000               0.000010329               0.005010542              -0.000000378              -0.000622443               0.001877645               0.001255202               0.000000000               0.000000000               0.000000000               0.000000000               0.000007789               0.004993708               0.000002258              -0.000621291               0.001871650               0.001250359               0.000000000               0.000000000               0.000000000               0.000000000              -0.001596963               0.004687514              -0.001626616              -0.001184798               0.001957421               0.000772623               0.000000000               0.000000000               0.000000000               0.000000000              -0.002775696               0.006414522              -0.001859967              -0.001842698               0.002752385               0.000909687               0.000000000               0.000000000               0.000000000               0.000000000              -0.003846732               0.008090513              -0.001889569              -0.002453833               0.003514755               0.001060922               0.000000000               0.000000000               0.000000000               0.000000000              -0.003727696               0.008334375              -0.001622835              -0.002439677               0.003591323               0.001151646               0.000000000               0.000000000               0.000000000               0.000000000              -0.003333901               0.008147840              -0.001358417              -0.002268687               0.003472148               0.001203461               0.000000000               0.000000000               0.000000000               0.000000000              -0.002885358               0.007835989              -0.001129936              -0.002061503               0.003299138               0.001237635               0.000000000               0.000000000               0.000000000               0.000000000              -0.002417642               0.007466467              -0.000937823              -0.001839920               0.003102104               0.001262184               0.000000000               0.000000000               0.000000000               0.000000000              -0.001927878               0.007073546              -0.000775591              -0.001607144               0.002893540               0.001286396               0.000000000               0.000000000               0.000000000               0.000000000              -0.001450843               0.006678081              -0.000635534              -0.001378823               0.002685612               0.001306790               0.000000000               0.000000000               0.000000000               0.000000000              -0.001026561               0.006298704              -0.000513273              -0.001172296               0.002490312               0.001318016               0.000000000               0.000000000               0.000000000               0.000000000              -0.000668115               0.005950156              -0.000403911              -0.000994310               0.002314802               0.001320492               0.000000000               0.000000000               0.000000000               0.000000000              -0.000379440               0.005644029              -0.000301548              -0.000847792               0.002163921               0.001316130               0.000000000               0.000000000               0.000000000               0.000000000              -0.000159834               0.005402597              -0.000203489              -0.000735260               0.002045935               0.001310674               0.000000000               0.000000000               0.000000000               0.000000000              -0.000019213               0.005225765              -0.000115284              -0.000660424               0.001962046               0.001301622               0.000000000               0.000000000               0.000000000               0.000000000               0.000045741               0.005106892              -0.000051043              -0.000621207               0.001909349               0.001288142               0.000000000               0.000000000               0.000000000               0.000000000               0.000058748               0.005036486              -0.000015222              -0.000607529               0.001881321               0.001273793               0.000000000               0.000000000               0.000000000               0.000000000               0.000052996               0.005009361              -0.000003190              -0.000606295               0.001871869               0.001265573               0.000000000               0.000000000               0.000000000               0.000000000              -0.003314819               0.002797101              -0.000703351              -0.001592692               0.001463254              -0.000129438               0.000000000               0.000000000               0.000000000               0.000000000              -0.003602431               0.004776919              -0.001620317              -0.001948022               0.002241630               0.000293608               0.000000000               0.000000000               0.000000000               0.000000000              -0.004152584               0.006686213              -0.002274172              -0.002392990               0.003026378               0.000633388               0.000000000               0.000000000               0.000000000               0.000000000              -0.003899891               0.007301519              -0.002172371              -0.002375144               0.003225529               0.000850385               0.000000000               0.000000000               0.000000000               0.000000000              -0.003451751               0.007416597              -0.001921813              -0.002221476               0.003212666               0.000991190               0.000000000               0.000000000               0.000000000               0.000000000              -0.002983619               0.007328533              -0.001666485              -0.002034919               0.003121126               0.001086207               0.000000000               0.000000000               0.000000000               0.000000000              -0.002521834               0.007144195              -0.001436223              -0.001838708               0.002994277               0.001155569               0.000000000               0.000000000               0.000000000               0.000000000              -0.002051992               0.006900843              -0.001231863              -0.001632099               0.002844291               0.001212192               0.000000000               0.000000000               0.000000000               0.000000000              -0.001578532               0.006619563              -0.001046827              -0.001419392               0.002679629               0.001260238               0.000000000               0.000000000               0.000000000               0.000000000              -0.001133076               0.006323479              -0.000878470              -0.001215336               0.002512917               0.001297581               0.000000000               0.000000000               0.000000000               0.000000000              -0.000740066               0.006030230              -0.000722771              -0.001031301               0.002353824               0.001322522               0.000000000               0.000000000               0.000000000               0.000000000              -0.000406049               0.005753964              -0.000575685              -0.000871512               0.002208473               0.001336961               0.000000000               0.000000000               0.000000000               0.000000000              -0.000136606               0.005513863              -0.000429193              -0.000740458               0.002084755               0.001344297               0.000000000               0.000000000               0.000000000               0.000000000               0.000057936               0.005318210              -0.000282105              -0.000643049               0.001987068               0.001344020               0.000000000               0.000000000               0.000000000               0.000000000               0.000164906               0.005169035              -0.000155442              -0.000584288               0.001917757               0.001333469               0.000000000               0.000000000               0.000000000               0.000000000               0.000190424               0.005064110              -0.000063838              -0.000561603               0.001875221               0.001313618               0.000000000               0.000000000               0.000000000               0.000000000               0.000176313               0.005016999              -0.000024476              -0.000561006               0.001859318               0.001298312               0.000000000               0.000000000               0.000000000               0.000000000              -0.005301709               0.001247080               0.000120768              -0.002144023               0.001130360              -0.001013663               0.000000000               0.000000000               0.000000000               0.000000000              -0.004576583               0.003236511              -0.001294427              -0.002120779               0.001785751              -0.000335028               0.000000000               0.000000000               0.000000000               0.000000000              -0.004401472               0.005107577              -0.002442448              -0.002288995               0.002465506               0.000176511               0.000000000               0.000000000               0.000000000               0.000000000              -0.003941236               0.005984194              -0.002544527              -0.002225983               0.002736705               0.000510722               0.000000000               0.000000000               0.000000000               0.000000000              -0.003425319               0.006371994              -0.002356898              -0.002080989               0.002817639               0.000736650               0.000000000               0.000000000               0.000000000               0.000000000              -0.002933907               0.006517344              -0.002111255              -0.001914879               0.002810719               0.000895840               0.000000000               0.000000000               0.000000000               0.000000000              -0.002475414               0.006533195              -0.001873228              -0.001744926               0.002759351               0.001014426               0.000000000               0.000000000               0.000000000               0.000000000              -0.002028194               0.006463691              -0.001654433              -0.001568531               0.002677385               0.001108855               0.000000000               0.000000000               0.000000000               0.000000000              -0.001576533               0.006330826              -0.001449110              -0.001382550               0.002571104               0.001188554               0.000000000               0.000000000               0.000000000               0.000000000              -0.001131190               0.006152259              -0.001253325              -0.001193226               0.002448474               0.001255248               0.000000000               0.000000000               0.000000000               0.000000000              -0.000715944               0.005952004              -0.001069277              -0.001012477               0.002321474               0.001308997               0.000000000               0.000000000               0.000000000               0.000000000              -0.000339865               0.005749457              -0.000891652              -0.000846130               0.002198510               0.001352380               0.000000000               0.000000000               0.000000000               0.000000000              -0.000022633               0.005548753              -0.000706557              -0.000702080               0.002083592               0.001381513               0.000000000               0.000000000               0.000000000               0.000000000               0.000224550               0.005362414              -0.000510257              -0.000586094               0.001982818               0.001396724               0.000000000               0.000000000               0.000000000               0.000000000               0.000389914               0.005207512              -0.000317866              -0.000504720               0.001904060               0.001399340               0.000000000               0.000000000               0.000000000               0.000000000               0.000455072               0.005089576              -0.000148330              -0.000465544               0.001851690               0.001386146               0.000000000               0.000000000               0.000000000               0.000000000               0.000447848               0.005033867              -0.000067539              -0.000461289               0.001831702               0.001370413               0.000000000               0.000000000               0.000000000               0.000000000              -0.007415424               0.000125293               0.000730314              -0.002796443               0.000973905              -0.001822538               0.000000000               0.000000000               0.000000000               0.000000000              -0.005642469               0.001879910              -0.000931923              -0.002350911               0.001410264              -0.000940647               0.000000000               0.000000000               0.000000000               0.000000000              -0.004620077               0.003484851              -0.002364173              -0.002168131               0.001884314              -0.000283818               0.000000000               0.000000000               0.000000000               0.000000000              -0.003871198               0.004480861              -0.002644794              -0.002011803               0.002164205               0.000152402               0.000000000               0.000000000               0.000000000               0.000000000              -0.003255873               0.005077859              -0.002550420              -0.001855681               0.002311162               0.000455481               0.000000000               0.000000000               0.000000000               0.000000000              -0.002733740               0.005440859              -0.002348476              -0.001705257               0.002382020               0.000676763               0.000000000               0.000000000               0.000000000               0.000000000              -0.002268981               0.005660158              -0.002134069              -0.001558385               0.002406161               0.000847777               0.000000000               0.000000000               0.000000000               0.000000000              -0.001834967               0.005776201              -0.001931321              -0.001410135               0.002395426               0.000985291               0.000000000               0.000000000               0.000000000               0.000000000              -0.001411244               0.005806698              -0.001734424              -0.001255051               0.002353897               0.001098845               0.000000000               0.000000000               0.000000000               0.000000000              -0.000988781               0.005771855              -0.001537998              -0.001092273               0.002288023               0.001195750               0.000000000               0.000000000               0.000000000               0.000000000              -0.000569332               0.005697755              -0.001350381              -0.000925717               0.002207805               0.001282088               0.000000000               0.000000000               0.000000000               0.000000000              -0.000169316               0.005596608              -0.001163636              -0.000763068               0.002119873               0.001356805               0.000000000               0.000000000               0.000000000               0.000000000               0.000195139               0.005472605              -0.000961961              -0.000610897               0.002027816               0.001416918               0.000000000               0.000000000               0.000000000               0.000000000               0.000509536               0.005336216              -0.000742768              -0.000475950               0.001937371               0.001461421               0.000000000               0.000000000               0.000000000               0.000000000               0.000756618               0.005203479              -0.000506232              -0.000366702               0.001856710               0.001490007               0.000000000               0.000000000               0.000000000               0.000000000               0.000907362               0.005094251              -0.000257154              -0.000296520               0.001796907               0.001500387               0.000000000               0.000000000               0.000000000               0.000000000               0.000949112               0.005045873              -0.000129994              -0.000274816               0.001773546               0.001498730               0.000000000               0.000000000               0.000000000               0.000000000              -0.009448211              -0.000583659               0.001021903              -0.003470119               0.000962147              -0.002507973               0.000000000               0.000000000               0.000000000               0.000000000              -0.006699364               0.000779397              -0.000590715              -0.002609683               0.001129685              -0.001479998               0.000000000               0.000000000               0.000000000               0.000000000              -0.004820422               0.001967326              -0.002037828              -0.002053571               0.001340289              -0.000713282               0.000000000               0.000000000               0.000000000               0.000000000              -0.003738296               0.002962693              -0.002416603              -0.001772195               0.001578284              -0.000193911               0.000000000               0.000000000               0.000000000               0.000000000              -0.002993894               0.003701854              -0.002408040              -0.001585439               0.001762417               0.000176978               0.000000000               0.000000000               0.000000000               0.000000000              -0.002420693               0.004239196              -0.002271368              -0.001437657               0.001892269               0.000454612               0.000000000               0.000000000               0.000000000               0.000000000              -0.001943259               0.004630809              -0.002106438              -0.001307571               0.001979444               0.000671873               0.000000000               0.000000000               0.000000000               0.000000000              -0.001517576               0.004913457              -0.001941441              -0.001183271               0.002032226               0.000848954               0.000000000               0.000000000               0.000000000               0.000000000              -0.001114742               0.005101725              -0.001776233              -0.001055742               0.002052471               0.000996729               0.000000000               0.000000000               0.000000000               0.000000000              -0.000713083               0.005216081              -0.001609895              -0.000919415               0.002045148               0.001125733               0.000000000               0.000000000               0.000000000               0.000000000              -0.000303328               0.005279144              -0.001445400              -0.000773640               0.002017577               0.001243937               0.000000000               0.000000000               0.000000000               0.000000000               0.000109086               0.005304222              -0.001275497              -0.000622120               0.001975429               0.001353310               0.000000000               0.000000000               0.000000000               0.000000000               0.000519093               0.005292336              -0.001090606              -0.000466881               0.001919721               0.001452840               0.000000000               0.000000000               0.000000000               0.000000000               0.000914129               0.005244240              -0.000882224              -0.000312731               0.001852306               0.001539575               0.000000000               0.000000000               0.000000000               0.000000000               0.001272069               0.005165534              -0.000637226              -0.000168666               0.001778049               0.001609384               0.000000000               0.000000000               0.000000000               0.000000000               0.001567426               0.005080218              -0.000342983              -0.000047243               0.001709137               0.001661894               0.000000000               0.000000000               0.000000000               0.000000000               0.001726218               0.005052165              -0.000188287               0.000015810               0.001678768               0.001694578               0.000000000               0.000000000               0.000000000               0.000000000              -0.011155979              -0.000969824               0.000951333              -0.004062262               0.001030806              -0.003031456               0.000000000               0.000000000               0.000000000               0.000000000              -0.007614754              -0.000020597              -0.000318540              -0.002852956               0.000944113              -0.001908843               0.000000000               0.000000000               0.000000000               0.000000000              -0.004995148               0.000733262              -0.001491937              -0.001964836               0.000899359              -0.001065477               0.000000000               0.000000000               0.000000000               0.000000000              -0.003594454               0.001655066              -0.001852280              -0.001554801               0.001069947              -0.000484854               0.000000000               0.000000000               0.000000000               0.000000000              -0.002715198               0.002460728              -0.001894740              -0.001325788               0.001262162              -0.000063625               0.000000000               0.000000000               0.000000000               0.000000000              -0.002082509               0.003110918              -0.001820139              -0.001169804               0.001426896               0.000257092               0.000000000               0.000000000               0.000000000               0.000000000              -0.001584471               0.003628507              -0.001711044              -0.001047738               0.001558736               0.000510997               0.000000000               0.000000000               0.000000000               0.000000000              -0.001161106               0.004040120              -0.001597866              -0.000940428               0.001660169               0.000719740               0.000000000               0.000000000               0.000000000               0.000000000              -0.000767707               0.004359174              -0.001484462              -0.000832786               0.001730638               0.000897853               0.000000000               0.000000000               0.000000000               0.000000000              -0.000375979               0.004604168              -0.001366603              -0.000716512               0.001773544               0.001057032               0.000000000               0.000000000               0.000000000               0.000000000               0.000025037               0.004792999              -0.001244972              -0.000589735               0.001794229               0.001204493               0.000000000               0.000000000               0.000000000               0.000000000               0.000444640               0.004935916              -0.001118666              -0.000450249               0.001795372               0.001345123               0.000000000               0.000000000               0.000000000               0.000000000               0.000892732               0.005039815              -0.000979592              -0.000295202               0.001778322               0.001483120               0.000000000               0.000000000               0.000000000               0.000000000               0.001365353               0.005097902              -0.000815186              -0.000125231               0.001741027               0.001615797               0.000000000               0.000000000               0.000000000               0.000000000               0.001852697               0.005098093              -0.000608382               0.000057499               0.001680181               0.001737680               0.000000000               0.000000000               0.000000000               0.000000000               0.002350737               0.005055588              -0.000338538               0.000249575               0.001601987               0.001851563               0.000000000               0.000000000               0.000000000               0.000000000               0.002697532               0.005062688              -0.000197649               0.000378735               0.001561301               0.001940036               0.000000000               0.000000000               0.000000000               0.000000000              -0.012302151              -0.001142926               0.000565647              -0.004470438               0.001109163              -0.003361275               0.000000000               0.000000000               0.000000000               0.000000000              -0.008248037              -0.000500873              -0.000132043              -0.003030403               0.000843171              -0.002187232               0.000000000               0.000000000               0.000000000               0.000000000              -0.005122406              -0.000069535              -0.000788106              -0.001912209               0.000614220              -0.001297989               0.000000000               0.000000000               0.000000000               0.000000000              -0.003484233               0.000765011              -0.001007745              -0.001402212               0.000722402              -0.000679810               0.000000000               0.000000000               0.000000000               0.000000000              -0.002500678               0.001587592              -0.001048063              -0.001136201               0.000907925              -0.000228277               0.000000000               0.000000000               0.000000000               0.000000000              -0.001824733               0.002296216              -0.001018674              -0.000971300               0.001089164               0.000117864               0.000000000               0.000000000               0.000000000               0.000000000              -0.001304830               0.002884992              -0.000965673              -0.000849933               0.001244965               0.000395032               0.000000000               0.000000000               0.000000000               0.000000000              -0.000869515               0.003375249              -0.000909151              -0.000747973               0.001374396               0.000626423               0.000000000               0.000000000               0.000000000               0.000000000              -0.000479425               0.003777670              -0.000852920              -0.000651992               0.001476541               0.000824549               0.000000000               0.000000000               0.000000000               0.000000000              -0.000099552               0.004109406              -0.000791020              -0.000551007               0.001553457               0.001002450               0.000000000               0.000000000               0.000000000               0.000000000               0.000296273               0.004385212              -0.000724575              -0.000437049               0.001607406               0.001170357               0.000000000               0.000000000               0.000000000               0.000000000               0.000724548               0.004614911              -0.000657496              -0.000305158               0.001640008               0.001334850               0.000000000               0.000000000               0.000000000               0.000000000               0.001200177               0.004808221              -0.000583787              -0.000150961               0.001653045               0.001502083               0.000000000               0.000000000               0.000000000               0.000000000               0.001731761               0.004949252              -0.000491720               0.000030753               0.001639483               0.001670236               0.000000000               0.000000000               0.000000000               0.000000000               0.002330627               0.005022150              -0.000372390               0.000246214               0.001591962               0.001838176               0.000000000               0.000000000               0.000000000               0.000000000               0.003017874               0.005028935              -0.000210199               0.000503081               0.001508601               0.002011682               0.000000000               0.000000000               0.000000000               0.000000000               0.003547985               0.005073157              -0.000126426               0.000696343               0.001458921               0.002155264               0.000000000               0.000000000               0.000000000               0.000000000               0.000000000               0.000000000               0.000000000               0.000000000               0.000000000               0.000000000               0.000000000               0.000000000               0.000000000               0.000000000               0.000000000               0.000000000               0.000000000               0.000000000               0.000000000               0.000000000               0.000000000               0.000000000               0.000000000               0.000000000               0.000000000               0.000000000               0.000000000               0.000000000               0.000000000               0.000000000               0.000000000               0.000000000               0.000000000               0.000000000               0.000000000               0.000000000               0.000000000               0.000000000               0.000000000               0.000000000               0.000000000               0.000000000               0.000000000               0.000000000               0.000000000               0.000000000               0.000000000               0.000000000               0.000000000               0.000000000               0.000000000               0.000000000               0.000000000               0.000000000               0.000000000               0.000000000               0.000000000               0.000000000               0.000000000               0.000000000               0.000000000               0.000000000               0.000000000               0.000000000               0.000000000               0.000000000               0.000000000               0.000000000               0.000000000               0.000000000               0.000000000               0.000000000               0.000000000               0.000000000               0.000000000               0.000000000               0.000000000               0.000000000               0.000000000               0.000000000               0.000000000               0.000000000               0.000000000               0.000000000               0.000000000               0.000000000               0.000000000               0.000000000               0.000000000               0.000000000               0.000000000               0.000000000               0.000000000               0.000000000               0.000000000               0.000000000               0.000000000               0.000000000               0.000000000               0.000000000               0.000000000               0.000000000               0.000000000               0.000000000               0.000000000               0.000000000               0.000000000               0.000000000               0.000000000               0.000000000               0.000000000               0.000000000               0.000000000               0.000000000               0.000000000               0.000000000               0.000000000               0.000000000               0.000000000               0.000000000               0.000000000               0.000000000               0.000000000               0.000000000               0.000000000               0.000000000               0.000000000               0.000000000               0.000000000               0.000000000               0.000000000               0.000000000               0.000000000               0.000000000               0.000000000               0.000000000               0.000000000               0.000000000               0.000000000               0.000000000               0.000000000               0.000000000               0.000000000               0.000000000               0.000000000               0.000000000               0.000000000               0.000000000               0.000000000               0.000000000               0.000000000               0.000000000               0.000000000               0.000000000               0.000000000               0.000000000               0.000000000               0.000000000               0.000000000               0.000000000               0.000000000               0.000000000               0.000000000               0.000000000               0.000000000               0.000000000               0.000000000               0.000000000               0.000000000               0.000000000               0.000000000               0.000000000               0.000000000               0.000000000               0.000000000               0.000000000               0.000000000               0.000000000               0.000000000               0.000000000               0.000000000               0.000000000               0.000000000               0.000000000               0.000000000               0.000000000               0.000000000               0.000000000               0.000000000               0.000000000               0.000000000               0.000000000               0.000000000               0.000000000               0.000000000               0.000000000               0.000000000               0.000000000               0.000000000               0.000000000               0.000000000               0.000000000               0.000000000               0.000000000               0.000000000               0.000000000               0.000000000               0.000000000               0.000000000               0.000000000               0.000000000               0.000000000               0.000000000               0.000000000               0.000000000               0.000000000               0.000000000               0.000000000               0.000000000               0.000000000               0.000000000               0.000000000               0.000000000               0.000000000               0.000000000               0.000000000               0.000000000               0.000000000               0.000000000               0.000000000               0.000000000               0.000000000               0.000000000               0.000000000               0.000000000               0.000000000               0.000000000               0.000000000               0.000000000               0.000000000               0.000000000               0.000000000               0.000000000               0.000000000               0.000000000               0.000000000               0.000000000               0.000000000               0.000000000               0.000000000               0.000000000               0.000000000               0.000000000               0.000000000               0.000000000               0.000000000               0.000000000               0.000000000               0.000000000               0.000000000               0.000000000               0.000000000               0.000000000               0.000000000               0.000000000               0.000000000               0.000000000               0.000000000               0.000000000               0.000000000               0.000000000               0.000000000               0.000000000               0.000000000               0.000000000               0.000000000               0.000000000               0.000000000               0.000000000               0.000000000               0.000000000               0.000000000               0.000000000               0.000000000               0.000000000               0.000000000               0.000000000               0.000000000               0.000000000               0.000000000               0.000000000               0.000000000               0.000000000               0.000000000               0.000000000               0.000000000               0.000000000               0.000000000               0.000000000               0.000000000               0.000000000               0.000000000               0.000000000               0.000000000               0.000000000               0.000000000               0.000000000               0.000000000               0.000000000               0.000000000               0.000000000               0.000000000               0.000000000               0.000000000               0.000000000               0.000000000               0.000000000               0.000000000               0.000000000               0.000000000               0.000000000               0.000000000               0.000000000               0.000000000               0.000000000               0.000000000               0.000000000               0.000000000               0.000000000               0.000000000               0.000000000               0.000000000               0.000000000               0.000000000               0.000000000               0.000000000               0.000000000               0.000000000               0.000000000               0.000000000               0.000000000               0.000000000               0.000000000               0.000000000               0.002323567               0.023913794               0.001655956              -0.002117882               0.008677145               0.006559264               0.000000000               0.000000000               0.000000000               0.000000000               0.002138943               0.018647725               0.000805911              -0.001528858               0.006725466               0.005196607               0.000000000               0.000000000               0.000000000               0.000000000               0.002662831               0.014392487              -0.000030723              -0.000800497               0.005064280               0.004263783               0.000000000               0.000000000               0.000000000               0.000000000               0.002458397               0.011959188              -0.000377477              -0.000572998               0.004177356               0.003604357               0.000000000               0.000000000               0.000000000               0.000000000               0.002066213               0.010410007              -0.000516568              -0.000526420               0.003645441               0.003119021               0.000000000               0.000000000               0.000000000               0.000000000               0.001653564               0.009331368              -0.000565593              -0.000546333               0.003292536               0.002746203               0.000000000               0.000000000               0.000000000               0.000000000               0.001277978               0.008527104              -0.000572626              -0.000586645               0.003037888               0.002451243               0.000000000               0.000000000               0.000000000               0.000000000               0.000952262               0.007885279              -0.000554371              -0.000628560               0.002837920               0.002209360               0.000000000               0.000000000               0.000000000               0.000000000               0.000671422               0.007335304              -0.000526422              -0.000665128               0.002666786               0.002001658               0.000000000               0.000000000               0.000000000               0.000000000               0.000440067               0.006837596              -0.000494638              -0.000689673               0.002509067               0.001819394               0.000000000               0.000000000               0.000000000               0.000000000               0.000251679               0.006362977              -0.000462023              -0.000700991               0.002354635               0.001653644               0.000000000               0.000000000               0.000000000               0.000000000               0.000098998               0.005889227              -0.000427125              -0.000699028               0.002196065               0.001497038               0.000000000               0.000000000               0.000000000               0.000000000              -0.000011519               0.005398905              -0.000380843              -0.000679181               0.002026011               0.001346830               0.000000000               0.000000000               0.000000000               0.000000000              -0.000077635               0.004871968              -0.000318647              -0.000638108               0.001836676               0.001198568               0.000000000               0.000000000               0.000000000               0.000000000              -0.000095660               0.004295445              -0.000239963              -0.000572802               0.001622735               0.001049933               0.000000000               0.000000000               0.000000000               0.000000000              -0.000061764               0.003659546              -0.000136157              -0.000480603               0.001380038               0.000899434               0.000000000               0.000000000               0.000000000               0.000000000              -0.000084706               0.003180541              -0.000087911              -0.000429331               0.001203280               0.000773949               0.000000000               0.000000000               0.000000000               0.000000000               0.002506668               0.022451981               0.003075393              -0.001866494               0.008106083               0.006239589               0.000000000               0.000000000               0.000000000               0.000000000               0.001974896               0.017715116               0.001500247              -0.001473800               0.006396246               0.004922446               0.000000000               0.000000000               0.000000000               0.000000000               0.002126261               0.013997375              -0.000037450              -0.000952321               0.004983185               0.004030864               0.000000000               0.000000000               0.000000000               0.000000000               0.001788579               0.011842076              -0.000654149              -0.000809540               0.004217166               0.003407626               0.000000000               0.000000000               0.000000000               0.000000000               0.001375456               0.010438223              -0.000894051              -0.000788980               0.003742366               0.002953386               0.000000000               0.000000000               0.000000000               0.000000000               0.000991830               0.009435127              -0.000973219              -0.000807453               0.003414162               0.002606709               0.000000000               0.000000000               0.000000000               0.000000000               0.000660333               0.008662356              -0.000981610              -0.000835168               0.003165812               0.002330644               0.000000000               0.000000000               0.000000000               0.000000000               0.000388487               0.008029456              -0.000950416              -0.000857998               0.002962458               0.002104460               0.000000000               0.000000000               0.000000000               0.000000000               0.000172358               0.007476219              -0.000900691              -0.000869891               0.002782012               0.001912120               0.000000000               0.000000000               0.000000000               0.000000000               0.000014956               0.006965434              -0.000844724              -0.000865069               0.002610144               0.001745075               0.000000000               0.000000000               0.000000000               0.000000000              -0.000089201               0.006471350              -0.000787536              -0.000842367               0.002437884               0.001595517               0.000000000               0.000000000               0.000000000               0.000000000              -0.000152830               0.005980297              -0.000726900              -0.000804847               0.002261695               0.001456848               0.000000000               0.000000000               0.000000000               0.000000000              -0.000183993               0.005484366              -0.000647877              -0.000754542               0.002079618               0.001325076               0.000000000               0.000000000               0.000000000               0.000000000              -0.000181553               0.004981608              -0.000541433              -0.000690782               0.001890780               0.001199998               0.000000000               0.000000000               0.000000000               0.000000000              -0.000146372               0.004471734              -0.000406699              -0.000613855               0.001695181               0.001081327               0.000000000               0.000000000               0.000000000               0.000000000              -0.000083122               0.003953959              -0.000229583              -0.000525414               0.001493111               0.000967697               0.000000000               0.000000000               0.000000000               0.000000000              -0.000085537               0.003589200              -0.000144320              -0.000480725               0.001356630               0.000875905               0.000000000               0.000000000               0.000000000               0.000000000               0.002677228               0.020229790               0.004076192              -0.001524762               0.007251449               0.005726687               0.000000000               0.000000000               0.000000000               0.000000000               0.001660894               0.016312448               0.002000512              -0.001416218               0.005909501               0.004493282               0.000000000               0.000000000               0.000000000               0.000000000               0.001299397               0.013404201              -0.000001037              -0.001188248               0.004864105               0.003675857               0.000000000               0.000000000               0.000000000               0.000000000               0.000813333               0.011636176              -0.000763150              -0.001149520               0.004261860               0.003112340               0.000000000               0.000000000               0.000000000               0.000000000               0.000399252               0.010419192              -0.001044116              -0.001152677               0.003857255               0.002704578               0.000000000               0.000000000               0.000000000               0.000000000               0.000075822               0.009505229              -0.001131912              -0.001159718               0.003554950               0.002395233               0.000000000               0.000000000               0.000000000               0.000000000              -0.000169153               0.008775822              -0.001138416              -0.001160407               0.003312047               0.002151640               0.000000000               0.000000000               0.000000000               0.000000000              -0.000342893               0.008153329              -0.001101166              -0.001147748               0.003100332               0.001952584               0.000000000               0.000000000               0.000000000               0.000000000              -0.000451375               0.007590519              -0.001043529              -0.001118078               0.002902840               0.001784762               0.000000000               0.000000000               0.000000000               0.000000000              -0.000498373               0.007059485              -0.000976073              -0.001069323               0.002709579               0.001640256               0.000000000               0.000000000               0.000000000               0.000000000              -0.000491704               0.006546045              -0.000905518              -0.001002643               0.002516207               0.001513565               0.000000000               0.000000000               0.000000000               0.000000000              -0.000447470               0.006045353              -0.000830296              -0.000923468               0.002322920               0.001399452               0.000000000               0.000000000               0.000000000               0.000000000              -0.000380935               0.005561214              -0.000734184              -0.000838000               0.002133053               0.001295052               0.000000000               0.000000000               0.000000000               0.000000000              -0.000295245               0.005106073              -0.000608418              -0.000748974               0.001951665               0.001202691               0.000000000               0.000000000               0.000000000               0.000000000              -0.000198267               0.004690373              -0.000449107              -0.000660645               0.001783657               0.001123012               0.000000000               0.000000000               0.000000000               0.000000000              -0.000099707               0.004325423              -0.000246868              -0.000578067               0.001634482               0.001056415               0.000000000               0.000000000               0.000000000               0.000000000              -0.000073074               0.004106713              -0.000146291              -0.000540740               0.001549137               0.001008397               0.000000000               0.000000000               0.000000000               0.000000000               0.002690067               0.017522036               0.004570129              -0.001181480               0.006234446               0.005052966               0.000000000               0.000000000               0.000000000               0.000000000               0.001174736               0.014634003               0.002278467              -0.001388722               0.005340859               0.003952137               0.000000000               0.000000000               0.000000000               0.000000000               0.000279878               0.012690041               0.000101256              -0.001481297               0.004723737               0.003242440               0.000000000               0.000000000               0.000000000               0.000000000              -0.000308585               0.011338527              -0.000677177              -0.001533032               0.004290482               0.002757450               0.000000000               0.000000000               0.000000000               0.000000000              -0.000667822               0.010308843              -0.000952325              -0.001539035               0.003949258               0.002410223               0.000000000               0.000000000               0.000000000               0.000000000              -0.000881715               0.009483214              -0.001038356              -0.001516041               0.003666387               0.002150345               0.000000000               0.000000000               0.000000000               0.000000000              -0.001001694               0.008787148              -0.001045965              -0.001474025               0.003420362               0.001946336               0.000000000               0.000000000               0.000000000               0.000000000              -0.001044574               0.008164275              -0.001010474              -0.001412246               0.003192146               0.001779900               0.000000000               0.000000000               0.000000000               0.000000000              -0.001022864               0.007583516              -0.000954802              -0.001331510               0.002971650               0.001640140               0.000000000               0.000000000               0.000000000               0.000000000              -0.000943586               0.007037370              -0.000887751              -0.001233513               0.002756938               0.001523424               0.000000000               0.000000000               0.000000000               0.000000000              -0.000821536               0.006522267              -0.000813128              -0.001123357               0.002548519               0.001425163               0.000000000               0.000000000               0.000000000               0.000000000              -0.000678656               0.006036628              -0.000730848              -0.001009072               0.002348547               0.001339474               0.000000000               0.000000000               0.000000000               0.000000000              -0.000524606               0.005589848              -0.000631102              -0.000895456               0.002161749               0.001266293               0.000000000               0.000000000               0.000000000               0.000000000              -0.000367207               0.005199655              -0.000507335              -0.000787658               0.001995753               0.001208096               0.000000000               0.000000000               0.000000000               0.000000000              -0.000222238               0.004880937              -0.000356354              -0.000693455               0.001858114               0.001164660               0.000000000               0.000000000               0.000000000               0.000000000              -0.000100788               0.004651158              -0.000183140              -0.000619189               0.001756767               0.001137578               0.000000000               0.000000000               0.000000000               0.000000000              -0.000055370               0.004545796              -0.000098879              -0.000588987               0.001711579               0.001122592               0.000000000               0.000000000               0.000000000               0.000000000               0.002428414               0.014606399               0.004569611              -0.000915146               0.005173799               0.004258652               0.000000000               0.000000000               0.000000000               0.000000000               0.000519472               0.012852488               0.002363227              -0.001411757               0.004754705               0.003342948               0.000000000               0.000000000               0.000000000               0.000000000              -0.000811221               0.011897670               0.000292794              -0.001791412               0.004562988               0.002771576               0.000000000               0.000000000               0.000000000               0.000000000              -0.001403104               0.010933986              -0.000405449              -0.001892908               0.004275595               0.002382687               0.000000000               0.000000000               0.000000000               0.000000000              -0.001643122               0.010066949              -0.000649747              -0.001874535               0.003980461               0.002105926               0.000000000               0.000000000               0.000000000               0.000000000              -0.001712654               0.009309863              -0.000734029              -0.001805974               0.003705248               0.001899274               0.000000000               0.000000000               0.000000000               0.000000000              -0.001680533               0.008637824              -0.000752073              -0.001709924               0.003449220               0.001739297               0.000000000               0.000000000               0.000000000               0.000000000              -0.001571637               0.008013017              -0.000731585              -0.001590987               0.003201308               0.001610321               0.000000000               0.000000000               0.000000000               0.000000000              -0.001407513               0.007428901              -0.000693709              -0.001456426               0.002961751               0.001505324               0.000000000               0.000000000               0.000000000               0.000000000              -0.001204746               0.006889656              -0.000643576              -0.001312984               0.002734190               0.001421207               0.000000000               0.000000000               0.000000000               0.000000000              -0.000986511               0.006396992              -0.000580641              -0.001169563               0.002522164               0.001352601               0.000000000               0.000000000               0.000000000               0.000000000              -0.000769658               0.005953845              -0.000505482              -0.001032850               0.002328878               0.001296029               0.000000000               0.000000000               0.000000000               0.000000000              -0.000560797               0.005566137              -0.000417169              -0.000906064               0.002157382               0.001251318               0.000000000               0.000000000               0.000000000               0.000000000              -0.000369642               0.005249505              -0.000316935              -0.000794802               0.002014752               0.001219950               0.000000000               0.000000000               0.000000000               0.000000000              -0.000210869               0.005015959              -0.000205524              -0.000706069               0.001907326               0.001201257               0.000000000               0.000000000               0.000000000               0.000000000              -0.000089327               0.004873325              -0.000094741              -0.000642661               0.001838646               0.001195984               0.000000000               0.000000000               0.000000000               0.000000000              -0.000043778               0.004818648              -0.000046126              -0.000618746               0.001812449               0.001193702               0.000000000               0.000000000               0.000000000               0.000000000               0.001815170               0.011726189               0.004158044              -0.000785087               0.004170385               0.003385298               0.000000000               0.000000000               0.000000000               0.000000000              -0.000276852               0.011104350               0.002311143              -0.001491861               0.004198699               0.002706838               0.000000000               0.000000000               0.000000000               0.000000000              -0.001854050               0.011051065               0.000579161              -0.002076647               0.004375867               0.002299220               0.000000000               0.000000000               0.000000000               0.000000000              -0.002334109               0.010407707               0.000012581              -0.002176249               0.004194617               0.002018369               0.000000000               0.000000000               0.000000000               0.000000000              -0.002402285               0.009676273              -0.000201913              -0.002110386               0.003928854               0.001818468               0.000000000               0.000000000               0.000000000               0.000000000              -0.002302929               0.008987129              -0.000303047              -0.001986984               0.003658008               0.001671023               0.000000000               0.000000000               0.000000000               0.000000000              -0.002111494               0.008347078              -0.000349387              -0.001835190               0.003394062               0.001558871               0.000000000               0.000000000               0.000000000               0.000000000              -0.001851978               0.007737673              -0.000359888              -0.001661697               0.003133097               0.001471401               0.000000000               0.000000000               0.000000000               0.000000000              -0.001558090               0.007173640              -0.000356078              -0.001480985               0.002884851               0.001403866               0.000000000               0.000000000               0.000000000               0.000000000              -0.001253891               0.006664118              -0.000337042              -0.001303221               0.002655757               0.001352537               0.000000000               0.000000000               0.000000000               0.000000000              -0.000966057               0.006210028              -0.000302185              -0.001138522               0.002449496               0.001310974               0.000000000               0.000000000               0.000000000               0.000000000              -0.000709275               0.005816696              -0.000252546              -0.000993063               0.002269900               0.001276837               0.000000000               0.000000000               0.000000000               0.000000000              -0.000483218               0.005493955              -0.000194070              -0.000867949               0.002120616               0.001252667               0.000000000               0.000000000               0.000000000               0.000000000              -0.000295260               0.005247578              -0.000136475              -0.000766668               0.002004731               0.001238063               0.000000000               0.000000000               0.000000000               0.000000000              -0.000154105               0.005079236              -0.000081007              -0.000692692               0.001923959               0.001231267               0.000000000               0.000000000               0.000000000               0.000000000              -0.000059401               0.004982308              -0.000033182              -0.000645062               0.001875774               0.001230711               0.000000000               0.000000000               0.000000000               0.000000000              -0.000030490               0.004942613              -0.000017050              -0.000629259               0.001857274               0.001228015               0.000000000               0.000000000               0.000000000               0.000000000               0.000868859               0.009054801               0.003446335              -0.000806029               0.003286912               0.002480883               0.000000000               0.000000000               0.000000000               0.000000000              -0.001174492               0.009493586               0.002180965              -0.001627130               0.003706873               0.002079743               0.000000000               0.000000000               0.000000000               0.000000000              -0.002754862               0.010172179               0.000955685              -0.002304590               0.004158889               0.001854299               0.000000000               0.000000000               0.000000000               0.000000000              -0.003017582               0.009774004               0.000513116              -0.002353338               0.004042415               0.001689077               0.000000000               0.000000000               0.000000000               0.000000000              -0.002883446               0.009168519               0.000296669              -0.002227352               0.003798593               0.001571241               0.000000000               0.000000000               0.000000000               0.000000000              -0.002612671               0.008560913               0.000160335              -0.002049861               0.003536896               0.001487035               0.000000000               0.000000000               0.000000000               0.000000000              -0.002275010               0.007964332               0.000072277              -0.001848666               0.003270973               0.001422307               0.000000000               0.000000000               0.000000000               0.000000000              -0.001887973               0.007394955               0.000017548              -0.001632355               0.003009079               0.001376724               0.000000000               0.000000000               0.000000000               0.000000000              -0.001492686               0.006871642              -0.000024986              -0.001418709               0.002763427               0.001344718               0.000000000               0.000000000               0.000000000               0.000000000              -0.001127320               0.006400063              -0.000048252              -0.001222750               0.002540916               0.001318167               0.000000000               0.000000000               0.000000000               0.000000000              -0.000807135               0.005987709              -0.000051883              -0.001051137               0.002346262               0.001295125               0.000000000               0.000000000               0.000000000               0.000000000              -0.000537148               0.005645954              -0.000046002              -0.000907173               0.002184357               0.001277184               0.000000000               0.000000000               0.000000000               0.000000000              -0.000321875               0.005383158              -0.000033946              -0.000793596               0.002058900               0.001265304               0.000000000               0.000000000               0.000000000               0.000000000              -0.000166935               0.005195807              -0.000023686              -0.000712075               0.001969277               0.001257202               0.000000000               0.000000000               0.000000000               0.000000000              -0.000070101               0.005074955              -0.000015901              -0.000660656               0.001911853               0.001251198               0.000000000               0.000000000               0.000000000               0.000000000              -0.000021228               0.005007647              -0.000007293              -0.000633915               0.001880504               0.001246589               0.000000000               0.000000000               0.000000000               0.000000000              -0.000011037               0.004980378              -0.000005929              -0.000626685               0.001869004               0.001242320               0.000000000               0.000000000               0.000000000               0.000000000              -0.000264035               0.006784724               0.002563878              -0.000947103               0.002577252               0.001630149               0.000000000               0.000000000               0.000000000               0.000000000              -0.002045618               0.008053899               0.002029272              -0.001773841               0.003275886               0.001502045               0.000000000               0.000000000               0.000000000               0.000000000              -0.003448496               0.009308839               0.001408889              -0.002456785               0.003921843               0.001465058               0.000000000               0.000000000               0.000000000               0.000000000              -0.003472143               0.009169860               0.001048366              -0.002448280               0.003872683               0.001424403               0.000000000               0.000000000               0.000000000               0.000000000              -0.003163123               0.008720110               0.000804867              -0.002276179               0.003665401               0.001389221               0.000000000               0.000000000               0.000000000               0.000000000              -0.002757304               0.008215435               0.000623613              -0.002060913               0.003425422               0.001364509               0.000000000               0.000000000               0.000000000               0.000000000              -0.002303854               0.007688376               0.000483358              -0.001824988               0.003171096               0.001346108               0.000000000               0.000000000               0.000000000               0.000000000              -0.001822316               0.007174665               0.000373860              -0.001580198               0.002918264               0.001338066               0.000000000               0.000000000               0.000000000               0.000000000              -0.001363174               0.006693342               0.000284211              -0.001347855               0.002680377               0.001332522               0.000000000               0.000000000               0.000000000               0.000000000              -0.000962317               0.006250685               0.000214057              -0.001142202               0.002464275               0.001322073               0.000000000               0.000000000               0.000000000               0.000000000              -0.000625108               0.005866508               0.000160047              -0.000967726               0.002278058               0.001310332               0.000000000               0.000000000               0.000000000               0.000000000              -0.000355803               0.005553151               0.000112164              -0.000827568               0.002126888               0.001299320               0.000000000               0.000000000               0.000000000               0.000000000              -0.000161634               0.005317778               0.000070307              -0.000725333               0.002014353               0.001289020               0.000000000               0.000000000               0.000000000               0.000000000              -0.000047045               0.005158268               0.000035347              -0.000662424               0.001940213               0.001277789               0.000000000               0.000000000               0.000000000               0.000000000               0.000001422               0.005061251               0.000011018              -0.000632121               0.001897774               0.001265652               0.000000000               0.000000000               0.000000000               0.000000000               0.000010329               0.005010542               0.000000378              -0.000622443               0.001877645               0.001255202               0.000000000               0.000000000               0.000000000               0.000000000               0.000007789               0.004993708              -0.000002258              -0.000621291               0.001871650               0.001250359               0.000000000               0.000000000               0.000000000               0.000000000              -0.001596963               0.004687514               0.001626616              -0.001184798               0.001957421               0.000772623               0.000000000               0.000000000               0.000000000               0.000000000              -0.002775696               0.006414522               0.001859967              -0.001842698               0.002752385               0.000909687               0.000000000               0.000000000               0.000000000               0.000000000              -0.003846732               0.008090513               0.001889569              -0.002453833               0.003514755               0.001060922               0.000000000               0.000000000               0.000000000               0.000000000              -0.003727696               0.008334375               0.001622835              -0.002439677               0.003591323               0.001151646               0.000000000               0.000000000               0.000000000               0.000000000              -0.003333901               0.008147840               0.001358417              -0.002268687               0.003472148               0.001203461               0.000000000               0.000000000               0.000000000               0.000000000              -0.002885358               0.007835989               0.001129936              -0.002061503               0.003299138               0.001237635               0.000000000               0.000000000               0.000000000               0.000000000              -0.002417642               0.007466467               0.000937823              -0.001839920               0.003102104               0.001262184               0.000000000               0.000000000               0.000000000               0.000000000              -0.001927878               0.007073546               0.000775591              -0.001607144               0.002893540               0.001286396               0.000000000               0.000000000               0.000000000               0.000000000              -0.001450843               0.006678081               0.000635534              -0.001378823               0.002685612               0.001306790               0.000000000               0.000000000               0.000000000               0.000000000              -0.001026561               0.006298704               0.000513273              -0.001172296               0.002490312               0.001318016               0.000000000               0.000000000               0.000000000               0.000000000              -0.000668115               0.005950156               0.000403911              -0.000994310               0.002314802               0.001320492               0.000000000               0.000000000               0.000000000               0.000000000              -0.000379440               0.005644029               0.000301548              -0.000847792               0.002163921               0.001316130               0.000000000               0.000000000               0.000000000               0.000000000              -0.000159834               0.005402597               0.000203489              -0.000735260               0.002045935               0.001310674               0.000000000               0.000000000               0.000000000               0.000000000              -0.000019213               0.005225765               0.000115284              -0.000660424               0.001962046               0.001301622               0.000000000               0.000000000               0.000000000               0.000000000               0.000045741               0.005106892               0.000051043              -0.000621207               0.001909349               0.001288142               0.000000000               0.000000000               0.000000000               0.000000000               0.000058748               0.005036486               0.000015222              -0.000607529               0.001881321               0.001273793               0.000000000               0.000000000               0.000000000               0.000000000               0.000052996               0.005009361               0.000003190              -0.000606295               0.001871869               0.001265573               0.000000000               0.000000000               0.000000000               0.000000000              -0.003314819               0.002797101               0.000703351              -0.001592692               0.001463254              -0.000129438               0.000000000               0.000000000               0.000000000               0.000000000              -0.003602431               0.004776919               0.001620317              -0.001948022               0.002241630               0.000293608               0.000000000               0.000000000               0.000000000               0.000000000              -0.004152584               0.006686213               0.002274172              -0.002392990               0.003026378               0.000633388               0.000000000               0.000000000               0.000000000               0.000000000              -0.003899891               0.007301519               0.002172371              -0.002375144               0.003225529               0.000850385               0.000000000               0.000000000               0.000000000               0.000000000              -0.003451751               0.007416597               0.001921813              -0.002221476               0.003212666               0.000991190               0.000000000               0.000000000               0.000000000               0.000000000              -0.002983619               0.007328533               0.001666485              -0.002034919               0.003121126               0.001086207               0.000000000               0.000000000               0.000000000               0.000000000              -0.002521834               0.007144195               0.001436223              -0.001838708               0.002994277               0.001155569               0.000000000               0.000000000               0.000000000               0.000000000              -0.002051992               0.006900843               0.001231863              -0.001632099               0.002844291               0.001212192               0.000000000               0.000000000               0.000000000               0.000000000              -0.001578532               0.006619563               0.001046827              -0.001419392               0.002679629               0.001260238               0.000000000               0.000000000               0.000000000               0.000000000              -0.001133076               0.006323479               0.000878470              -0.001215336               0.002512917               0.001297581               0.000000000               0.000000000               0.000000000               0.000000000              -0.000740066               0.006030230               0.000722771              -0.001031301               0.002353824               0.001322522               0.000000000               0.000000000               0.000000000               0.000000000              -0.000406049               0.005753964               0.000575685              -0.000871512               0.002208473               0.001336961               0.000000000               0.000000000               0.000000000               0.000000000              -0.000136606               0.005513863               0.000429193              -0.000740458               0.002084755               0.001344297               0.000000000               0.000000000               0.000000000               0.000000000               0.000057936               0.005318210               0.000282105              -0.000643049               0.001987068               0.001344020               0.000000000               0.000000000               0.000000000               0.000000000               0.000164906               0.005169035               0.000155442              -0.000584288               0.001917757               0.001333469               0.000000000               0.000000000               0.000000000               0.000000000               0.000190424               0.005064110               0.000063838              -0.000561603               0.001875221               0.001313618               0.000000000               0.000000000               0.000000000               0.000000000               0.000176313               0.005016999               0.000024476              -0.000561006               0.001859318               0.001298312               0.000000000               0.000000000               0.000000000               0.000000000              -0.005301709               0.001247080              -0.000120768              -0.002144023               0.001130360              -0.001013663               0.000000000               0.000000000               0.000000000               0.000000000              -0.004576583               0.003236511               0.001294427              -0.002120779               0.001785751              -0.000335028               0.000000000               0.000000000               0.000000000               0.000000000              -0.004401472               0.005107577               0.002442448              -0.002288995               0.002465506               0.000176511               0.000000000               0.000000000               0.000000000               0.000000000              -0.003941236               0.005984194               0.002544527              -0.002225983               0.002736705               0.000510722               0.000000000               0.000000000               0.000000000               0.000000000              -0.003425319               0.006371994               0.002356898              -0.002080989               0.002817639               0.000736650               0.000000000               0.000000000               0.000000000               0.000000000              -0.002933907               0.006517344               0.002111255              -0.001914879               0.002810719               0.000895840               0.000000000               0.000000000               0.000000000               0.000000000              -0.002475414               0.006533195               0.001873228              -0.001744926               0.002759351               0.001014426               0.000000000               0.000000000               0.000000000               0.000000000              -0.002028194               0.006463691               0.001654433              -0.001568531               0.002677385               0.001108855               0.000000000               0.000000000               0.000000000               0.000000000              -0.001576533               0.006330826               0.001449110              -0.001382550               0.002571104               0.001188554               0.000000000               0.000000000               0.000000000               0.000000000              -0.001131190               0.006152259               0.001253325              -0.001193226               0.002448474               0.001255248               0.000000000               0.000000000               0.000000000               0.000000000              -0.000715944               0.005952004               0.001069277              -0.001012477               0.002321474               0.001308997               0.000000000               0.000000000               0.000000000               0.000000000              -0.000339865               0.005749457               0.000891652              -0.000846130               0.002198510               0.001352380               0.000000000               0.000000000               0.000000000               0.000000000              -0.000022633               0.005548753               0.000706557              -0.000702080               0.002083592               0.001381513               0.000000000               0.000000000               0.000000000               0.000000000               0.000224550               0.005362414               0.000510257              -0.000586094               0.001982818               0.001396724               0.000000000               0.000000000               0.000000000               0.000000000               0.000389914               0.005207512               0.000317866              -0.000504720               0.001904060               0.001399340               0.000000000               0.000000000               0.000000000               0.000000000               0.000455072               0.005089576               0.000148330              -0.000465544               0.001851690               0.001386146               0.000000000               0.000000000               0.000000000               0.000000000               0.000447848               0.005033867               0.000067539              -0.000461289               0.001831702               0.001370413               0.000000000               0.000000000               0.000000000               0.000000000              -0.007415424               0.000125293              -0.000730314              -0.002796443               0.000973905              -0.001822538               0.000000000               0.000000000               0.000000000               0.000000000              -0.005642469               0.001879910               0.000931923              -0.002350911               0.001410264              -0.000940647               0.000000000               0.000000000               0.000000000               0.000000000              -0.004620077               0.003484851               0.002364173              -0.002168131               0.001884314              -0.000283818               0.000000000               0.000000000               0.000000000               0.000000000              -0.003871198               0.004480861               0.002644794              -0.002011803               0.002164205               0.000152402               0.000000000               0.000000000               0.000000000               0.000000000              -0.003255873               0.005077859               0.002550420              -0.001855681               0.002311162               0.000455481               0.000000000               0.000000000               0.000000000               0.000000000              -0.002733740               0.005440859               0.002348476              -0.001705257               0.002382020               0.000676763               0.000000000               0.000000000               0.000000000               0.000000000              -0.002268981               0.005660158               0.002134069              -0.001558385               0.002406161               0.000847777               0.000000000               0.000000000               0.000000000               0.000000000              -0.001834967               0.005776201               0.001931321              -0.001410135               0.002395426               0.000985291               0.000000000               0.000000000               0.000000000               0.000000000              -0.001411244               0.005806698               0.001734424              -0.001255051               0.002353897               0.001098845               0.000000000               0.000000000               0.000000000               0.000000000              -0.000988781               0.005771855               0.001537998              -0.001092273               0.002288023               0.001195750               0.000000000               0.000000000               0.000000000               0.000000000              -0.000569332               0.005697755               0.001350381              -0.000925717               0.002207805               0.001282088               0.000000000               0.000000000               0.000000000               0.000000000              -0.000169316               0.005596608               0.001163636              -0.000763068               0.002119873               0.001356805               0.000000000               0.000000000               0.000000000               0.000000000               0.000195139               0.005472605               0.000961961              -0.000610897               0.002027816               0.001416918               0.000000000               0.000000000               0.000000000               0.000000000               0.000509536               0.005336216               0.000742768              -0.000475950               0.001937371               0.001461421               0.000000000               0.000000000               0.000000000               0.000000000               0.000756618               0.005203479               0.000506232              -0.000366702               0.001856710               0.001490007               0.000000000               0.000000000               0.000000000               0.000000000               0.000907362               0.005094251               0.000257154              -0.000296520               0.001796907               0.001500387               0.000000000               0.000000000               0.000000000               0.000000000               0.000949112               0.005045873               0.000129994              -0.000274816               0.001773546               0.001498730               0.000000000               0.000000000               0.000000000               0.000000000              -0.009448211              -0.000583659              -0.001021903              -0.003470119               0.000962147              -0.002507973               0.000000000               0.000000000               0.000000000               0.000000000              -0.006699364               0.000779397               0.000590715              -0.002609683               0.001129685              -0.001479998               0.000000000               0.000000000               0.000000000               0.000000000              -0.004820422               0.001967326               0.002037828              -0.002053571               0.001340289              -0.000713282               0.000000000               0.000000000               0.000000000               0.000000000              -0.003738296               0.002962693               0.002416603              -0.001772195               0.001578284              -0.000193911               0.000000000               0.000000000               0.000000000               0.000000000              -0.002993894               0.003701854               0.002408040              -0.001585439               0.001762417               0.000176978               0.000000000               0.000000000               0.000000000               0.000000000              -0.002420693               0.004239196               0.002271368              -0.001437657               0.001892269               0.000454612               0.000000000               0.000000000               0.000000000               0.000000000              -0.001943259               0.004630809               0.002106438              -0.001307571               0.001979444               0.000671873               0.000000000               0.000000000               0.000000000               0.000000000              -0.001517576               0.004913457               0.001941441              -0.001183271               0.002032226               0.000848954               0.000000000               0.000000000               0.000000000               0.000000000              -0.001114742               0.005101725               0.001776233              -0.001055742               0.002052471               0.000996729               0.000000000               0.000000000               0.000000000               0.000000000              -0.000713083               0.005216081               0.001609895              -0.000919415               0.002045148               0.001125733               0.000000000               0.000000000               0.000000000               0.000000000              -0.000303328               0.005279144               0.001445400              -0.000773640               0.002017577               0.001243937               0.000000000               0.000000000               0.000000000               0.000000000               0.000109086               0.005304222               0.001275497              -0.000622120               0.001975429               0.001353310               0.000000000               0.000000000               0.000000000               0.000000000               0.000519093               0.005292336               0.001090606              -0.000466881               0.001919721               0.001452840               0.000000000               0.000000000               0.000000000               0.000000000               0.000914129               0.005244240               0.000882224              -0.000312731               0.001852306               0.001539575               0.000000000               0.000000000               0.000000000               0.000000000               0.001272069               0.005165534               0.000637226              -0.000168666               0.001778049               0.001609384               0.000000000               0.000000000               0.000000000               0.000000000               0.001567426               0.005080218               0.000342983              -0.000047243               0.001709137               0.001661894               0.000000000               0.000000000               0.000000000               0.000000000               0.001726218               0.005052165               0.000188287               0.000015810               0.001678768               0.001694578               0.000000000               0.000000000               0.000000000               0.000000000              -0.011155979              -0.000969824              -0.000951333              -0.004062262               0.001030806              -0.003031456               0.000000000               0.000000000               0.000000000               0.000000000              -0.007614754              -0.000020597               0.000318540              -0.002852956               0.000944113              -0.001908843               0.000000000               0.000000000               0.000000000               0.000000000              -0.004995148               0.000733262               0.001491937              -0.001964836               0.000899359              -0.001065477               0.000000000               0.000000000               0.000000000               0.000000000              -0.003594454               0.001655066               0.001852280              -0.001554801               0.001069947              -0.000484854               0.000000000               0.000000000               0.000000000               0.000000000              -0.002715198               0.002460728               0.001894740              -0.001325788               0.001262162              -0.000063625               0.000000000               0.000000000               0.000000000               0.000000000              -0.002082509               0.003110918               0.001820139              -0.001169804               0.001426896               0.000257092               0.000000000               0.000000000               0.000000000               0.000000000              -0.001584471               0.003628507               0.001711044              -0.001047738               0.001558736               0.000510997               0.000000000               0.000000000               0.000000000               0.000000000              -0.001161106               0.004040120               0.001597866              -0.000940428               0.001660169               0.000719740               0.000000000               0.000000000               0.000000000               0.000000000              -0.000767707               0.004359174               0.001484462              -0.000832786               0.001730638               0.000897853               0.000000000               0.000000000               0.000000000               0.000000000              -0.000375979               0.004604168               0.001366603              -0.000716512               0.001773544               0.001057032               0.000000000               0.000000000               0.000000000               0.000000000               0.000025037               0.004792999               0.001244972              -0.000589735               0.001794229               0.001204493               0.000000000               0.000000000               0.000000000               0.000000000               0.000444640               0.004935916               0.001118666              -0.000450249               0.001795372               0.001345123               0.000000000               0.000000000               0.000000000               0.000000000               0.000892732               0.005039815               0.000979592              -0.000295202               0.001778322               0.001483120               0.000000000               0.000000000               0.000000000               0.000000000               0.001365353               0.005097902               0.000815186              -0.000125231               0.001741027               0.001615797               0.000000000               0.000000000               0.000000000               0.000000000               0.001852697               0.005098093               0.000608382               0.000057499               0.001680181               0.001737680               0.000000000               0.000000000               0.000000000               0.000000000               0.002350737               0.005055588               0.000338538               0.000249575               0.001601987               0.001851563               0.000000000               0.000000000               0.000000000               0.000000000               0.002697532               0.005062688               0.000197649               0.000378735               0.001561301               0.001940036               0.000000000               0.000000000               0.000000000               0.000000000              -0.012302151              -0.001142926              -0.000565647              -0.004470438               0.001109163              -0.003361275               0.000000000               0.000000000               0.000000000               0.000000000              -0.008248037              -0.000500873               0.000132043              -0.003030403               0.000843171              -0.002187232               0.000000000               0.000000000               0.000000000               0.000000000              -0.005122406              -0.000069535               0.000788106              -0.001912209               0.000614220              -0.001297989               0.000000000               0.000000000               0.000000000               0.000000000              -0.003484233               0.000765011               0.001007745              -0.001402212               0.000722402              -0.000679810               0.000000000               0.000000000               0.000000000               0.000000000              -0.002500678               0.001587592               0.001048063              -0.001136201               0.000907925              -0.000228277               0.000000000               0.000000000               0.000000000               0.000000000              -0.001824733               0.002296216               0.001018674              -0.000971300               0.001089164               0.000117864               0.000000000               0.000000000               0.000000000               0.000000000              -0.001304830               0.002884992               0.000965673              -0.000849933               0.001244965               0.000395032               0.000000000               0.000000000               0.000000000               0.000000000              -0.000869515               0.003375249               0.000909151              -0.000747973               0.001374396               0.000626423               0.000000000               0.000000000               0.000000000               0.000000000              -0.000479425               0.003777670               0.000852920              -0.000651992               0.001476541               0.000824549               0.000000000               0.000000000               0.000000000               0.000000000              -0.000099552               0.004109406               0.000791020              -0.000551007               0.001553457               0.001002450               0.000000000               0.000000000               0.000000000               0.000000000               0.000296273               0.004385212               0.000724575              -0.000437049               0.001607406               0.001170357               0.000000000               0.000000000               0.000000000               0.000000000               0.000724548               0.004614911               0.000657496              -0.000305158               0.001640008               0.001334850               0.000000000               0.000000000               0.000000000               0.000000000               0.001200177               0.004808221               0.000583787              -0.000150961               0.001653045               0.001502083               0.000000000               0.000000000               0.000000000               0.000000000               0.001731761               0.004949252               0.000491720               0.000030753               0.001639483               0.001670236               0.000000000               0.000000000               0.000000000               0.000000000               0.002330627               0.005022150               0.000372390               0.000246214               0.001591962               0.001838176               0.000000000               0.000000000               0.000000000               0.000000000               0.003017874               0.005028935               0.000210199               0.000503081               0.001508601               0.002011682               0.000000000               0.000000000               0.000000000               0.000000000               0.003547985               0.005073157               0.000126426               0.000696343               0.001458921               0.002155264               0.000000000               0.000000000               0.000000000               0.000000000               0.000000000               0.000000000               0.000000000               0.000000000               0.000000000               0.000000000               0.000000000               0.000000000               0.000000000               0.000000000               0.000000000               0.000000000               0.000000000               0.000000000               0.000000000               0.000000000               0.000000000               0.000000000               0.000000000               0.000000000               0.000000000               0.000000000               0.000000000               0.000000000               0.000000000               0.000000000               0.000000000               0.000000000               0.000000000               0.000000000               0.000000000               0.000000000               0.000000000               0.000000000               0.000000000               0.000000000               0.000000000               0.000000000               0.000000000               0.000000000               0.000000000               0.000000000               0.000000000               0.000000000               0.000000000               0.000000000               0.000000000               0.000000000               0.000000000               0.000000000               0.000000000               0.000000000               0.000000000               0.000000000               0.000000000               0.000000000               0.000000000               0.000000000               0.000000000               0.000000000               0.000000000               0.000000000               0.000000000               0.000000000               0.000000000               0.000000000               0.000000000               0.000000000               0.000000000               0.000000000               0.000000000               0.000000000               0.000000000               0.000000000               0.000000000               0.000000000               0.000000000               0.000000000               0.000000000               0.000000000               0.000000000               0.000000000               0.000000000               0.000000000               0.000000000               0.000000000               0.000000000               0.000000000               0.000000000               0.000000000               0.000000000               0.000000000               0.000000000               0.000000000               0.000000000               0.000000000               0.000000000               0.000000000               0.000000000               0.000000000               0.000000000               0.000000000               0.000000000               0.000000000               0.000000000               0.000000000               0.000000000               0.000000000               0.000000000               0.000000000               0.000000000               0.000000000               0.000000000               0.000000000               0.000000000               0.000000000               0.000000000               0.000000000               0.000000000               0.000000000               0.000000000               0.000000000               0.000000000               0.000000000               0.000000000               0.000000000               0.000000000               0.000000000               0.000000000               0.000000000               0.000000000               0.000000000               0.000000000               0.000000000               0.000000000               0.000000000               0.000000000               0.000000000               0.000000000               0.000000000               0.000000000               0.000000000               0.000000000               0.000000000               0.000000000               0.000000000               0.000000000               0.000000000               0.000000000               0.000000000               0.000000000               0.000000000               0.000000000               0.000000000               0.000000000               0.000000000               0.000000000               0.000000000               0.000000000               0.000000000               0.000000000               0.000000000               0.000000000               0.000000000               0.000000000               0.000000000               0.000000000               0.000000000               0.000000000               0.000000000 </DataArray>
</PointData>
</Piece>
</UnstructuredGrid> </VTKFile>
