<?xml version="1.0"?>
<VTKFile type="UnstructuredGrid" version="0.1">
<UnstructuredGrid>
<Piece NumberOfPoints="      1156" NumberOfCells="      1024">
<Points>
<DataArray type="Float64"                                    Name="coordinates"                                                      NumberOfComponents=" 3" format="ascii">
              0.133000000               0.000000000               0.000000000               0.155937500               0.000000000               0.000000000               0.178875000               0.000000000               0.000000000               0.201812500               0.000000000               0.000000000               0.224750000               0.000000000               0.000000000               0.247687500               0.000000000               0.000000000               0.270625000               0.000000000               0.000000000               0.293562500               0.000000000               0.000000000               0.316500000               0.000000000               0.000000000               0.339437500               0.000000000               0.000000000               0.362375000               0.000000000               0.000000000               0.385312500               0.000000000               0.000000000               0.408250000               0.000000000               0.000000000               0.431187500               0.000000000               0.000000000               0.454125000               0.000000000               0.000000000               0.477062500               0.000000000               0.000000000               0.500000000               0.000000000               0.000000000               0.132359569               0.013036280               0.000000000               0.155337096               0.016127762               0.000000000               0.178314623               0.019219245               0.000000000               0.201292150               0.022310727               0.000000000               0.224269676               0.025402210               0.000000000               0.247247203               0.028493692               0.000000000               0.270224730               0.031585175               0.000000000               0.293202257               0.034676657               0.000000000               0.316179784               0.037768140               0.000000000               0.339157311               0.040859622               0.000000000               0.362134838               0.043951105               0.000000000               0.385112365               0.047042587               0.000000000               0.408089892               0.050134070               0.000000000               0.431067419               0.053225552               0.000000000               0.454044946               0.056317035               0.000000000               0.477022473               0.059408517               0.000000000               0.500000000               0.062500000               0.000000000               0.130444442               0.025947013               0.000000000               0.153541665               0.032137825               0.000000000               0.176638887               0.038328636               0.000000000               0.199736109               0.044519448               0.000000000               0.222833332               0.050710260               0.000000000               0.245930554               0.056901071               0.000000000               0.269027776               0.063091883               0.000000000               0.292124999               0.069282695               0.000000000               0.315222221               0.075473506               0.000000000               0.338319444               0.081664318               0.000000000               0.361416666               0.087855130               0.000000000               0.384513888               0.094045942               0.000000000               0.407611111               0.100236753               0.000000000               0.430708333               0.106427565               0.000000000               0.453805555               0.112618377               0.000000000               0.476902778               0.118809188               0.000000000               0.500000000               0.125000000               0.000000000               0.127273065               0.038607862               0.000000000               0.150568498               0.047913621               0.000000000               0.173863932               0.057219379               0.000000000               0.197159365               0.066525138               0.000000000               0.220454798               0.075830897               0.000000000               0.243750232               0.085136655               0.000000000               0.267045665               0.094442414               0.000000000               0.290341099               0.103748172               0.000000000               0.313636532               0.113053931               0.000000000               0.336931966               0.122359690               0.000000000               0.360227399               0.131665448               0.000000000               0.383522833               0.140971207               0.000000000               0.406818266               0.150276966               0.000000000               0.430113700               0.159582724               0.000000000               0.453409133               0.168888483               0.000000000               0.476704567               0.178194241               0.000000000               0.500000000               0.187500000               0.000000000               0.122875978               0.050896897               0.000000000               0.146446229               0.063340840               0.000000000               0.170016481               0.075784784               0.000000000               0.193586732               0.088228728               0.000000000               0.217156983               0.100672672               0.000000000               0.240727235               0.113116616               0.000000000               0.264297486               0.125560560               0.000000000               0.287867738               0.138004504               0.000000000               0.311437989               0.150448448               0.000000000               0.335008240               0.162892392               0.000000000               0.358578492               0.175336336               0.000000000               0.382148743               0.187780280               0.000000000               0.405718994               0.200224224               0.000000000               0.429289246               0.212668168               0.000000000               0.452859497               0.225112112               0.000000000               0.476429749               0.237556056               0.000000000               0.500000000               0.250000000               0.000000000               0.117295528               0.062695766               0.000000000               0.141214558               0.078308531               0.000000000               0.165133587               0.093921295               0.000000000               0.189052617               0.109534060               0.000000000               0.212971646               0.125146824               0.000000000               0.236890676               0.140759589               0.000000000               0.260809705               0.156372354               0.000000000               0.284728735               0.171985118               0.000000000               0.308647764               0.187597883               0.000000000               0.332566794               0.203210648               0.000000000               0.356485823               0.218823412               0.000000000               0.380404853               0.234436177               0.000000000               0.404323882               0.250048941               0.000000000               0.428242912               0.265661706               0.000000000               0.452161941               0.281274471               0.000000000               0.476080971               0.296887235               0.000000000               0.500000000               0.312500000               0.000000000               0.110585458               0.073890841               0.000000000               0.134923867               0.092710163               0.000000000               0.159262276               0.111529486               0.000000000               0.183600685               0.130348808               0.000000000               0.207939094               0.149168131               0.000000000               0.232277503               0.167987453               0.000000000               0.256615912               0.186806776               0.000000000               0.280954320               0.205626098               0.000000000               0.305292729               0.224445420               0.000000000               0.329631138               0.243264743               0.000000000               0.353969547               0.262084065               0.000000000               0.378307956               0.280903388               0.000000000               0.402646365               0.299722710               0.000000000               0.426984773               0.318542033               0.000000000               0.451323182               0.337361355               0.000000000               0.475661591               0.356180678               0.000000000               0.500000000               0.375000000               0.000000000               0.102810390               0.084374307               0.000000000               0.127634741               0.106444663               0.000000000               0.152459092               0.128515018               0.000000000               0.177283442               0.150585374               0.000000000               0.202107793               0.172655730               0.000000000               0.226932143               0.194726086               0.000000000               0.251756494               0.216796442               0.000000000               0.276580845               0.238866798               0.000000000               0.301405195               0.260937153               0.000000000               0.326229546               0.283007509               0.000000000               0.351053896               0.305077865               0.000000000               0.375878247               0.327148221               0.000000000               0.400702598               0.349218577               0.000000000               0.425526948               0.371288933               0.000000000               0.450351299               0.393359288               0.000000000               0.475175649               0.415429644               0.000000000               0.500000000               0.437500000               0.000000000               0.094045202               0.094045202               0.000000000               0.119417377               0.119417377               0.000000000               0.144789552               0.144789552               0.000000000               0.170161727               0.170161727               0.000000000               0.195533901               0.195533901               0.000000000               0.220906076               0.220906076               0.000000000               0.246278251               0.246278251               0.000000000               0.271650426               0.271650426               0.000000000               0.297022601               0.297022601               0.000000000               0.322394776               0.322394776               0.000000000               0.347766951               0.347766951               0.000000000               0.373139126               0.373139126               0.000000000               0.398511300               0.398511300               0.000000000               0.423883475               0.423883475               0.000000000               0.449255650               0.449255650               0.000000000               0.474627825               0.474627825               0.000000000               0.500000000               0.500000000               0.000000000               0.084374307               0.102810390               0.000000000               0.106444663               0.127634741               0.000000000               0.128515018               0.152459092               0.000000000               0.150585374               0.177283442               0.000000000               0.172655730               0.202107793               0.000000000               0.194726086               0.226932143               0.000000000               0.216796442               0.251756494               0.000000000               0.238866798               0.276580845               0.000000000               0.260937153               0.301405195               0.000000000               0.283007509               0.326229546               0.000000000               0.305077865               0.351053896               0.000000000               0.327148221               0.375878247               0.000000000               0.349218577               0.400702598               0.000000000               0.371288933               0.425526948               0.000000000               0.393359288               0.450351299               0.000000000               0.415429644               0.475175649               0.000000000               0.437500000               0.500000000               0.000000000               0.073890841               0.110585458               0.000000000               0.092710163               0.134923867               0.000000000               0.111529486               0.159262276               0.000000000               0.130348808               0.183600685               0.000000000               0.149168131               0.207939094               0.000000000               0.167987453               0.232277503               0.000000000               0.186806776               0.256615912               0.000000000               0.205626098               0.280954320               0.000000000               0.224445420               0.305292729               0.000000000               0.243264743               0.329631138               0.000000000               0.262084065               0.353969547               0.000000000               0.280903388               0.378307956               0.000000000               0.299722710               0.402646365               0.000000000               0.318542033               0.426984773               0.000000000               0.337361355               0.451323182               0.000000000               0.356180678               0.475661591               0.000000000               0.375000000               0.500000000               0.000000000               0.062695766               0.117295528               0.000000000               0.078308531               0.141214558               0.000000000               0.093921295               0.165133587               0.000000000               0.109534060               0.189052617               0.000000000               0.125146824               0.212971646               0.000000000               0.140759589               0.236890676               0.000000000               0.156372354               0.260809705               0.000000000               0.171985118               0.284728735               0.000000000               0.187597883               0.308647764               0.000000000               0.203210648               0.332566794               0.000000000               0.218823412               0.356485823               0.000000000               0.234436177               0.380404853               0.000000000               0.250048941               0.404323882               0.000000000               0.265661706               0.428242912               0.000000000               0.281274471               0.452161941               0.000000000               0.296887235               0.476080971               0.000000000               0.312500000               0.500000000               0.000000000               0.050896897               0.122875978               0.000000000               0.063340840               0.146446229               0.000000000               0.075784784               0.170016481               0.000000000               0.088228728               0.193586732               0.000000000               0.100672672               0.217156983               0.000000000               0.113116616               0.240727235               0.000000000               0.125560560               0.264297486               0.000000000               0.138004504               0.287867738               0.000000000               0.150448448               0.311437989               0.000000000               0.162892392               0.335008240               0.000000000               0.175336336               0.358578492               0.000000000               0.187780280               0.382148743               0.000000000               0.200224224               0.405718994               0.000000000               0.212668168               0.429289246               0.000000000               0.225112112               0.452859497               0.000000000               0.237556056               0.476429749               0.000000000               0.250000000               0.500000000               0.000000000               0.038607862               0.127273065               0.000000000               0.047913621               0.150568498               0.000000000               0.057219379               0.173863932               0.000000000               0.066525138               0.197159365               0.000000000               0.075830897               0.220454798               0.000000000               0.085136655               0.243750232               0.000000000               0.094442414               0.267045665               0.000000000               0.103748172               0.290341099               0.000000000               0.113053931               0.313636532               0.000000000               0.122359690               0.336931966               0.000000000               0.131665448               0.360227399               0.000000000               0.140971207               0.383522833               0.000000000               0.150276966               0.406818266               0.000000000               0.159582724               0.430113700               0.000000000               0.168888483               0.453409133               0.000000000               0.178194241               0.476704567               0.000000000               0.187500000               0.500000000               0.000000000               0.025947013               0.130444442               0.000000000               0.032137825               0.153541665               0.000000000               0.038328636               0.176638887               0.000000000               0.044519448               0.199736109               0.000000000               0.050710260               0.222833332               0.000000000               0.056901071               0.245930554               0.000000000               0.063091883               0.269027776               0.000000000               0.069282695               0.292124999               0.000000000               0.075473506               0.315222221               0.000000000               0.081664318               0.338319444               0.000000000               0.087855130               0.361416666               0.000000000               0.094045942               0.384513888               0.000000000               0.100236753               0.407611111               0.000000000               0.106427565               0.430708333               0.000000000               0.112618377               0.453805555               0.000000000               0.118809188               0.476902778               0.000000000               0.125000000               0.500000000               0.000000000               0.013036280               0.132359569               0.000000000               0.016127762               0.155337096               0.000000000               0.019219245               0.178314623               0.000000000               0.022310727               0.201292150               0.000000000               0.025402210               0.224269676               0.000000000               0.028493692               0.247247203               0.000000000               0.031585175               0.270224730               0.000000000               0.034676657               0.293202257               0.000000000               0.037768140               0.316179784               0.000000000               0.040859622               0.339157311               0.000000000               0.043951105               0.362134838               0.000000000               0.047042587               0.385112365               0.000000000               0.050134070               0.408089892               0.000000000               0.053225552               0.431067419               0.000000000               0.056317035               0.454044946               0.000000000               0.059408517               0.477022473               0.000000000               0.062500000               0.500000000               0.000000000               0.000000000               0.133000000               0.000000000               0.000000000               0.155937500               0.000000000               0.000000000               0.178875000               0.000000000               0.000000000               0.201812500               0.000000000               0.000000000               0.224750000               0.000000000               0.000000000               0.247687500               0.000000000               0.000000000               0.270625000               0.000000000               0.000000000               0.293562500               0.000000000               0.000000000               0.316500000               0.000000000               0.000000000               0.339437500               0.000000000               0.000000000               0.362375000               0.000000000               0.000000000               0.385312500               0.000000000               0.000000000               0.408250000               0.000000000               0.000000000               0.431187500               0.000000000               0.000000000               0.454125000               0.000000000               0.000000000               0.477062500               0.000000000               0.000000000               0.500000000               0.000000000               0.133000000               0.000000000               0.000000000               0.155937500               0.000000000               0.000000000               0.178875000               0.000000000               0.000000000               0.201812500               0.000000000               0.000000000               0.224750000               0.000000000               0.000000000               0.247687500               0.000000000               0.000000000               0.270625000               0.000000000               0.000000000               0.293562500               0.000000000               0.000000000               0.316500000               0.000000000               0.000000000               0.339437500               0.000000000               0.000000000               0.362375000               0.000000000               0.000000000               0.385312500               0.000000000               0.000000000               0.408250000               0.000000000               0.000000000               0.431187500               0.000000000               0.000000000               0.454125000               0.000000000               0.000000000               0.477062500               0.000000000               0.000000000               0.500000000               0.000000000               0.000000000               0.132359569              -0.013036280               0.000000000               0.155337096              -0.016127762               0.000000000               0.178314623              -0.019219245               0.000000000               0.201292150              -0.022310727               0.000000000               0.224269676              -0.025402210               0.000000000               0.247247203              -0.028493692               0.000000000               0.270224730              -0.031585175               0.000000000               0.293202257              -0.034676657               0.000000000               0.316179784              -0.037768140               0.000000000               0.339157311              -0.040859622               0.000000000               0.362134838              -0.043951105               0.000000000               0.385112365              -0.047042587               0.000000000               0.408089892              -0.050134070               0.000000000               0.431067419              -0.053225552               0.000000000               0.454044946              -0.056317035               0.000000000               0.477022473              -0.059408517               0.000000000               0.500000000              -0.062500000               0.000000000               0.130444442              -0.025947013               0.000000000               0.153541665              -0.032137825               0.000000000               0.176638887              -0.038328636               0.000000000               0.199736109              -0.044519448               0.000000000               0.222833332              -0.050710260               0.000000000               0.245930554              -0.056901071               0.000000000               0.269027776              -0.063091883               0.000000000               0.292124999              -0.069282695               0.000000000               0.315222221              -0.075473506               0.000000000               0.338319444              -0.081664318               0.000000000               0.361416666              -0.087855130               0.000000000               0.384513888              -0.094045942               0.000000000               0.407611111              -0.100236753               0.000000000               0.430708333              -0.106427565               0.000000000               0.453805555              -0.112618377               0.000000000               0.476902778              -0.118809188               0.000000000               0.500000000              -0.125000000               0.000000000               0.127273065              -0.038607862               0.000000000               0.150568498              -0.047913621               0.000000000               0.173863932              -0.057219379               0.000000000               0.197159365              -0.066525138               0.000000000               0.220454798              -0.075830897               0.000000000               0.243750232              -0.085136655               0.000000000               0.267045665              -0.094442414               0.000000000               0.290341099              -0.103748172               0.000000000               0.313636532              -0.113053931               0.000000000               0.336931966              -0.122359690               0.000000000               0.360227399              -0.131665448               0.000000000               0.383522833              -0.140971207               0.000000000               0.406818266              -0.150276966               0.000000000               0.430113700              -0.159582724               0.000000000               0.453409133              -0.168888483               0.000000000               0.476704567              -0.178194241               0.000000000               0.500000000              -0.187500000               0.000000000               0.122875978              -0.050896897               0.000000000               0.146446229              -0.063340840               0.000000000               0.170016481              -0.075784784               0.000000000               0.193586732              -0.088228728               0.000000000               0.217156983              -0.100672672               0.000000000               0.240727235              -0.113116616               0.000000000               0.264297486              -0.125560560               0.000000000               0.287867738              -0.138004504               0.000000000               0.311437989              -0.150448448               0.000000000               0.335008240              -0.162892392               0.000000000               0.358578492              -0.175336336               0.000000000               0.382148743              -0.187780280               0.000000000               0.405718994              -0.200224224               0.000000000               0.429289246              -0.212668168               0.000000000               0.452859497              -0.225112112               0.000000000               0.476429749              -0.237556056               0.000000000               0.500000000              -0.250000000               0.000000000               0.117295528              -0.062695766               0.000000000               0.141214558              -0.078308531               0.000000000               0.165133587              -0.093921295               0.000000000               0.189052617              -0.109534060               0.000000000               0.212971646              -0.125146824               0.000000000               0.236890676              -0.140759589               0.000000000               0.260809705              -0.156372354               0.000000000               0.284728735              -0.171985118               0.000000000               0.308647764              -0.187597883               0.000000000               0.332566794              -0.203210648               0.000000000               0.356485823              -0.218823412               0.000000000               0.380404853              -0.234436177               0.000000000               0.404323882              -0.250048941               0.000000000               0.428242912              -0.265661706               0.000000000               0.452161941              -0.281274471               0.000000000               0.476080971              -0.296887235               0.000000000               0.500000000              -0.312500000               0.000000000               0.110585458              -0.073890841               0.000000000               0.134923867              -0.092710163               0.000000000               0.159262276              -0.111529486               0.000000000               0.183600685              -0.130348808               0.000000000               0.207939094              -0.149168131               0.000000000               0.232277503              -0.167987453               0.000000000               0.256615912              -0.186806776               0.000000000               0.280954320              -0.205626098               0.000000000               0.305292729              -0.224445420               0.000000000               0.329631138              -0.243264743               0.000000000               0.353969547              -0.262084065               0.000000000               0.378307956              -0.280903388               0.000000000               0.402646365              -0.299722710               0.000000000               0.426984773              -0.318542033               0.000000000               0.451323182              -0.337361355               0.000000000               0.475661591              -0.356180678               0.000000000               0.500000000              -0.375000000               0.000000000               0.102810390              -0.084374307               0.000000000               0.127634741              -0.106444663               0.000000000               0.152459092              -0.128515018               0.000000000               0.177283442              -0.150585374               0.000000000               0.202107793              -0.172655730               0.000000000               0.226932143              -0.194726086               0.000000000               0.251756494              -0.216796442               0.000000000               0.276580845              -0.238866798               0.000000000               0.301405195              -0.260937153               0.000000000               0.326229546              -0.283007509               0.000000000               0.351053896              -0.305077865               0.000000000               0.375878247              -0.327148221               0.000000000               0.400702598              -0.349218577               0.000000000               0.425526948              -0.371288933               0.000000000               0.450351299              -0.393359288               0.000000000               0.475175649              -0.415429644               0.000000000               0.500000000              -0.437500000               0.000000000               0.094045202              -0.094045202               0.000000000               0.119417377              -0.119417377               0.000000000               0.144789552              -0.144789552               0.000000000               0.170161727              -0.170161727               0.000000000               0.195533901              -0.195533901               0.000000000               0.220906076              -0.220906076               0.000000000               0.246278251              -0.246278251               0.000000000               0.271650426              -0.271650426               0.000000000               0.297022601              -0.297022601               0.000000000               0.322394776              -0.322394776               0.000000000               0.347766951              -0.347766951               0.000000000               0.373139126              -0.373139126               0.000000000               0.398511300              -0.398511300               0.000000000               0.423883475              -0.423883475               0.000000000               0.449255650              -0.449255650               0.000000000               0.474627825              -0.474627825               0.000000000               0.500000000              -0.500000000               0.000000000               0.084374307              -0.102810390               0.000000000               0.106444663              -0.127634741               0.000000000               0.128515018              -0.152459092               0.000000000               0.150585374              -0.177283442               0.000000000               0.172655730              -0.202107793               0.000000000               0.194726086              -0.226932143               0.000000000               0.216796442              -0.251756494               0.000000000               0.238866798              -0.276580845               0.000000000               0.260937153              -0.301405195               0.000000000               0.283007509              -0.326229546               0.000000000               0.305077865              -0.351053896               0.000000000               0.327148221              -0.375878247               0.000000000               0.349218577              -0.400702598               0.000000000               0.371288933              -0.425526948               0.000000000               0.393359288              -0.450351299               0.000000000               0.415429644              -0.475175649               0.000000000               0.437500000              -0.500000000               0.000000000               0.073890841              -0.110585458               0.000000000               0.092710163              -0.134923867               0.000000000               0.111529486              -0.159262276               0.000000000               0.130348808              -0.183600685               0.000000000               0.149168131              -0.207939094               0.000000000               0.167987453              -0.232277503               0.000000000               0.186806776              -0.256615912               0.000000000               0.205626098              -0.280954320               0.000000000               0.224445420              -0.305292729               0.000000000               0.243264743              -0.329631138               0.000000000               0.262084065              -0.353969547               0.000000000               0.280903388              -0.378307956               0.000000000               0.299722710              -0.402646365               0.000000000               0.318542033              -0.426984773               0.000000000               0.337361355              -0.451323182               0.000000000               0.356180678              -0.475661591               0.000000000               0.375000000              -0.500000000               0.000000000               0.062695766              -0.117295528               0.000000000               0.078308531              -0.141214558               0.000000000               0.093921295              -0.165133587               0.000000000               0.109534060              -0.189052617               0.000000000               0.125146824              -0.212971646               0.000000000               0.140759589              -0.236890676               0.000000000               0.156372354              -0.260809705               0.000000000               0.171985118              -0.284728735               0.000000000               0.187597883              -0.308647764               0.000000000               0.203210648              -0.332566794               0.000000000               0.218823412              -0.356485823               0.000000000               0.234436177              -0.380404853               0.000000000               0.250048941              -0.404323882               0.000000000               0.265661706              -0.428242912               0.000000000               0.281274471              -0.452161941               0.000000000               0.296887235              -0.476080971               0.000000000               0.312500000              -0.500000000               0.000000000               0.050896897              -0.122875978               0.000000000               0.063340840              -0.146446229               0.000000000               0.075784784              -0.170016481               0.000000000               0.088228728              -0.193586732               0.000000000               0.100672672              -0.217156983               0.000000000               0.113116616              -0.240727235               0.000000000               0.125560560              -0.264297486               0.000000000               0.138004504              -0.287867738               0.000000000               0.150448448              -0.311437989               0.000000000               0.162892392              -0.335008240               0.000000000               0.175336336              -0.358578492               0.000000000               0.187780280              -0.382148743               0.000000000               0.200224224              -0.405718994               0.000000000               0.212668168              -0.429289246               0.000000000               0.225112112              -0.452859497               0.000000000               0.237556056              -0.476429749               0.000000000               0.250000000              -0.500000000               0.000000000               0.038607862              -0.127273065               0.000000000               0.047913621              -0.150568498               0.000000000               0.057219379              -0.173863932               0.000000000               0.066525138              -0.197159365               0.000000000               0.075830897              -0.220454798               0.000000000               0.085136655              -0.243750232               0.000000000               0.094442414              -0.267045665               0.000000000               0.103748172              -0.290341099               0.000000000               0.113053931              -0.313636532               0.000000000               0.122359690              -0.336931966               0.000000000               0.131665448              -0.360227399               0.000000000               0.140971207              -0.383522833               0.000000000               0.150276966              -0.406818266               0.000000000               0.159582724              -0.430113700               0.000000000               0.168888483              -0.453409133               0.000000000               0.178194241              -0.476704567               0.000000000               0.187500000              -0.500000000               0.000000000               0.025947013              -0.130444442               0.000000000               0.032137825              -0.153541665               0.000000000               0.038328636              -0.176638887               0.000000000               0.044519448              -0.199736109               0.000000000               0.050710260              -0.222833332               0.000000000               0.056901071              -0.245930554               0.000000000               0.063091883              -0.269027776               0.000000000               0.069282695              -0.292124999               0.000000000               0.075473506              -0.315222221               0.000000000               0.081664318              -0.338319444               0.000000000               0.087855130              -0.361416666               0.000000000               0.094045942              -0.384513888               0.000000000               0.100236753              -0.407611111               0.000000000               0.106427565              -0.430708333               0.000000000               0.112618377              -0.453805555               0.000000000               0.118809188              -0.476902778               0.000000000               0.125000000              -0.500000000               0.000000000               0.013036280              -0.132359569               0.000000000               0.016127762              -0.155337096               0.000000000               0.019219245              -0.178314623               0.000000000               0.022310727              -0.201292150               0.000000000               0.025402210              -0.224269676               0.000000000               0.028493692              -0.247247203               0.000000000               0.031585175              -0.270224730               0.000000000               0.034676657              -0.293202257               0.000000000               0.037768140              -0.316179784               0.000000000               0.040859622              -0.339157311               0.000000000               0.043951105              -0.362134838               0.000000000               0.047042587              -0.385112365               0.000000000               0.050134070              -0.408089892               0.000000000               0.053225552              -0.431067419               0.000000000               0.056317035              -0.454044946               0.000000000               0.059408517              -0.477022473               0.000000000               0.062500000              -0.500000000               0.000000000               0.000000000              -0.133000000               0.000000000               0.000000000              -0.155937500               0.000000000               0.000000000              -0.178875000               0.000000000               0.000000000              -0.201812500               0.000000000               0.000000000              -0.224750000               0.000000000               0.000000000              -0.247687500               0.000000000               0.000000000              -0.270625000               0.000000000               0.000000000              -0.293562500               0.000000000               0.000000000              -0.316500000               0.000000000               0.000000000              -0.339437500               0.000000000               0.000000000              -0.362375000               0.000000000               0.000000000              -0.385312500               0.000000000               0.000000000              -0.408250000               0.000000000               0.000000000              -0.431187500               0.000000000               0.000000000              -0.454125000               0.000000000               0.000000000              -0.477062500               0.000000000               0.000000000              -0.500000000               0.000000000              -0.133000000               0.000000000               0.000000000              -0.155937500               0.000000000               0.000000000              -0.178875000               0.000000000               0.000000000              -0.201812500               0.000000000               0.000000000              -0.224750000               0.000000000               0.000000000              -0.247687500               0.000000000               0.000000000              -0.270625000               0.000000000               0.000000000              -0.293562500               0.000000000               0.000000000              -0.316500000               0.000000000               0.000000000              -0.339437500               0.000000000               0.000000000              -0.362375000               0.000000000               0.000000000              -0.385312500               0.000000000               0.000000000              -0.408250000               0.000000000               0.000000000              -0.431187500               0.000000000               0.000000000              -0.454125000               0.000000000               0.000000000              -0.477062500               0.000000000               0.000000000              -0.500000000               0.000000000               0.000000000              -0.132359569              -0.013036280               0.000000000              -0.155337096              -0.016127762               0.000000000              -0.178314623              -0.019219245               0.000000000              -0.201292150              -0.022310727               0.000000000              -0.224269676              -0.025402210               0.000000000              -0.247247203              -0.028493692               0.000000000              -0.270224730              -0.031585175               0.000000000              -0.293202257              -0.034676657               0.000000000              -0.316179784              -0.037768140               0.000000000              -0.339157311              -0.040859622               0.000000000              -0.362134838              -0.043951105               0.000000000              -0.385112365              -0.047042587               0.000000000              -0.408089892              -0.050134070               0.000000000              -0.431067419              -0.053225552               0.000000000              -0.454044946              -0.056317035               0.000000000              -0.477022473              -0.059408517               0.000000000              -0.500000000              -0.062500000               0.000000000              -0.130444442              -0.025947013               0.000000000              -0.153541665              -0.032137825               0.000000000              -0.176638887              -0.038328636               0.000000000              -0.199736109              -0.044519448               0.000000000              -0.222833332              -0.050710260               0.000000000              -0.245930554              -0.056901071               0.000000000              -0.269027776              -0.063091883               0.000000000              -0.292124999              -0.069282695               0.000000000              -0.315222221              -0.075473506               0.000000000              -0.338319444              -0.081664318               0.000000000              -0.361416666              -0.087855130               0.000000000              -0.384513888              -0.094045942               0.000000000              -0.407611111              -0.100236753               0.000000000              -0.430708333              -0.106427565               0.000000000              -0.453805555              -0.112618377               0.000000000              -0.476902778              -0.118809188               0.000000000              -0.500000000              -0.125000000               0.000000000              -0.127273065              -0.038607862               0.000000000              -0.150568498              -0.047913621               0.000000000              -0.173863932              -0.057219379               0.000000000              -0.197159365              -0.066525138               0.000000000              -0.220454798              -0.075830897               0.000000000              -0.243750232              -0.085136655               0.000000000              -0.267045665              -0.094442414               0.000000000              -0.290341099              -0.103748172               0.000000000              -0.313636532              -0.113053931               0.000000000              -0.336931966              -0.122359690               0.000000000              -0.360227399              -0.131665448               0.000000000              -0.383522833              -0.140971207               0.000000000              -0.406818266              -0.150276966               0.000000000              -0.430113700              -0.159582724               0.000000000              -0.453409133              -0.168888483               0.000000000              -0.476704567              -0.178194241               0.000000000              -0.500000000              -0.187500000               0.000000000              -0.122875978              -0.050896897               0.000000000              -0.146446229              -0.063340840               0.000000000              -0.170016481              -0.075784784               0.000000000              -0.193586732              -0.088228728               0.000000000              -0.217156983              -0.100672672               0.000000000              -0.240727235              -0.113116616               0.000000000              -0.264297486              -0.125560560               0.000000000              -0.287867738              -0.138004504               0.000000000              -0.311437989              -0.150448448               0.000000000              -0.335008240              -0.162892392               0.000000000              -0.358578492              -0.175336336               0.000000000              -0.382148743              -0.187780280               0.000000000              -0.405718994              -0.200224224               0.000000000              -0.429289246              -0.212668168               0.000000000              -0.452859497              -0.225112112               0.000000000              -0.476429749              -0.237556056               0.000000000              -0.500000000              -0.250000000               0.000000000              -0.117295528              -0.062695766               0.000000000              -0.141214558              -0.078308531               0.000000000              -0.165133587              -0.093921295               0.000000000              -0.189052617              -0.109534060               0.000000000              -0.212971646              -0.125146824               0.000000000              -0.236890676              -0.140759589               0.000000000              -0.260809705              -0.156372354               0.000000000              -0.284728735              -0.171985118               0.000000000              -0.308647764              -0.187597883               0.000000000              -0.332566794              -0.203210648               0.000000000              -0.356485823              -0.218823412               0.000000000              -0.380404853              -0.234436177               0.000000000              -0.404323882              -0.250048941               0.000000000              -0.428242912              -0.265661706               0.000000000              -0.452161941              -0.281274471               0.000000000              -0.476080971              -0.296887235               0.000000000              -0.500000000              -0.312500000               0.000000000              -0.110585458              -0.073890841               0.000000000              -0.134923867              -0.092710163               0.000000000              -0.159262276              -0.111529486               0.000000000              -0.183600685              -0.130348808               0.000000000              -0.207939094              -0.149168131               0.000000000              -0.232277503              -0.167987453               0.000000000              -0.256615912              -0.186806776               0.000000000              -0.280954320              -0.205626098               0.000000000              -0.305292729              -0.224445420               0.000000000              -0.329631138              -0.243264743               0.000000000              -0.353969547              -0.262084065               0.000000000              -0.378307956              -0.280903388               0.000000000              -0.402646365              -0.299722710               0.000000000              -0.426984773              -0.318542033               0.000000000              -0.451323182              -0.337361355               0.000000000              -0.475661591              -0.356180678               0.000000000              -0.500000000              -0.375000000               0.000000000              -0.102810390              -0.084374307               0.000000000              -0.127634741              -0.106444663               0.000000000              -0.152459092              -0.128515018               0.000000000              -0.177283442              -0.150585374               0.000000000              -0.202107793              -0.172655730               0.000000000              -0.226932143              -0.194726086               0.000000000              -0.251756494              -0.216796442               0.000000000              -0.276580845              -0.238866798               0.000000000              -0.301405195              -0.260937153               0.000000000              -0.326229546              -0.283007509               0.000000000              -0.351053896              -0.305077865               0.000000000              -0.375878247              -0.327148221               0.000000000              -0.400702598              -0.349218577               0.000000000              -0.425526948              -0.371288933               0.000000000              -0.450351299              -0.393359288               0.000000000              -0.475175649              -0.415429644               0.000000000              -0.500000000              -0.437500000               0.000000000              -0.094045202              -0.094045202               0.000000000              -0.119417377              -0.119417377               0.000000000              -0.144789552              -0.144789552               0.000000000              -0.170161727              -0.170161727               0.000000000              -0.195533901              -0.195533901               0.000000000              -0.220906076              -0.220906076               0.000000000              -0.246278251              -0.246278251               0.000000000              -0.271650426              -0.271650426               0.000000000              -0.297022601              -0.297022601               0.000000000              -0.322394776              -0.322394776               0.000000000              -0.347766951              -0.347766951               0.000000000              -0.373139126              -0.373139126               0.000000000              -0.398511300              -0.398511300               0.000000000              -0.423883475              -0.423883475               0.000000000              -0.449255650              -0.449255650               0.000000000              -0.474627825              -0.474627825               0.000000000              -0.500000000              -0.500000000               0.000000000              -0.084374307              -0.102810390               0.000000000              -0.106444663              -0.127634741               0.000000000              -0.128515018              -0.152459092               0.000000000              -0.150585374              -0.177283442               0.000000000              -0.172655730              -0.202107793               0.000000000              -0.194726086              -0.226932143               0.000000000              -0.216796442              -0.251756494               0.000000000              -0.238866798              -0.276580845               0.000000000              -0.260937153              -0.301405195               0.000000000              -0.283007509              -0.326229546               0.000000000              -0.305077865              -0.351053896               0.000000000              -0.327148221              -0.375878247               0.000000000              -0.349218577              -0.400702598               0.000000000              -0.371288933              -0.425526948               0.000000000              -0.393359288              -0.450351299               0.000000000              -0.415429644              -0.475175649               0.000000000              -0.437500000              -0.500000000               0.000000000              -0.073890841              -0.110585458               0.000000000              -0.092710163              -0.134923867               0.000000000              -0.111529486              -0.159262276               0.000000000              -0.130348808              -0.183600685               0.000000000              -0.149168131              -0.207939094               0.000000000              -0.167987453              -0.232277503               0.000000000              -0.186806776              -0.256615912               0.000000000              -0.205626098              -0.280954320               0.000000000              -0.224445420              -0.305292729               0.000000000              -0.243264743              -0.329631138               0.000000000              -0.262084065              -0.353969547               0.000000000              -0.280903388              -0.378307956               0.000000000              -0.299722710              -0.402646365               0.000000000              -0.318542033              -0.426984773               0.000000000              -0.337361355              -0.451323182               0.000000000              -0.356180678              -0.475661591               0.000000000              -0.375000000              -0.500000000               0.000000000              -0.062695766              -0.117295528               0.000000000              -0.078308531              -0.141214558               0.000000000              -0.093921295              -0.165133587               0.000000000              -0.109534060              -0.189052617               0.000000000              -0.125146824              -0.212971646               0.000000000              -0.140759589              -0.236890676               0.000000000              -0.156372354              -0.260809705               0.000000000              -0.171985118              -0.284728735               0.000000000              -0.187597883              -0.308647764               0.000000000              -0.203210648              -0.332566794               0.000000000              -0.218823412              -0.356485823               0.000000000              -0.234436177              -0.380404853               0.000000000              -0.250048941              -0.404323882               0.000000000              -0.265661706              -0.428242912               0.000000000              -0.281274471              -0.452161941               0.000000000              -0.296887235              -0.476080971               0.000000000              -0.312500000              -0.500000000               0.000000000              -0.050896897              -0.122875978               0.000000000              -0.063340840              -0.146446229               0.000000000              -0.075784784              -0.170016481               0.000000000              -0.088228728              -0.193586732               0.000000000              -0.100672672              -0.217156983               0.000000000              -0.113116616              -0.240727235               0.000000000              -0.125560560              -0.264297486               0.000000000              -0.138004504              -0.287867738               0.000000000              -0.150448448              -0.311437989               0.000000000              -0.162892392              -0.335008240               0.000000000              -0.175336336              -0.358578492               0.000000000              -0.187780280              -0.382148743               0.000000000              -0.200224224              -0.405718994               0.000000000              -0.212668168              -0.429289246               0.000000000              -0.225112112              -0.452859497               0.000000000              -0.237556056              -0.476429749               0.000000000              -0.250000000              -0.500000000               0.000000000              -0.038607862              -0.127273065               0.000000000              -0.047913621              -0.150568498               0.000000000              -0.057219379              -0.173863932               0.000000000              -0.066525138              -0.197159365               0.000000000              -0.075830897              -0.220454798               0.000000000              -0.085136655              -0.243750232               0.000000000              -0.094442414              -0.267045665               0.000000000              -0.103748172              -0.290341099               0.000000000              -0.113053931              -0.313636532               0.000000000              -0.122359690              -0.336931966               0.000000000              -0.131665448              -0.360227399               0.000000000              -0.140971207              -0.383522833               0.000000000              -0.150276966              -0.406818266               0.000000000              -0.159582724              -0.430113700               0.000000000              -0.168888483              -0.453409133               0.000000000              -0.178194241              -0.476704567               0.000000000              -0.187500000              -0.500000000               0.000000000              -0.025947013              -0.130444442               0.000000000              -0.032137825              -0.153541665               0.000000000              -0.038328636              -0.176638887               0.000000000              -0.044519448              -0.199736109               0.000000000              -0.050710260              -0.222833332               0.000000000              -0.056901071              -0.245930554               0.000000000              -0.063091883              -0.269027776               0.000000000              -0.069282695              -0.292124999               0.000000000              -0.075473506              -0.315222221               0.000000000              -0.081664318              -0.338319444               0.000000000              -0.087855130              -0.361416666               0.000000000              -0.094045942              -0.384513888               0.000000000              -0.100236753              -0.407611111               0.000000000              -0.106427565              -0.430708333               0.000000000              -0.112618377              -0.453805555               0.000000000              -0.118809188              -0.476902778               0.000000000              -0.125000000              -0.500000000               0.000000000              -0.013036280              -0.132359569               0.000000000              -0.016127762              -0.155337096               0.000000000              -0.019219245              -0.178314623               0.000000000              -0.022310727              -0.201292150               0.000000000              -0.025402210              -0.224269676               0.000000000              -0.028493692              -0.247247203               0.000000000              -0.031585175              -0.270224730               0.000000000              -0.034676657              -0.293202257               0.000000000              -0.037768140              -0.316179784               0.000000000              -0.040859622              -0.339157311               0.000000000              -0.043951105              -0.362134838               0.000000000              -0.047042587              -0.385112365               0.000000000              -0.050134070              -0.408089892               0.000000000              -0.053225552              -0.431067419               0.000000000              -0.056317035              -0.454044946               0.000000000              -0.059408517              -0.477022473               0.000000000              -0.062500000              -0.500000000               0.000000000               0.000000000              -0.133000000               0.000000000               0.000000000              -0.155937500               0.000000000               0.000000000              -0.178875000               0.000000000               0.000000000              -0.201812500               0.000000000               0.000000000              -0.224750000               0.000000000               0.000000000              -0.247687500               0.000000000               0.000000000              -0.270625000               0.000000000               0.000000000              -0.293562500               0.000000000               0.000000000              -0.316500000               0.000000000               0.000000000              -0.339437500               0.000000000               0.000000000              -0.362375000               0.000000000               0.000000000              -0.385312500               0.000000000               0.000000000              -0.408250000               0.000000000               0.000000000              -0.431187500               0.000000000               0.000000000              -0.454125000               0.000000000               0.000000000              -0.477062500               0.000000000               0.000000000              -0.500000000               0.000000000              -0.133000000               0.000000000               0.000000000              -0.155937500               0.000000000               0.000000000              -0.178875000               0.000000000               0.000000000              -0.201812500               0.000000000               0.000000000              -0.224750000               0.000000000               0.000000000              -0.247687500               0.000000000               0.000000000              -0.270625000               0.000000000               0.000000000              -0.293562500               0.000000000               0.000000000              -0.316500000               0.000000000               0.000000000              -0.339437500               0.000000000               0.000000000              -0.362375000               0.000000000               0.000000000              -0.385312500               0.000000000               0.000000000              -0.408250000               0.000000000               0.000000000              -0.431187500               0.000000000               0.000000000              -0.454125000               0.000000000               0.000000000              -0.477062500               0.000000000               0.000000000              -0.500000000               0.000000000               0.000000000              -0.132359569               0.013036280               0.000000000              -0.155337096               0.016127762               0.000000000              -0.178314623               0.019219245               0.000000000              -0.201292150               0.022310727               0.000000000              -0.224269676               0.025402210               0.000000000              -0.247247203               0.028493692               0.000000000              -0.270224730               0.031585175               0.000000000              -0.293202257               0.034676657               0.000000000              -0.316179784               0.037768140               0.000000000              -0.339157311               0.040859622               0.000000000              -0.362134838               0.043951105               0.000000000              -0.385112365               0.047042587               0.000000000              -0.408089892               0.050134070               0.000000000              -0.431067419               0.053225552               0.000000000              -0.454044946               0.056317035               0.000000000              -0.477022473               0.059408517               0.000000000              -0.500000000               0.062500000               0.000000000              -0.130444442               0.025947013               0.000000000              -0.153541665               0.032137825               0.000000000              -0.176638887               0.038328636               0.000000000              -0.199736109               0.044519448               0.000000000              -0.222833332               0.050710260               0.000000000              -0.245930554               0.056901071               0.000000000              -0.269027776               0.063091883               0.000000000              -0.292124999               0.069282695               0.000000000              -0.315222221               0.075473506               0.000000000              -0.338319444               0.081664318               0.000000000              -0.361416666               0.087855130               0.000000000              -0.384513888               0.094045942               0.000000000              -0.407611111               0.100236753               0.000000000              -0.430708333               0.106427565               0.000000000              -0.453805555               0.112618377               0.000000000              -0.476902778               0.118809188               0.000000000              -0.500000000               0.125000000               0.000000000              -0.127273065               0.038607862               0.000000000              -0.150568498               0.047913621               0.000000000              -0.173863932               0.057219379               0.000000000              -0.197159365               0.066525138               0.000000000              -0.220454798               0.075830897               0.000000000              -0.243750232               0.085136655               0.000000000              -0.267045665               0.094442414               0.000000000              -0.290341099               0.103748172               0.000000000              -0.313636532               0.113053931               0.000000000              -0.336931966               0.122359690               0.000000000              -0.360227399               0.131665448               0.000000000              -0.383522833               0.140971207               0.000000000              -0.406818266               0.150276966               0.000000000              -0.430113700               0.159582724               0.000000000              -0.453409133               0.168888483               0.000000000              -0.476704567               0.178194241               0.000000000              -0.500000000               0.187500000               0.000000000              -0.122875978               0.050896897               0.000000000              -0.146446229               0.063340840               0.000000000              -0.170016481               0.075784784               0.000000000              -0.193586732               0.088228728               0.000000000              -0.217156983               0.100672672               0.000000000              -0.240727235               0.113116616               0.000000000              -0.264297486               0.125560560               0.000000000              -0.287867738               0.138004504               0.000000000              -0.311437989               0.150448448               0.000000000              -0.335008240               0.162892392               0.000000000              -0.358578492               0.175336336               0.000000000              -0.382148743               0.187780280               0.000000000              -0.405718994               0.200224224               0.000000000              -0.429289246               0.212668168               0.000000000              -0.452859497               0.225112112               0.000000000              -0.476429749               0.237556056               0.000000000              -0.500000000               0.250000000               0.000000000              -0.117295528               0.062695766               0.000000000              -0.141214558               0.078308531               0.000000000              -0.165133587               0.093921295               0.000000000              -0.189052617               0.109534060               0.000000000              -0.212971646               0.125146824               0.000000000              -0.236890676               0.140759589               0.000000000              -0.260809705               0.156372354               0.000000000              -0.284728735               0.171985118               0.000000000              -0.308647764               0.187597883               0.000000000              -0.332566794               0.203210648               0.000000000              -0.356485823               0.218823412               0.000000000              -0.380404853               0.234436177               0.000000000              -0.404323882               0.250048941               0.000000000              -0.428242912               0.265661706               0.000000000              -0.452161941               0.281274471               0.000000000              -0.476080971               0.296887235               0.000000000              -0.500000000               0.312500000               0.000000000              -0.110585458               0.073890841               0.000000000              -0.134923867               0.092710163               0.000000000              -0.159262276               0.111529486               0.000000000              -0.183600685               0.130348808               0.000000000              -0.207939094               0.149168131               0.000000000              -0.232277503               0.167987453               0.000000000              -0.256615912               0.186806776               0.000000000              -0.280954320               0.205626098               0.000000000              -0.305292729               0.224445420               0.000000000              -0.329631138               0.243264743               0.000000000              -0.353969547               0.262084065               0.000000000              -0.378307956               0.280903388               0.000000000              -0.402646365               0.299722710               0.000000000              -0.426984773               0.318542033               0.000000000              -0.451323182               0.337361355               0.000000000              -0.475661591               0.356180678               0.000000000              -0.500000000               0.375000000               0.000000000              -0.102810390               0.084374307               0.000000000              -0.127634741               0.106444663               0.000000000              -0.152459092               0.128515018               0.000000000              -0.177283442               0.150585374               0.000000000              -0.202107793               0.172655730               0.000000000              -0.226932143               0.194726086               0.000000000              -0.251756494               0.216796442               0.000000000              -0.276580845               0.238866798               0.000000000              -0.301405195               0.260937153               0.000000000              -0.326229546               0.283007509               0.000000000              -0.351053896               0.305077865               0.000000000              -0.375878247               0.327148221               0.000000000              -0.400702598               0.349218577               0.000000000              -0.425526948               0.371288933               0.000000000              -0.450351299               0.393359288               0.000000000              -0.475175649               0.415429644               0.000000000              -0.500000000               0.437500000               0.000000000              -0.094045202               0.094045202               0.000000000              -0.119417377               0.119417377               0.000000000              -0.144789552               0.144789552               0.000000000              -0.170161727               0.170161727               0.000000000              -0.195533901               0.195533901               0.000000000              -0.220906076               0.220906076               0.000000000              -0.246278251               0.246278251               0.000000000              -0.271650426               0.271650426               0.000000000              -0.297022601               0.297022601               0.000000000              -0.322394776               0.322394776               0.000000000              -0.347766951               0.347766951               0.000000000              -0.373139126               0.373139126               0.000000000              -0.398511300               0.398511300               0.000000000              -0.423883475               0.423883475               0.000000000              -0.449255650               0.449255650               0.000000000              -0.474627825               0.474627825               0.000000000              -0.500000000               0.500000000               0.000000000              -0.084374307               0.102810390               0.000000000              -0.106444663               0.127634741               0.000000000              -0.128515018               0.152459092               0.000000000              -0.150585374               0.177283442               0.000000000              -0.172655730               0.202107793               0.000000000              -0.194726086               0.226932143               0.000000000              -0.216796442               0.251756494               0.000000000              -0.238866798               0.276580845               0.000000000              -0.260937153               0.301405195               0.000000000              -0.283007509               0.326229546               0.000000000              -0.305077865               0.351053896               0.000000000              -0.327148221               0.375878247               0.000000000              -0.349218577               0.400702598               0.000000000              -0.371288933               0.425526948               0.000000000              -0.393359288               0.450351299               0.000000000              -0.415429644               0.475175649               0.000000000              -0.437500000               0.500000000               0.000000000              -0.073890841               0.110585458               0.000000000              -0.092710163               0.134923867               0.000000000              -0.111529486               0.159262276               0.000000000              -0.130348808               0.183600685               0.000000000              -0.149168131               0.207939094               0.000000000              -0.167987453               0.232277503               0.000000000              -0.186806776               0.256615912               0.000000000              -0.205626098               0.280954320               0.000000000              -0.224445420               0.305292729               0.000000000              -0.243264743               0.329631138               0.000000000              -0.262084065               0.353969547               0.000000000              -0.280903388               0.378307956               0.000000000              -0.299722710               0.402646365               0.000000000              -0.318542033               0.426984773               0.000000000              -0.337361355               0.451323182               0.000000000              -0.356180678               0.475661591               0.000000000              -0.375000000               0.500000000               0.000000000              -0.062695766               0.117295528               0.000000000              -0.078308531               0.141214558               0.000000000              -0.093921295               0.165133587               0.000000000              -0.109534060               0.189052617               0.000000000              -0.125146824               0.212971646               0.000000000              -0.140759589               0.236890676               0.000000000              -0.156372354               0.260809705               0.000000000              -0.171985118               0.284728735               0.000000000              -0.187597883               0.308647764               0.000000000              -0.203210648               0.332566794               0.000000000              -0.218823412               0.356485823               0.000000000              -0.234436177               0.380404853               0.000000000              -0.250048941               0.404323882               0.000000000              -0.265661706               0.428242912               0.000000000              -0.281274471               0.452161941               0.000000000              -0.296887235               0.476080971               0.000000000              -0.312500000               0.500000000               0.000000000              -0.050896897               0.122875978               0.000000000              -0.063340840               0.146446229               0.000000000              -0.075784784               0.170016481               0.000000000              -0.088228728               0.193586732               0.000000000              -0.100672672               0.217156983               0.000000000              -0.113116616               0.240727235               0.000000000              -0.125560560               0.264297486               0.000000000              -0.138004504               0.287867738               0.000000000              -0.150448448               0.311437989               0.000000000              -0.162892392               0.335008240               0.000000000              -0.175336336               0.358578492               0.000000000              -0.187780280               0.382148743               0.000000000              -0.200224224               0.405718994               0.000000000              -0.212668168               0.429289246               0.000000000              -0.225112112               0.452859497               0.000000000              -0.237556056               0.476429749               0.000000000              -0.250000000               0.500000000               0.000000000              -0.038607862               0.127273065               0.000000000              -0.047913621               0.150568498               0.000000000              -0.057219379               0.173863932               0.000000000              -0.066525138               0.197159365               0.000000000              -0.075830897               0.220454798               0.000000000              -0.085136655               0.243750232               0.000000000              -0.094442414               0.267045665               0.000000000              -0.103748172               0.290341099               0.000000000              -0.113053931               0.313636532               0.000000000              -0.122359690               0.336931966               0.000000000              -0.131665448               0.360227399               0.000000000              -0.140971207               0.383522833               0.000000000              -0.150276966               0.406818266               0.000000000              -0.159582724               0.430113700               0.000000000              -0.168888483               0.453409133               0.000000000              -0.178194241               0.476704567               0.000000000              -0.187500000               0.500000000               0.000000000              -0.025947013               0.130444442               0.000000000              -0.032137825               0.153541665               0.000000000              -0.038328636               0.176638887               0.000000000              -0.044519448               0.199736109               0.000000000              -0.050710260               0.222833332               0.000000000              -0.056901071               0.245930554               0.000000000              -0.063091883               0.269027776               0.000000000              -0.069282695               0.292124999               0.000000000              -0.075473506               0.315222221               0.000000000              -0.081664318               0.338319444               0.000000000              -0.087855130               0.361416666               0.000000000              -0.094045942               0.384513888               0.000000000              -0.100236753               0.407611111               0.000000000              -0.106427565               0.430708333               0.000000000              -0.112618377               0.453805555               0.000000000              -0.118809188               0.476902778               0.000000000              -0.125000000               0.500000000               0.000000000              -0.013036280               0.132359569               0.000000000              -0.016127762               0.155337096               0.000000000              -0.019219245               0.178314623               0.000000000              -0.022310727               0.201292150               0.000000000              -0.025402210               0.224269676               0.000000000              -0.028493692               0.247247203               0.000000000              -0.031585175               0.270224730               0.000000000              -0.034676657               0.293202257               0.000000000              -0.037768140               0.316179784               0.000000000              -0.040859622               0.339157311               0.000000000              -0.043951105               0.362134838               0.000000000              -0.047042587               0.385112365               0.000000000              -0.050134070               0.408089892               0.000000000              -0.053225552               0.431067419               0.000000000              -0.056317035               0.454044946               0.000000000              -0.059408517               0.477022473               0.000000000              -0.062500000               0.500000000               0.000000000               0.000000000               0.133000000               0.000000000               0.000000000               0.155937500               0.000000000               0.000000000               0.178875000               0.000000000               0.000000000               0.201812500               0.000000000               0.000000000               0.224750000               0.000000000               0.000000000               0.247687500               0.000000000               0.000000000               0.270625000               0.000000000               0.000000000               0.293562500               0.000000000               0.000000000               0.316500000               0.000000000               0.000000000               0.339437500               0.000000000               0.000000000               0.362375000               0.000000000               0.000000000               0.385312500               0.000000000               0.000000000               0.408250000               0.000000000               0.000000000               0.431187500               0.000000000               0.000000000               0.454125000               0.000000000               0.000000000               0.477062500               0.000000000               0.000000000               0.500000000               0.000000000 </DataArray>
</Points>
<Cells>
<DataArray type="Int32"                                    Name="connectivity"                                                      NumberOfComponents=" 1" format="ascii">
         0          1         18         17          1          2         19         18          2          3         20         19          3          4         21         20          4          5         22         21          5          6         23         22          6          7         24         23          7          8         25         24          8          9         26         25          9         10         27         26         10         11         28         27         11         12         29         28         12         13         30         29         13         14         31         30         14         15         32         31         15         16         33         32         17         18         35         34         18         19         36         35         19         20         37         36         20         21         38         37         21         22         39         38         22         23         40         39         23         24         41         40         24         25         42         41         25         26         43         42         26         27         44         43         27         28         45         44         28         29         46         45         29         30         47         46         30         31         48         47         31         32         49         48         32         33         50         49         34         35         52         51         35         36         53         52         36         37         54         53         37         38         55         54         38         39         56         55         39         40         57         56         40         41         58         57         41         42         59         58         42         43         60         59         43         44         61         60         44         45         62         61         45         46         63         62         46         47         64         63         47         48         65         64         48         49         66         65         49         50         67         66         51         52         69         68         52         53         70         69         53         54         71         70         54         55         72         71         55         56         73         72         56         57         74         73         57         58         75         74         58         59         76         75         59         60         77         76         60         61         78         77         61         62         79         78         62         63         80         79         63         64         81         80         64         65         82         81         65         66         83         82         66         67         84         83         68         69         86         85         69         70         87         86         70         71         88         87         71         72         89         88         72         73         90         89         73         74         91         90         74         75         92         91         75         76         93         92         76         77         94         93         77         78         95         94         78         79         96         95         79         80         97         96         80         81         98         97         81         82         99         98         82         83        100         99         83         84        101        100         85         86        103        102         86         87        104        103         87         88        105        104         88         89        106        105         89         90        107        106         90         91        108        107         91         92        109        108         92         93        110        109         93         94        111        110         94         95        112        111         95         96        113        112         96         97        114        113         97         98        115        114         98         99        116        115         99        100        117        116        100        101        118        117        102        103        120        119        103        104        121        120        104        105        122        121        105        106        123        122        106        107        124        123        107        108        125        124        108        109        126        125        109        110        127        126        110        111        128        127        111        112        129        128        112        113        130        129        113        114        131        130        114        115        132        131        115        116        133        132        116        117        134        133        117        118        135        134        119        120        137        136        120        121        138        137        121        122        139        138        122        123        140        139        123        124        141        140        124        125        142        141        125        126        143        142        126        127        144        143        127        128        145        144        128        129        146        145        129        130        147        146        130        131        148        147        131        132        149        148        132        133        150        149        133        134        151        150        134        135        152        151        136        137        154        153        137        138        155        154        138        139        156        155        139        140        157        156        140        141        158        157        141        142        159        158        142        143        160        159        143        144        161        160        144        145        162        161        145        146        163        162        146        147        164        163        147        148        165        164        148        149        166        165        149        150        167        166        150        151        168        167        151        152        169        168        153        154        171        170        154        155        172        171        155        156        173        172        156        157        174        173        157        158        175        174        158        159        176        175        159        160        177        176        160        161        178        177        161        162        179        178        162        163        180        179        163        164        181        180        164        165        182        181        165        166        183        182        166        167        184        183        167        168        185        184        168        169        186        185        170        171        188        187        171        172        189        188        172        173        190        189        173        174        191        190        174        175        192        191        175        176        193        192        176        177        194        193        177        178        195        194        178        179        196        195        179        180        197        196        180        181        198        197        181        182        199        198        182        183        200        199        183        184        201        200        184        185        202        201        185        186        203        202        187        188        205        204        188        189        206        205        189        190        207        206        190        191        208        207        191        192        209        208        192        193        210        209        193        194        211        210        194        195        212        211        195        196        213        212        196        197        214        213        197        198        215        214        198        199        216        215        199        200        217        216        200        201        218        217        201        202        219        218        202        203        220        219        204        205        222        221        205        206        223        222        206        207        224        223        207        208        225        224        208        209        226        225        209        210        227        226        210        211        228        227        211        212        229        228        212        213        230        229        213        214        231        230        214        215        232        231        215        216        233        232        216        217        234        233        217        218        235        234        218        219        236        235        219        220        237        236        221        222        239        238        222        223        240        239        223        224        241        240        224        225        242        241        225        226        243        242        226        227        244        243        227        228        245        244        228        229        246        245        229        230        247        246        230        231        248        247        231        232        249        248        232        233        250        249        233        234        251        250        234        235        252        251        235        236        253        252        236        237        254        253        238        239        256        255        239        240        257        256        240        241        258        257        241        242        259        258        242        243        260        259        243        244        261        260        244        245        262        261        245        246        263        262        246        247        264        263        247        248        265        264        248        249        266        265        249        250        267        266        250        251        268        267        251        252        269        268        252        253        270        269        253        254        271        270        255        256        273        272        256        257        274        273        257        258        275        274        258        259        276        275        259        260        277        276        260        261        278        277        261        262        279        278        262        263        280        279        263        264        281        280        264        265        282        281        265        266        283        282        266        267        284        283        267        268        285        284        268        269        286        285        269        270        287        286        270        271        288        287        306        307          1          0        307        308          2          1        308        309          3          2        309        310          4          3        310        311          5          4        311        312          6          5        312        313          7          6        313        314          8          7        314        315          9          8        315        316         10          9        316        317         11         10        317        318         12         11        318        319         13         12        319        320         14         13        320        321         15         14        321        322         16         15        323        324        307        306        324        325        308        307        325        326        309        308        326        327        310        309        327        328        311        310        328        329        312        311        329        330        313        312        330        331        314        313        331        332        315        314        332        333        316        315        333        334        317        316        334        335        318        317        335        336        319        318        336        337        320        319        337        338        321        320        338        339        322        321        340        341        324        323        341        342        325        324        342        343        326        325        343        344        327        326        344        345        328        327        345        346        329        328        346        347        330        329        347        348        331        330        348        349        332        331        349        350        333        332        350        351        334        333        351        352        335        334        352        353        336        335        353        354        337        336        354        355        338        337        355        356        339        338        357        358        341        340        358        359        342        341        359        360        343        342        360        361        344        343        361        362        345        344        362        363        346        345        363        364        347        346        364        365        348        347        365        366        349        348        366        367        350        349        367        368        351        350        368        369        352        351        369        370        353        352        370        371        354        353        371        372        355        354        372        373        356        355        374        375        358        357        375        376        359        358        376        377        360        359        377        378        361        360        378        379        362        361        379        380        363        362        380        381        364        363        381        382        365        364        382        383        366        365        383        384        367        366        384        385        368        367        385        386        369        368        386        387        370        369        387        388        371        370        388        389        372        371        389        390        373        372        391        392        375        374        392        393        376        375        393        394        377        376        394        395        378        377        395        396        379        378        396        397        380        379        397        398        381        380        398        399        382        381        399        400        383        382        400        401        384        383        401        402        385        384        402        403        386        385        403        404        387        386        404        405        388        387        405        406        389        388        406        407        390        389        408        409        392        391        409        410        393        392        410        411        394        393        411        412        395        394        412        413        396        395        413        414        397        396        414        415        398        397        415        416        399        398        416        417        400        399        417        418        401        400        418        419        402        401        419        420        403        402        420        421        404        403        421        422        405        404        422        423        406        405        423        424        407        406        425        426        409        408        426        427        410        409        427        428        411        410        428        429        412        411        429        430        413        412        430        431        414        413        431        432        415        414        432        433        416        415        433        434        417        416        434        435        418        417        435        436        419        418        436        437        420        419        437        438        421        420        438        439        422        421        439        440        423        422        440        441        424        423        442        443        426        425        443        444        427        426        444        445        428        427        445        446        429        428        446        447        430        429        447        448        431        430        448        449        432        431        449        450        433        432        450        451        434        433        451        452        435        434        452        453        436        435        453        454        437        436        454        455        438        437        455        456        439        438        456        457        440        439        457        458        441        440        459        460        443        442        460        461        444        443        461        462        445        444        462        463        446        445        463        464        447        446        464        465        448        447        465        466        449        448        466        467        450        449        467        468        451        450        468        469        452        451        469        470        453        452        470        471        454        453        471        472        455        454        472        473        456        455        473        474        457        456        474        475        458        457        476        477        460        459        477        478        461        460        478        479        462        461        479        480        463        462        480        481        464        463        481        482        465        464        482        483        466        465        483        484        467        466        484        485        468        467        485        486        469        468        486        487        470        469        487        488        471        470        488        489        472        471        489        490        473        472        490        491        474        473        491        492        475        474        493        494        477        476        494        495        478        477        495        496        479        478        496        497        480        479        497        498        481        480        498        499        482        481        499        500        483        482        500        501        484        483        501        502        485        484        502        503        486        485        503        504        487        486        504        505        488        487        505        506        489        488        506        507        490        489        507        508        491        490        508        509        492        491        510        511        494        493        511        512        495        494        512        513        496        495        513        514        497        496        514        515        498        497        515        516        499        498        516        517        500        499        517        518        501        500        518        519        502        501        519        520        503        502        520        521        504        503        521        522        505        504        522        523        506        505        523        524        507        506        524        525        508        507        525        526        509        508        527        528        511        510        528        529        512        511        529        530        513        512        530        531        514        513        531        532        515        514        532        533        516        515        533        534        517        516        534        535        518        517        535        536        519        518        536        537        520        519        537        538        521        520        538        539        522        521        539        540        523        522        540        541        524        523        541        542        525        524        542        543        526        525        544        545        528        527        545        546        529        528        546        547        530        529        547        548        531        530        548        549        532        531        549        550        533        532        550        551        534        533        551        552        535        534        552        553        536        535        553        554        537        536        554        555        538        537        555        556        539        538        556        557        540        539        557        558        541        540        558        559        542        541        559        560        543        542        561        562        545        544        562        563        546        545        563        564        547        546        564        565        548        547        565        566        549        548        566        567        550        549        567        568        551        550        568        569        552        551        569        570        553        552        570        571        554        553        571        572        555        554        572        573        556        555        573        574        557        556        574        575        558        557        575        576        559        558        576        577        560        559        578        579        596        595        579        580        597        596        580        581        598        597        581        582        599        598        582        583        600        599        583        584        601        600        584        585        602        601        585        586        603        602        586        587        604        603        587        588        605        604        588        589        606        605        589        590        607        606        590        591        608        607        591        592        609        608        592        593        610        609        593        594        611        610        595        596        613        612        596        597        614        613        597        598        615        614        598        599        616        615        599        600        617        616        600        601        618        617        601        602        619        618        602        603        620        619        603        604        621        620        604        605        622        621        605        606        623        622        606        607        624        623        607        608        625        624        608        609        626        625        609        610        627        626        610        611        628        627        612        613        630        629        613        614        631        630        614        615        632        631        615        616        633        632        616        617        634        633        617        618        635        634        618        619        636        635        619        620        637        636        620        621        638        637        621        622        639        638        622        623        640        639        623        624        641        640        624        625        642        641        625        626        643        642        626        627        644        643        627        628        645        644        629        630        647        646        630        631        648        647        631        632        649        648        632        633        650        649        633        634        651        650        634        635        652        651        635        636        653        652        636        637        654        653        637        638        655        654        638        639        656        655        639        640        657        656        640        641        658        657        641        642        659        658        642        643        660        659        643        644        661        660        644        645        662        661        646        647        664        663        647        648        665        664        648        649        666        665        649        650        667        666        650        651        668        667        651        652        669        668        652        653        670        669        653        654        671        670        654        655        672        671        655        656        673        672        656        657        674        673        657        658        675        674        658        659        676        675        659        660        677        676        660        661        678        677        661        662        679        678        663        664        681        680        664        665        682        681        665        666        683        682        666        667        684        683        667        668        685        684        668        669        686        685        669        670        687        686        670        671        688        687        671        672        689        688        672        673        690        689        673        674        691        690        674        675        692        691        675        676        693        692        676        677        694        693        677        678        695        694        678        679        696        695        680        681        698        697        681        682        699        698        682        683        700        699        683        684        701        700        684        685        702        701        685        686        703        702        686        687        704        703        687        688        705        704        688        689        706        705        689        690        707        706        690        691        708        707        691        692        709        708        692        693        710        709        693        694        711        710        694        695        712        711        695        696        713        712        697        698        715        714        698        699        716        715        699        700        717        716        700        701        718        717        701        702        719        718        702        703        720        719        703        704        721        720        704        705        722        721        705        706        723        722        706        707        724        723        707        708        725        724        708        709        726        725        709        710        727        726        710        711        728        727        711        712        729        728        712        713        730        729        714        715        732        731        715        716        733        732        716        717        734        733        717        718        735        734        718        719        736        735        719        720        737        736        720        721        738        737        721        722        739        738        722        723        740        739        723        724        741        740        724        725        742        741        725        726        743        742        726        727        744        743        727        728        745        744        728        729        746        745        729        730        747        746        731        732        749        748        732        733        750        749        733        734        751        750        734        735        752        751        735        736        753        752        736        737        754        753        737        738        755        754        738        739        756        755        739        740        757        756        740        741        758        757        741        742        759        758        742        743        760        759        743        744        761        760        744        745        762        761        745        746        763        762        746        747        764        763        748        749        766        765        749        750        767        766        750        751        768        767        751        752        769        768        752        753        770        769        753        754        771        770        754        755        772        771        755        756        773        772        756        757        774        773        757        758        775        774        758        759        776        775        759        760        777        776        760        761        778        777        761        762        779        778        762        763        780        779        763        764        781        780        765        766        783        782        766        767        784        783        767        768        785        784        768        769        786        785        769        770        787        786        770        771        788        787        771        772        789        788        772        773        790        789        773        774        791        790        774        775        792        791        775        776        793        792        776        777        794        793        777        778        795        794        778        779        796        795        779        780        797        796        780        781        798        797        782        783        800        799        783        784        801        800        784        785        802        801        785        786        803        802        786        787        804        803        787        788        805        804        788        789        806        805        789        790        807        806        790        791        808        807        791        792        809        808        792        793        810        809        793        794        811        810        794        795        812        811        795        796        813        812        796        797        814        813        797        798        815        814        799        800        817        816        800        801        818        817        801        802        819        818        802        803        820        819        803        804        821        820        804        805        822        821        805        806        823        822        806        807        824        823        807        808        825        824        808        809        826        825        809        810        827        826        810        811        828        827        811        812        829        828        812        813        830        829        813        814        831        830        814        815        832        831        816        817        834        833        817        818        835        834        818        819        836        835        819        820        837        836        820        821        838        837        821        822        839        838        822        823        840        839        823        824        841        840        824        825        842        841        825        826        843        842        826        827        844        843        827        828        845        844        828        829        846        845        829        830        847        846        830        831        848        847        831        832        849        848        833        834        562        561        834        835        563        562        835        836        564        563        836        837        565        564        837        838        566        565        838        839        567        566        839        840        568        567        840        841        569        568        841        842        570        569        842        843        571        570        843        844        572        571        844        845        573        572        845        846        574        573        846        847        575        574        847        848        576        575        848        849        577        576        884        885        579        578        885        886        580        579        886        887        581        580        887        888        582        581        888        889        583        582        889        890        584        583        890        891        585        584        891        892        586        585        892        893        587        586        893        894        588        587        894        895        589        588        895        896        590        589        896        897        591        590        897        898        592        591        898        899        593        592        899        900        594        593        901        902        885        884        902        903        886        885        903        904        887        886        904        905        888        887        905        906        889        888        906        907        890        889        907        908        891        890        908        909        892        891        909        910        893        892        910        911        894        893        911        912        895        894        912        913        896        895        913        914        897        896        914        915        898        897        915        916        899        898        916        917        900        899        918        919        902        901        919        920        903        902        920        921        904        903        921        922        905        904        922        923        906        905        923        924        907        906        924        925        908        907        925        926        909        908        926        927        910        909        927        928        911        910        928        929        912        911        929        930        913        912        930        931        914        913        931        932        915        914        932        933        916        915        933        934        917        916        935        936        919        918        936        937        920        919        937        938        921        920        938        939        922        921        939        940        923        922        940        941        924        923        941        942        925        924        942        943        926        925        943        944        927        926        944        945        928        927        945        946        929        928        946        947        930        929        947        948        931        930        948        949        932        931        949        950        933        932        950        951        934        933        952        953        936        935        953        954        937        936        954        955        938        937        955        956        939        938        956        957        940        939        957        958        941        940        958        959        942        941        959        960        943        942        960        961        944        943        961        962        945        944        962        963        946        945        963        964        947        946        964        965        948        947        965        966        949        948        966        967        950        949        967        968        951        950        969        970        953        952        970        971        954        953        971        972        955        954        972        973        956        955        973        974        957        956        974        975        958        957        975        976        959        958        976        977        960        959        977        978        961        960        978        979        962        961        979        980        963        962        980        981        964        963        981        982        965        964        982        983        966        965        983        984        967        966        984        985        968        967        986        987        970        969        987        988        971        970        988        989        972        971        989        990        973        972        990        991        974        973        991        992        975        974        992        993        976        975        993        994        977        976        994        995        978        977        995        996        979        978        996        997        980        979        997        998        981        980        998        999        982        981        999       1000        983        982       1000       1001        984        983       1001       1002        985        984       1003       1004        987        986       1004       1005        988        987       1005       1006        989        988       1006       1007        990        989       1007       1008        991        990       1008       1009        992        991       1009       1010        993        992       1010       1011        994        993       1011       1012        995        994       1012       1013        996        995       1013       1014        997        996       1014       1015        998        997       1015       1016        999        998       1016       1017       1000        999       1017       1018       1001       1000       1018       1019       1002       1001       1020       1021       1004       1003       1021       1022       1005       1004       1022       1023       1006       1005       1023       1024       1007       1006       1024       1025       1008       1007       1025       1026       1009       1008       1026       1027       1010       1009       1027       1028       1011       1010       1028       1029       1012       1011       1029       1030       1013       1012       1030       1031       1014       1013       1031       1032       1015       1014       1032       1033       1016       1015       1033       1034       1017       1016       1034       1035       1018       1017       1035       1036       1019       1018       1037       1038       1021       1020       1038       1039       1022       1021       1039       1040       1023       1022       1040       1041       1024       1023       1041       1042       1025       1024       1042       1043       1026       1025       1043       1044       1027       1026       1044       1045       1028       1027       1045       1046       1029       1028       1046       1047       1030       1029       1047       1048       1031       1030       1048       1049       1032       1031       1049       1050       1033       1032       1050       1051       1034       1033       1051       1052       1035       1034       1052       1053       1036       1035       1054       1055       1038       1037       1055       1056       1039       1038       1056       1057       1040       1039       1057       1058       1041       1040       1058       1059       1042       1041       1059       1060       1043       1042       1060       1061       1044       1043       1061       1062       1045       1044       1062       1063       1046       1045       1063       1064       1047       1046       1064       1065       1048       1047       1065       1066       1049       1048       1066       1067       1050       1049       1067       1068       1051       1050       1068       1069       1052       1051       1069       1070       1053       1052       1071       1072       1055       1054       1072       1073       1056       1055       1073       1074       1057       1056       1074       1075       1058       1057       1075       1076       1059       1058       1076       1077       1060       1059       1077       1078       1061       1060       1078       1079       1062       1061       1079       1080       1063       1062       1080       1081       1064       1063       1081       1082       1065       1064       1082       1083       1066       1065       1083       1084       1067       1066       1084       1085       1068       1067       1085       1086       1069       1068       1086       1087       1070       1069       1088       1089       1072       1071       1089       1090       1073       1072       1090       1091       1074       1073       1091       1092       1075       1074       1092       1093       1076       1075       1093       1094       1077       1076       1094       1095       1078       1077       1095       1096       1079       1078       1096       1097       1080       1079       1097       1098       1081       1080       1098       1099       1082       1081       1099       1100       1083       1082       1100       1101       1084       1083       1101       1102       1085       1084       1102       1103       1086       1085       1103       1104       1087       1086       1105       1106       1089       1088       1106       1107       1090       1089       1107       1108       1091       1090       1108       1109       1092       1091       1109       1110       1093       1092       1110       1111       1094       1093       1111       1112       1095       1094       1112       1113       1096       1095       1113       1114       1097       1096       1114       1115       1098       1097       1115       1116       1099       1098       1116       1117       1100       1099       1117       1118       1101       1100       1118       1119       1102       1101       1119       1120       1103       1102       1120       1121       1104       1103       1122       1123       1106       1105       1123       1124       1107       1106       1124       1125       1108       1107       1125       1126       1109       1108       1126       1127       1110       1109       1127       1128       1111       1110       1128       1129       1112       1111       1129       1130       1113       1112       1130       1131       1114       1113       1131       1132       1115       1114       1132       1133       1116       1115       1133       1134       1117       1116       1134       1135       1118       1117       1135       1136       1119       1118       1136       1137       1120       1119       1137       1138       1121       1120        272        273       1123       1122        273        274       1124       1123        274        275       1125       1124        275        276       1126       1125        276        277       1127       1126        277        278       1128       1127        278        279       1129       1128        279        280       1130       1129        280        281       1131       1130        281        282       1132       1131        282        283       1133       1132        283        284       1134       1133        284        285       1135       1134        285        286       1136       1135        286        287       1137       1136        287        288       1138       1137 </DataArray>
<DataArray type="Int32"                                    Name="offsets"                                                      NumberOfComponents=" 1" format="ascii">
         4          8         12         16         20         24         28         32         36         40         44         48         52         56         60         64         68         72         76         80         84         88         92         96        100        104        108        112        116        120        124        128        132        136        140        144        148        152        156        160        164        168        172        176        180        184        188        192        196        200        204        208        212        216        220        224        228        232        236        240        244        248        252        256        260        264        268        272        276        280        284        288        292        296        300        304        308        312        316        320        324        328        332        336        340        344        348        352        356        360        364        368        372        376        380        384        388        392        396        400        404        408        412        416        420        424        428        432        436        440        444        448        452        456        460        464        468        472        476        480        484        488        492        496        500        504        508        512        516        520        524        528        532        536        540        544        548        552        556        560        564        568        572        576        580        584        588        592        596        600        604        608        612        616        620        624        628        632        636        640        644        648        652        656        660        664        668        672        676        680        684        688        692        696        700        704        708        712        716        720        724        728        732        736        740        744        748        752        756        760        764        768        772        776        780        784        788        792        796        800        804        808        812        816        820        824        828        832        836        840        844        848        852        856        860        864        868        872        876        880        884        888        892        896        900        904        908        912        916        920        924        928        932        936        940        944        948        952        956        960        964        968        972        976        980        984        988        992        996       1000       1004       1008       1012       1016       1020       1024       1028       1032       1036       1040       1044       1048       1052       1056       1060       1064       1068       1072       1076       1080       1084       1088       1092       1096       1100       1104       1108       1112       1116       1120       1124       1128       1132       1136       1140       1144       1148       1152       1156       1160       1164       1168       1172       1176       1180       1184       1188       1192       1196       1200       1204       1208       1212       1216       1220       1224       1228       1232       1236       1240       1244       1248       1252       1256       1260       1264       1268       1272       1276       1280       1284       1288       1292       1296       1300       1304       1308       1312       1316       1320       1324       1328       1332       1336       1340       1344       1348       1352       1356       1360       1364       1368       1372       1376       1380       1384       1388       1392       1396       1400       1404       1408       1412       1416       1420       1424       1428       1432       1436       1440       1444       1448       1452       1456       1460       1464       1468       1472       1476       1480       1484       1488       1492       1496       1500       1504       1508       1512       1516       1520       1524       1528       1532       1536       1540       1544       1548       1552       1556       1560       1564       1568       1572       1576       1580       1584       1588       1592       1596       1600       1604       1608       1612       1616       1620       1624       1628       1632       1636       1640       1644       1648       1652       1656       1660       1664       1668       1672       1676       1680       1684       1688       1692       1696       1700       1704       1708       1712       1716       1720       1724       1728       1732       1736       1740       1744       1748       1752       1756       1760       1764       1768       1772       1776       1780       1784       1788       1792       1796       1800       1804       1808       1812       1816       1820       1824       1828       1832       1836       1840       1844       1848       1852       1856       1860       1864       1868       1872       1876       1880       1884       1888       1892       1896       1900       1904       1908       1912       1916       1920       1924       1928       1932       1936       1940       1944       1948       1952       1956       1960       1964       1968       1972       1976       1980       1984       1988       1992       1996       2000       2004       2008       2012       2016       2020       2024       2028       2032       2036       2040       2044       2048       2052       2056       2060       2064       2068       2072       2076       2080       2084       2088       2092       2096       2100       2104       2108       2112       2116       2120       2124       2128       2132       2136       2140       2144       2148       2152       2156       2160       2164       2168       2172       2176       2180       2184       2188       2192       2196       2200       2204       2208       2212       2216       2220       2224       2228       2232       2236       2240       2244       2248       2252       2256       2260       2264       2268       2272       2276       2280       2284       2288       2292       2296       2300       2304       2308       2312       2316       2320       2324       2328       2332       2336       2340       2344       2348       2352       2356       2360       2364       2368       2372       2376       2380       2384       2388       2392       2396       2400       2404       2408       2412       2416       2420       2424       2428       2432       2436       2440       2444       2448       2452       2456       2460       2464       2468       2472       2476       2480       2484       2488       2492       2496       2500       2504       2508       2512       2516       2520       2524       2528       2532       2536       2540       2544       2548       2552       2556       2560       2564       2568       2572       2576       2580       2584       2588       2592       2596       2600       2604       2608       2612       2616       2620       2624       2628       2632       2636       2640       2644       2648       2652       2656       2660       2664       2668       2672       2676       2680       2684       2688       2692       2696       2700       2704       2708       2712       2716       2720       2724       2728       2732       2736       2740       2744       2748       2752       2756       2760       2764       2768       2772       2776       2780       2784       2788       2792       2796       2800       2804       2808       2812       2816       2820       2824       2828       2832       2836       2840       2844       2848       2852       2856       2860       2864       2868       2872       2876       2880       2884       2888       2892       2896       2900       2904       2908       2912       2916       2920       2924       2928       2932       2936       2940       2944       2948       2952       2956       2960       2964       2968       2972       2976       2980       2984       2988       2992       2996       3000       3004       3008       3012       3016       3020       3024       3028       3032       3036       3040       3044       3048       3052       3056       3060       3064       3068       3072       3076       3080       3084       3088       3092       3096       3100       3104       3108       3112       3116       3120       3124       3128       3132       3136       3140       3144       3148       3152       3156       3160       3164       3168       3172       3176       3180       3184       3188       3192       3196       3200       3204       3208       3212       3216       3220       3224       3228       3232       3236       3240       3244       3248       3252       3256       3260       3264       3268       3272       3276       3280       3284       3288       3292       3296       3300       3304       3308       3312       3316       3320       3324       3328       3332       3336       3340       3344       3348       3352       3356       3360       3364       3368       3372       3376       3380       3384       3388       3392       3396       3400       3404       3408       3412       3416       3420       3424       3428       3432       3436       3440       3444       3448       3452       3456       3460       3464       3468       3472       3476       3480       3484       3488       3492       3496       3500       3504       3508       3512       3516       3520       3524       3528       3532       3536       3540       3544       3548       3552       3556       3560       3564       3568       3572       3576       3580       3584       3588       3592       3596       3600       3604       3608       3612       3616       3620       3624       3628       3632       3636       3640       3644       3648       3652       3656       3660       3664       3668       3672       3676       3680       3684       3688       3692       3696       3700       3704       3708       3712       3716       3720       3724       3728       3732       3736       3740       3744       3748       3752       3756       3760       3764       3768       3772       3776       3780       3784       3788       3792       3796       3800       3804       3808       3812       3816       3820       3824       3828       3832       3836       3840       3844       3848       3852       3856       3860       3864       3868       3872       3876       3880       3884       3888       3892       3896       3900       3904       3908       3912       3916       3920       3924       3928       3932       3936       3940       3944       3948       3952       3956       3960       3964       3968       3972       3976       3980       3984       3988       3992       3996       4000       4004       4008       4012       4016       4020       4024       4028       4032       4036       4040       4044       4048       4052       4056       4060       4064       4068       4072       4076       4080       4084       4088       4092       4096 </DataArray>
<DataArray type="UInt8"                                    Name="types"                                                      NumberOfComponents=" 1" format="ascii">
         9          9          9          9          9          9          9          9          9          9          9          9          9          9          9          9          9          9          9          9          9          9          9          9          9          9          9          9          9          9          9          9          9          9          9          9          9          9          9          9          9          9          9          9          9          9          9          9          9          9          9          9          9          9          9          9          9          9          9          9          9          9          9          9          9          9          9          9          9          9          9          9          9          9          9          9          9          9          9          9          9          9          9          9          9          9          9          9          9          9          9          9          9          9          9          9          9          9          9          9          9          9          9          9          9          9          9          9          9          9          9          9          9          9          9          9          9          9          9          9          9          9          9          9          9          9          9          9          9          9          9          9          9          9          9          9          9          9          9          9          9          9          9          9          9          9          9          9          9          9          9          9          9          9          9          9          9          9          9          9          9          9          9          9          9          9          9          9          9          9          9          9          9          9          9          9          9          9          9          9          9          9          9          9          9          9          9          9          9          9          9          9          9          9          9          9          9          9          9          9          9          9          9          9          9          9          9          9          9          9          9          9          9          9          9          9          9          9          9          9          9          9          9          9          9          9          9          9          9          9          9          9          9          9          9          9          9          9          9          9          9          9          9          9          9          9          9          9          9          9          9          9          9          9          9          9          9          9          9          9          9          9          9          9          9          9          9          9          9          9          9          9          9          9          9          9          9          9          9          9          9          9          9          9          9          9          9          9          9          9          9          9          9          9          9          9          9          9          9          9          9          9          9          9          9          9          9          9          9          9          9          9          9          9          9          9          9          9          9          9          9          9          9          9          9          9          9          9          9          9          9          9          9          9          9          9          9          9          9          9          9          9          9          9          9          9          9          9          9          9          9          9          9          9          9          9          9          9          9          9          9          9          9          9          9          9          9          9          9          9          9          9          9          9          9          9          9          9          9          9          9          9          9          9          9          9          9          9          9          9          9          9          9          9          9          9          9          9          9          9          9          9          9          9          9          9          9          9          9          9          9          9          9          9          9          9          9          9          9          9          9          9          9          9          9          9          9          9          9          9          9          9          9          9          9          9          9          9          9          9          9          9          9          9          9          9          9          9          9          9          9          9          9          9          9          9          9          9          9          9          9          9          9          9          9          9          9          9          9          9          9          9          9          9          9          9          9          9          9          9          9          9          9          9          9          9          9          9          9          9          9          9          9          9          9          9          9          9          9          9          9          9          9          9          9          9          9          9          9          9          9          9          9          9          9          9          9          9          9          9          9          9          9          9          9          9          9          9          9          9          9          9          9          9          9          9          9          9          9          9          9          9          9          9          9          9          9          9          9          9          9          9          9          9          9          9          9          9          9          9          9          9          9          9          9          9          9          9          9          9          9          9          9          9          9          9          9          9          9          9          9          9          9          9          9          9          9          9          9          9          9          9          9          9          9          9          9          9          9          9          9          9          9          9          9          9          9          9          9          9          9          9          9          9          9          9          9          9          9          9          9          9          9          9          9          9          9          9          9          9          9          9          9          9          9          9          9          9          9          9          9          9          9          9          9          9          9          9          9          9          9          9          9          9          9          9          9          9          9          9          9          9          9          9          9          9          9          9          9          9          9          9          9          9          9          9          9          9          9          9          9          9          9          9          9          9          9          9          9          9          9          9          9          9          9          9          9          9          9          9          9          9          9          9          9          9          9          9          9          9          9          9          9          9          9          9          9          9          9          9          9          9          9          9          9          9          9          9          9          9          9          9          9          9          9          9          9          9          9          9          9          9          9          9          9          9          9          9          9          9          9          9          9          9          9          9          9          9          9          9          9          9          9          9          9          9          9          9          9          9          9          9          9          9          9          9          9          9          9          9          9          9          9          9          9          9          9          9          9          9          9          9          9          9          9          9          9          9          9          9          9          9          9          9          9          9          9          9          9          9          9          9          9          9          9          9          9          9          9          9          9          9          9          9          9          9          9          9          9          9          9          9          9          9          9          9          9          9          9          9          9          9          9          9          9          9          9          9          9          9          9          9          9          9          9          9          9          9          9          9          9          9          9          9          9          9          9          9          9          9          9          9          9          9          9          9          9          9          9          9          9          9          9          9          9          9          9          9          9          9          9          9          9          9          9          9          9          9          9          9          9          9          9          9          9          9          9          9          9          9          9          9          9          9          9          9          9          9          9          9          9          9          9          9          9          9          9          9          9          9          9          9          9          9          9          9          9          9          9          9          9          9          9          9          9          9          9          9          9          9          9          9          9          9          9          9          9          9          9          9          9          9          9          9          9          9          9          9          9          9          9          9          9          9          9          9          9          9          9          9          9          9          9          9          9          9          9          9          9          9          9          9          9          9          9          9          9          9          9          9          9          9          9          9          9          9          9          9          9          9          9          9          9          9          9          9          9          9          9          9          9          9          9          9 </DataArray>
</Cells>
<CellData>
<DataArray type="Int32"                                    Name="material"                                                      NumberOfComponents=" 1" format="ascii">
         1          1          1          1          1          1          1          1          1          1          1          1          1          1          1          1          1          1          1          1          1          1          1          1          1          1          1          1          1          1          1          1          1          1          1          1          1          1          1          1          1          1          1          1          1          1          1          1          1          1          1          1          1          1          1          1          1          1          1          1          1          1          1          1          1          1          1          1          1          1          1          1          1          1          1          1          1          1          1          1          1          1          1          1          1          1          1          1          1          1          1          1          1          1          1          1          1          1          1          1          1          1          1          1          1          1          1          1          1          1          1          1          1          1          1          1          1          1          1          1          1          1          1          1          1          1          1          1          1          1          1          1          1          1          1          1          1          1          1          1          1          1          1          1          1          1          1          1          1          1          1          1          1          1          1          1          1          1          1          1          1          1          1          1          1          1          1          1          1          1          1          1          1          1          1          1          1          1          1          1          1          1          1          1          1          1          1          1          1          1          1          1          1          1          1          1          1          1          1          1          1          1          1          1          1          1          1          1          1          1          1          1          1          1          1          1          1          1          1          1          1          1          1          1          1          1          1          1          1          1          1          1          1          1          1          1          1          1          1          1          1          1          1          1          1          1          1          1          1          1          1          1          1          1          1          1          1          1          1          1          1          1          1          1          1          1          1          1          1          1          1          1          1          1          1          1          1          1          1          1          1          1          1          1          1          1          1          1          1          1          1          1          1          1          1          1          1          1          1          1          1          1          1          1          1          1          1          1          1          1          1          1          1          1          1          1          1          1          1          1          1          1          1          1          1          1          1          1          1          1          1          1          1          1          1          1          1          1          1          1          1          1          1          1          1          1          1          1          1          1          1          1          1          1          1          1          1          1          1          1          1          1          1          1          1          1          1          1          1          1          1          1          1          1          1          1          1          1          1          1          1          1          1          1          1          1          1          1          1          1          1          1          1          1          1          1          1          1          1          1          1          1          1          1          1          1          1          1          1          1          1          1          1          1          1          1          1          1          1          1          1          1          1          1          1          1          1          1          1          1          1          1          1          1          1          1          1          1          1          1          1          1          1          1          1          1          1          1          1          1          1          1          1          1          1          1          1          1          1          1          1          1          1          1          1          1          1          1          1          1          1          1          1          1          1          1          1          1          1          1          1          1          1          1          1          1          1          1          1          1          1          1          1          1          1          1          1          1          1          1          1          1          1          1          1          1          1          1          1          1          1          1          1          1          1          1          1          1          1          1          1          1          1          1          1          1          1          1          1          1          1          1          1          1          1          1          1          1          1          1          1          1          1          1          1          1          1          1          1          1          1          1          1          1          1          1          1          1          1          1          1          1          1          1          1          1          1          1          1          1          1          1          1          1          1          1          1          1          1          1          1          1          1          1          1          1          1          1          1          1          1          1          1          1          1          1          1          1          1          1          1          1          1          1          1          1          1          1          1          1          1          1          1          1          1          1          1          1          1          1          1          1          1          1          1          1          1          1          1          1          1          1          1          1          1          1          1          1          1          1          1          1          1          1          1          1          1          1          1          1          1          1          1          1          1          1          1          1          1          1          1          1          1          1          1          1          1          1          1          1          1          1          1          1          1          1          1          1          1          1          1          1          1          1          1          1          1          1          1          1          1          1          1          1          1          1          1          1          1          1          1          1          1          1          1          1          1          1          1          1          1          1          1          1          1          1          1          1          1          1          1          1          1          1          1          1          1          1          1          1          1          1          1          1          1          1          1          1          1          1          1          1          1          1          1          1          1          1          1          1          1          1          1          1          1          1          1          1          1          1          1          1          1          1          1          1          1          1          1          1          1          1          1          1          1          1          1          1          1          1          1          1          1          1          1          1          1          1          1          1          1          1          1          1          1          1          1          1          1          1          1          1          1          1          1          1          1          1          1          1          1          1          1          1          1          1          1          1          1          1          1          1          1          1          1          1          1          1          1          1          1          1          1          1          1          1          1          1          1          1          1          1          1          1          1          1          1          1          1          1          1          1          1          1          1          1          1          1          1          1          1          1          1          1          1          1          1          1          1          1          1          1          1          1          1          1          1          1          1          1          1          1          1          1          1          1          1          1          1          1          1          1          1          1          1          1          1          1          1          1          1          1          1          1          1          1          1          1          1          1          1          1          1          1          1          1          1          1          1          1          1          1          1          1          1          1          1          1          1          1          1          1          1          1          1          1          1          1          1          1          1          1          1          1          1          1          1          1          1          1          1          1          1          1          1          1          1          1          1          1          1          1          1          1          1          1          1          1          1          1          1          1          1          1          1          1          1          1          1          1          1          1          1          1          1          1          1          1          1          1          1          1          1          1          1          1          1          1          1          1          1          1          1          1          1          1          1          1          1          1          1          1          1          1          1          1          1          1          1          1          1          1          1          1 </DataArray>
</CellData>
<PointData>
<DataArray type="Float64"                                    Name="u"                                                      NumberOfComponents=" 3" format="ascii">
             -0.000899977               0.000000000               0.999999988              -0.000946715              -0.000000000               0.999999988              -0.000965784               0.000000000               0.999999988              -0.000975647              -0.000000000               0.999999988              -0.000983215              -0.000000000               0.999999988              -0.000990894              -0.000000000               0.999999988              -0.000999420              -0.000000000               0.999999988              -0.001008872              -0.000000000               0.999999988              -0.001019115               0.000000000               0.999999988              -0.001029968               0.000000000               0.999999988              -0.001041080               0.000000000               0.999999988              -0.001051984               0.000000000               0.999999988              -0.001062161               0.000000000               0.999999988              -0.001071142              -0.000000000               0.999999988              -0.001078471               0.000000000               0.999999988              -0.001083607               0.000000000               0.999999988              -0.001085495               0.000000000               0.999999988              -0.000895010               0.000123176               0.999999988              -0.000937638               0.000096967               0.999999988              -0.000954024               0.000084614               0.999999988              -0.000962156               0.000079160               0.999999988              -0.000968508               0.000077190               0.999999988              -0.000975222               0.000076708               0.999999988              -0.000982903               0.000076646               0.999999988              -0.000991455               0.000076483               0.999999988              -0.001000611               0.000075678               0.999999988              -0.001010159               0.000073874               0.999999988              -0.001019713               0.000070707               0.999999988              -0.001028814               0.000065604               0.999999988              -0.001036953               0.000058437               0.999999988              -0.001043697               0.000048935               0.999999988              -0.001048562               0.000036590               0.999999988              -0.001050991               0.000020266               0.999999988              -0.001050277              -0.000001494               0.999999988              -0.000880253               0.000245342               0.999999988              -0.000910882               0.000193696               0.999999988              -0.000919719               0.000170308               0.999999988              -0.000923133               0.000160459               0.999999988              -0.000926246               0.000157365               0.999999988              -0.000930361               0.000156949               0.999999988              -0.000935634               0.000157152               0.999999988              -0.000941632               0.000156922               0.999999988              -0.000947883               0.000155240               0.999999988              -0.000953886               0.000151592               0.999999988              -0.000959170               0.000145180               0.999999988              -0.000963396               0.000135232               0.999999988              -0.000966054               0.000121547               0.999999988              -0.000966724               0.000103595               0.999999988              -0.000965053               0.000080319               0.999999988              -0.000960699               0.000050528               0.999999988              -0.000953492               0.000012491               0.999999988              -0.000855885               0.000365436               0.999999988              -0.000867555               0.000290051               0.999999988              -0.000865511               0.000258013               0.999999988              -0.000862635               0.000245668               0.999999988              -0.000861573               0.000242569               0.999999988              -0.000862336               0.000242945               0.999999988              -0.000864281               0.000243883               0.999999988              -0.000866575               0.000243778               0.999999988              -0.000868425               0.000241436               0.999999988              -0.000869274               0.000235781               0.999999988              -0.000868508               0.000226313               0.999999988              -0.000865696               0.000212104               0.999999988              -0.000860565               0.000192717               0.999999988              -0.000852737               0.000167612               0.999999988              -0.000842031               0.000136098               0.999999988              -0.000828561               0.000097317               0.999999988              -0.000812678               0.000050433               0.999999988              -0.000822341               0.000482351               0.999999988              -0.000809909               0.000386080               0.999999988              -0.000795805               0.000348344               0.999999988              -0.000786525               0.000335554               0.999999988              -0.000781545               0.000333620               0.999999988              -0.000779130               0.000335429               0.999999988              -0.000777584               0.000337377               0.999999988              -0.000775695               0.000337499               0.999999988              -0.000772259               0.000334318               0.999999988              -0.000766664               0.000326799               0.999999988              -0.000758361               0.000314353               0.999999988              -0.000747053               0.000296284               0.999999988              -0.000732439               0.000272239               0.999999988              -0.000714490               0.000241913               0.999999988              -0.000693442               0.000205090               0.999999988              -0.000669830               0.000161699               0.999999988              -0.000644473               0.000112111               0.999999988              -0.000780395               0.000595003               0.999999988              -0.000740878               0.000481928               0.999999988              -0.000715520               0.000441540               0.999999988              -0.000701245               0.000429934               0.999999988              -0.000693428               0.000430050               0.999999988              -0.000688341               0.000433670               0.999999988              -0.000683498               0.000436621               0.999999988              -0.000676924               0.000436714               0.999999988              -0.000667453               0.000432486               0.999999988              -0.000654583               0.000422971               0.999999988              -0.000637769               0.000407586               0.999999988              -0.000616811               0.000386252               0.999999988              -0.000591852               0.000358585               0.999999988              -0.000563250               0.000324561               0.999999988              -0.000531671               0.000284742               0.999999988              -0.000497851               0.000239982               0.999999988              -0.000462848               0.000191661               0.999999988              -0.000730822               0.000702398               0.999999988              -0.000663778               0.000577635               0.999999988              -0.000629837               0.000537183               0.999999988              -0.000613009               0.000527762               0.999999988              -0.000603827               0.000530100               0.999999988              -0.000596754               0.000535416               0.999999988              -0.000588397               0.000539252               0.999999988              -0.000576696               0.000538946               0.999999988              -0.000560642               0.000533407               0.999999988              -0.000539487               0.000521745               0.999999988              -0.000513209               0.000503550               0.999999988              -0.000481888               0.000479249               0.999999988              -0.000446079               0.000448691               0.999999988              -0.000406431               0.000412412               0.999999988              -0.000364004               0.000371588               0.999999988              -0.000319872               0.000327682               0.999999988              -0.000275244               0.000282683               0.999999988              -0.000674389               0.000803511               0.999999988              -0.000582174               0.000673113               0.999999988              -0.000543522               0.000634324               0.999999988              -0.000526870               0.000627265               0.999999988              -0.000517619               0.000631519               0.999999988              -0.000508920               0.000638224               0.999999988              -0.000496879               0.000642390               0.999999988              -0.000479408               0.000641396               0.999999988              -0.000455590               0.000634348               0.999999988              -0.000425100               0.000620501               0.999999988              -0.000388330               0.000599783               0.999999988              -0.000345825               0.000572989               0.999999988              -0.000298323               0.000540518               0.999999988              -0.000246983               0.000503538               0.999999988              -0.000193274               0.000463846               0.999999988              -0.000138633               0.000423167               0.999999988              -0.000084296               0.000382947               0.999999988              -0.000613022               0.000896274               0.999999988              -0.000499070               0.000768221               0.999999988              -0.000461001               0.000731365               0.999999988              -0.000446492               0.000726159               0.999999988              -0.000437984               0.000731990               0.999999988              -0.000427609               0.000739559               0.999999988              -0.000411230               0.000743580               0.999999988              -0.000386765               0.000741723               0.999999988              -0.000354022               0.000732938               0.999999988              -0.000313149               0.000716903               0.999999988              -0.000264778               0.000694189               0.999999988              -0.000209771               0.000665728               0.999999988              -0.000149413               0.000632848               0.999999988              -0.000085664               0.000597394               0.999999988              -0.000020313               0.000561388               0.999999988               0.000045091               0.000526230               0.999999988               0.000109954               0.000492368               0.999999988              -0.000549333               0.000984249               0.999999988              -0.000429204               0.000875581               0.999999988              -0.000389052               0.000835595               0.999999988              -0.000374465               0.000826428               0.999999988              -0.000367063               0.000830136               0.999999988              -0.000359143               0.000838101               0.999999988              -0.000346252               0.000845310               0.999999988              -0.000326300               0.000848976               0.999999988              -0.000298752               0.000847630               0.999999988              -0.000263504               0.000840796               0.999999988              -0.000220944               0.000828455               0.999999988              -0.000171268               0.000811083               0.999999988              -0.000115164               0.000789551               0.999999988              -0.000053795               0.000765091               0.999999988               0.000011056               0.000739228               0.999999988               0.000077657               0.000713425               0.999999988               0.000144611               0.000688932               0.999999988              -0.000479969               0.001064482               0.999999988              -0.000361768               0.000979661               0.999999988              -0.000319726               0.000942732               0.999999988              -0.000304203               0.000931757               0.999999988              -0.000297088               0.000934246               0.999999988              -0.000290758               0.000942770               0.999999988              -0.000280752               0.000952711               0.999999988              -0.000264927               0.000961244               0.999999988              -0.000242334               0.000966650               0.999999988              -0.000212714               0.000968102               0.999999988              -0.000175947               0.000965316               0.999999988              -0.000132088               0.000958487               0.999999988              -0.000081300               0.000947787               0.999999988              -0.000024020               0.000934051               0.999999988               0.000038639               0.000918339               0.999999988               0.000105227               0.000901865               0.999999988               0.000173942               0.000885813               0.999999988              -0.000406448               0.001134834               0.999999988              -0.000296879               0.001077095               0.999999988              -0.000254696               0.001047700               0.999999988              -0.000238044               0.001038076               0.999999988              -0.000230618               0.001040744               0.999999988              -0.000225030               0.001050375               0.999999988              -0.000217389               0.001062997               0.999999988              -0.000205052               0.001075920               0.999999988              -0.000187027               0.001087428               0.999999988              -0.000162706               0.001096496               0.999999988              -0.000131958               0.001102620               0.999999988              -0.000094524               0.001105616               0.999999988              -0.000049828               0.001105576               0.999999988               0.000001979               0.001102569               0.999999988               0.000060558               0.001097123               0.999999988               0.000125322               0.001090247               0.999999988               0.000194914               0.001082979               0.999999988              -0.000329448               0.001194145               0.999999988              -0.000234489               0.001163863               0.999999988              -0.000194799               0.001145171               0.999999988              -0.000177902               0.001139606               0.999999988              -0.000170054               0.001144194               0.999999988              -0.000164836               0.001155622               0.999999988              -0.000158781               0.001171146               0.999999988              -0.000149417               0.001188286               0.999999988              -0.000135441               0.001205374               0.999999988              -0.000116258               0.001221387               0.999999988              -0.000091546               0.001235706               0.999999988              -0.000060883               0.001247844               0.999999988              -0.000023565               0.001257706               0.999999988               0.000021021               0.001265141               0.999999988               0.000073307               0.001270316               0.999999988               0.000133639               0.001273571               0.999999988               0.000201440               0.001275677               0.999999988              -0.000249648               0.001241454               0.999999988              -0.000174215               0.001235993               0.999999988              -0.000140258               0.001229232               0.999999988              -0.000124730               0.001229580               0.999999988              -0.000117180               0.001237507               0.999999988              -0.000112338               0.001251544               0.999999988              -0.000107470               0.001269944               0.999999988              -0.000100577               0.001290915               0.999999988              -0.000090446               0.001312981               0.999999988              -0.000076205               0.001335166               0.999999988              -0.000057504               0.001356764               0.999999988              -0.000034017               0.001377221               0.999999988              -0.000005055               0.001396071               0.999999988               0.000030623               0.001413201               0.999999988               0.000073964               0.001428591               0.999999988               0.000125891               0.001442032               0.999999988               0.000187161               0.001453716               0.999999988              -0.000167694               0.001275982               0.999999988              -0.000115379               0.001290303               0.999999988              -0.000090495               0.001294370               0.999999988              -0.000078455               0.001300750               0.999999988              -0.000072344               0.001312440               0.999999988              -0.000068445               0.001329280               0.999999988              -0.000064887               0.001350358               0.999999988              -0.000060235               0.001374615               0.999999988              -0.000053497               0.001400881               0.999999988              -0.000043973               0.001428242               0.999999988              -0.000031513               0.001455985               0.999999988              -0.000015707               0.001483409               0.999999988               0.000004344               0.001510104               0.999999988               0.000029568               0.001535789               0.999999988               0.000060971               0.001560075               0.999999988               0.000099739               0.001582653               0.999999988               0.000147692               0.001603224               0.999999988              -0.000084231               0.001297017               0.999999988              -0.000057456               0.001324100               0.999999988              -0.000044310               0.001335828               0.999999988              -0.000037664               0.001346818               0.999999988              -0.000034164               0.001361400               0.999999988              -0.000031966               0.001380381               0.999999988              -0.000030126               0.001403499               0.999999988              -0.000027751               0.001430019               0.999999988              -0.000024252               0.001459103               0.999999988              -0.000019403               0.001489783               0.999999988              -0.000013284               0.001521404               0.999999988              -0.000005384               0.001553491               0.999999988               0.000004910               0.001585646               0.999999988               0.000017950               0.001617478               0.999999988               0.000034484               0.001648378               0.999999988               0.000055464               0.001677800               0.999999988               0.000082182               0.001705014               0.999999988               0.000000000               0.001304060               0.999999988               0.000000000               0.001335542               0.999999988              -0.000000000               0.001350057               0.999999988               0.000000000               0.001362747               0.999999988               0.000000000               0.001378402               0.999999988               0.000000000               0.001398253               0.999999988              -0.000000000               0.001422238               0.999999988              -0.000000000               0.001449669               0.999999988              -0.000000000               0.001479750               0.999999988              -0.000000000               0.001511516               0.999999988              -0.000000000               0.001544475               0.999999988              -0.000000000               0.001578295               0.999999988              -0.000000000               0.001612349               0.999999988               0.000000000               0.001646278               0.999999988               0.000000000               0.001679653               0.999999988              -0.000000000               0.001711713               0.999999988              -0.000000000               0.001741458               0.999999988              -0.000899977               0.000000000               0.999999988              -0.000946715              -0.000000000               0.999999988              -0.000965784               0.000000000               0.999999988              -0.000975647              -0.000000000               0.999999988              -0.000983215              -0.000000000               0.999999988              -0.000990894              -0.000000000               0.999999988              -0.000999420              -0.000000000               0.999999988              -0.001008872              -0.000000000               0.999999988              -0.001019115               0.000000000               0.999999988              -0.001029968               0.000000000               0.999999988              -0.001041080               0.000000000               0.999999988              -0.001051984               0.000000000               0.999999988              -0.001062161               0.000000000               0.999999988              -0.001071142              -0.000000000               0.999999988              -0.001078471               0.000000000               0.999999988              -0.001083607               0.000000000               0.999999988              -0.001085495               0.000000000               0.999999988              -0.000895010              -0.000123176               0.999999988              -0.000937638              -0.000096967               0.999999988              -0.000954024              -0.000084614               0.999999988              -0.000962156              -0.000079160               0.999999988              -0.000968508              -0.000077190               0.999999988              -0.000975222              -0.000076708               0.999999988              -0.000982903              -0.000076646               0.999999988              -0.000991455              -0.000076483               0.999999988              -0.001000611              -0.000075678               0.999999988              -0.001010159              -0.000073874               0.999999988              -0.001019713              -0.000070707               0.999999988              -0.001028814              -0.000065604               0.999999988              -0.001036953              -0.000058437               0.999999988              -0.001043697              -0.000048935               0.999999988              -0.001048562              -0.000036590               0.999999988              -0.001050991              -0.000020266               0.999999988              -0.001050277               0.000001494               0.999999988              -0.000880253              -0.000245342               0.999999988              -0.000910882              -0.000193696               0.999999988              -0.000919719              -0.000170308               0.999999988              -0.000923133              -0.000160459               0.999999988              -0.000926246              -0.000157365               0.999999988              -0.000930361              -0.000156949               0.999999988              -0.000935634              -0.000157152               0.999999988              -0.000941632              -0.000156922               0.999999988              -0.000947883              -0.000155240               0.999999988              -0.000953886              -0.000151592               0.999999988              -0.000959170              -0.000145180               0.999999988              -0.000963396              -0.000135232               0.999999988              -0.000966054              -0.000121547               0.999999988              -0.000966724              -0.000103595               0.999999988              -0.000965053              -0.000080319               0.999999988              -0.000960699              -0.000050528               0.999999988              -0.000953492              -0.000012491               0.999999988              -0.000855885              -0.000365436               0.999999988              -0.000867555              -0.000290051               0.999999988              -0.000865511              -0.000258013               0.999999988              -0.000862635              -0.000245668               0.999999988              -0.000861573              -0.000242569               0.999999988              -0.000862336              -0.000242945               0.999999988              -0.000864281              -0.000243883               0.999999988              -0.000866575              -0.000243778               0.999999988              -0.000868425              -0.000241436               0.999999988              -0.000869274              -0.000235781               0.999999988              -0.000868508              -0.000226313               0.999999988              -0.000865696              -0.000212104               0.999999988              -0.000860565              -0.000192717               0.999999988              -0.000852737              -0.000167612               0.999999988              -0.000842031              -0.000136098               0.999999988              -0.000828561              -0.000097317               0.999999988              -0.000812678              -0.000050433               0.999999988              -0.000822341              -0.000482351               0.999999988              -0.000809909              -0.000386080               0.999999988              -0.000795805              -0.000348344               0.999999988              -0.000786525              -0.000335554               0.999999988              -0.000781545              -0.000333620               0.999999988              -0.000779130              -0.000335429               0.999999988              -0.000777584              -0.000337377               0.999999988              -0.000775695              -0.000337499               0.999999988              -0.000772259              -0.000334318               0.999999988              -0.000766664              -0.000326799               0.999999988              -0.000758361              -0.000314353               0.999999988              -0.000747053              -0.000296284               0.999999988              -0.000732439              -0.000272239               0.999999988              -0.000714490              -0.000241913               0.999999988              -0.000693442              -0.000205090               0.999999988              -0.000669830              -0.000161699               0.999999988              -0.000644473              -0.000112111               0.999999988              -0.000780395              -0.000595003               0.999999988              -0.000740878              -0.000481928               0.999999988              -0.000715520              -0.000441540               0.999999988              -0.000701245              -0.000429934               0.999999988              -0.000693428              -0.000430050               0.999999988              -0.000688341              -0.000433670               0.999999988              -0.000683498              -0.000436621               0.999999988              -0.000676924              -0.000436714               0.999999988              -0.000667453              -0.000432486               0.999999988              -0.000654583              -0.000422971               0.999999988              -0.000637769              -0.000407586               0.999999988              -0.000616811              -0.000386252               0.999999988              -0.000591852              -0.000358585               0.999999988              -0.000563250              -0.000324561               0.999999988              -0.000531671              -0.000284742               0.999999988              -0.000497851              -0.000239982               0.999999988              -0.000462848              -0.000191661               0.999999988              -0.000730822              -0.000702398               0.999999988              -0.000663778              -0.000577635               0.999999988              -0.000629837              -0.000537183               0.999999988              -0.000613009              -0.000527762               0.999999988              -0.000603827              -0.000530100               0.999999988              -0.000596754              -0.000535416               0.999999988              -0.000588397              -0.000539252               0.999999988              -0.000576696              -0.000538946               0.999999988              -0.000560642              -0.000533407               0.999999988              -0.000539487              -0.000521745               0.999999988              -0.000513209              -0.000503550               0.999999988              -0.000481888              -0.000479249               0.999999988              -0.000446079              -0.000448691               0.999999988              -0.000406431              -0.000412412               0.999999988              -0.000364004              -0.000371588               0.999999988              -0.000319872              -0.000327682               0.999999988              -0.000275244              -0.000282683               0.999999988              -0.000674389              -0.000803511               0.999999988              -0.000582174              -0.000673113               0.999999988              -0.000543522              -0.000634324               0.999999988              -0.000526870              -0.000627265               0.999999988              -0.000517619              -0.000631519               0.999999988              -0.000508920              -0.000638224               0.999999988              -0.000496879              -0.000642390               0.999999988              -0.000479408              -0.000641396               0.999999988              -0.000455590              -0.000634348               0.999999988              -0.000425100              -0.000620501               0.999999988              -0.000388330              -0.000599783               0.999999988              -0.000345825              -0.000572989               0.999999988              -0.000298323              -0.000540518               0.999999988              -0.000246983              -0.000503538               0.999999988              -0.000193274              -0.000463846               0.999999988              -0.000138633              -0.000423167               0.999999988              -0.000084296              -0.000382947               0.999999988              -0.000613022              -0.000896274               0.999999988              -0.000499070              -0.000768221               0.999999988              -0.000461001              -0.000731365               0.999999988              -0.000446492              -0.000726159               0.999999988              -0.000437984              -0.000731990               0.999999988              -0.000427609              -0.000739559               0.999999988              -0.000411230              -0.000743580               0.999999988              -0.000386765              -0.000741723               0.999999988              -0.000354022              -0.000732938               0.999999988              -0.000313149              -0.000716903               0.999999988              -0.000264778              -0.000694189               0.999999988              -0.000209771              -0.000665728               0.999999988              -0.000149413              -0.000632848               0.999999988              -0.000085664              -0.000597394               0.999999988              -0.000020313              -0.000561388               0.999999988               0.000045091              -0.000526230               0.999999988               0.000109954              -0.000492368               0.999999988              -0.000549333              -0.000984249               0.999999988              -0.000429204              -0.000875581               0.999999988              -0.000389052              -0.000835595               0.999999988              -0.000374465              -0.000826428               0.999999988              -0.000367063              -0.000830136               0.999999988              -0.000359143              -0.000838101               0.999999988              -0.000346252              -0.000845310               0.999999988              -0.000326300              -0.000848976               0.999999988              -0.000298752              -0.000847630               0.999999988              -0.000263504              -0.000840796               0.999999988              -0.000220944              -0.000828455               0.999999988              -0.000171268              -0.000811083               0.999999988              -0.000115164              -0.000789551               0.999999988              -0.000053795              -0.000765091               0.999999988               0.000011056              -0.000739228               0.999999988               0.000077657              -0.000713425               0.999999988               0.000144611              -0.000688932               0.999999988              -0.000479969              -0.001064482               0.999999988              -0.000361768              -0.000979661               0.999999988              -0.000319726              -0.000942732               0.999999988              -0.000304203              -0.000931757               0.999999988              -0.000297088              -0.000934246               0.999999988              -0.000290758              -0.000942770               0.999999988              -0.000280752              -0.000952711               0.999999988              -0.000264927              -0.000961244               0.999999988              -0.000242334              -0.000966650               0.999999988              -0.000212714              -0.000968102               0.999999988              -0.000175947              -0.000965316               0.999999988              -0.000132088              -0.000958487               0.999999988              -0.000081300              -0.000947787               0.999999988              -0.000024020              -0.000934051               0.999999988               0.000038639              -0.000918339               0.999999988               0.000105227              -0.000901865               0.999999988               0.000173942              -0.000885813               0.999999988              -0.000406448              -0.001134834               0.999999988              -0.000296879              -0.001077095               0.999999988              -0.000254696              -0.001047700               0.999999988              -0.000238044              -0.001038076               0.999999988              -0.000230618              -0.001040744               0.999999988              -0.000225030              -0.001050375               0.999999988              -0.000217389              -0.001062997               0.999999988              -0.000205052              -0.001075920               0.999999988              -0.000187027              -0.001087428               0.999999988              -0.000162706              -0.001096496               0.999999988              -0.000131958              -0.001102620               0.999999988              -0.000094524              -0.001105616               0.999999988              -0.000049828              -0.001105576               0.999999988               0.000001979              -0.001102569               0.999999988               0.000060558              -0.001097123               0.999999988               0.000125322              -0.001090247               0.999999988               0.000194914              -0.001082979               0.999999988              -0.000329448              -0.001194145               0.999999988              -0.000234489              -0.001163863               0.999999988              -0.000194799              -0.001145171               0.999999988              -0.000177902              -0.001139606               0.999999988              -0.000170054              -0.001144194               0.999999988              -0.000164836              -0.001155622               0.999999988              -0.000158781              -0.001171146               0.999999988              -0.000149417              -0.001188286               0.999999988              -0.000135441              -0.001205374               0.999999988              -0.000116258              -0.001221387               0.999999988              -0.000091546              -0.001235706               0.999999988              -0.000060883              -0.001247844               0.999999988              -0.000023565              -0.001257706               0.999999988               0.000021021              -0.001265141               0.999999988               0.000073307              -0.001270316               0.999999988               0.000133639              -0.001273571               0.999999988               0.000201440              -0.001275677               0.999999988              -0.000249648              -0.001241454               0.999999988              -0.000174215              -0.001235993               0.999999988              -0.000140258              -0.001229232               0.999999988              -0.000124730              -0.001229580               0.999999988              -0.000117180              -0.001237507               0.999999988              -0.000112338              -0.001251544               0.999999988              -0.000107470              -0.001269944               0.999999988              -0.000100577              -0.001290915               0.999999988              -0.000090446              -0.001312981               0.999999988              -0.000076205              -0.001335166               0.999999988              -0.000057504              -0.001356764               0.999999988              -0.000034017              -0.001377221               0.999999988              -0.000005055              -0.001396071               0.999999988               0.000030623              -0.001413201               0.999999988               0.000073964              -0.001428591               0.999999988               0.000125891              -0.001442032               0.999999988               0.000187161              -0.001453716               0.999999988              -0.000167694              -0.001275982               0.999999988              -0.000115379              -0.001290303               0.999999988              -0.000090495              -0.001294370               0.999999988              -0.000078455              -0.001300750               0.999999988              -0.000072344              -0.001312440               0.999999988              -0.000068445              -0.001329280               0.999999988              -0.000064887              -0.001350358               0.999999988              -0.000060235              -0.001374615               0.999999988              -0.000053497              -0.001400881               0.999999988              -0.000043973              -0.001428242               0.999999988              -0.000031513              -0.001455985               0.999999988              -0.000015707              -0.001483409               0.999999988               0.000004344              -0.001510104               0.999999988               0.000029568              -0.001535789               0.999999988               0.000060971              -0.001560075               0.999999988               0.000099739              -0.001582653               0.999999988               0.000147692              -0.001603224               0.999999988              -0.000084231              -0.001297017               0.999999988              -0.000057456              -0.001324100               0.999999988              -0.000044310              -0.001335828               0.999999988              -0.000037664              -0.001346818               0.999999988              -0.000034164              -0.001361400               0.999999988              -0.000031966              -0.001380381               0.999999988              -0.000030126              -0.001403499               0.999999988              -0.000027751              -0.001430019               0.999999988              -0.000024252              -0.001459103               0.999999988              -0.000019403              -0.001489783               0.999999988              -0.000013284              -0.001521404               0.999999988              -0.000005384              -0.001553491               0.999999988               0.000004910              -0.001585646               0.999999988               0.000017950              -0.001617478               0.999999988               0.000034484              -0.001648378               0.999999988               0.000055464              -0.001677800               0.999999988               0.000082182              -0.001705014               0.999999988               0.000000000              -0.001304060               0.999999988               0.000000000              -0.001335542               0.999999988               0.000000000              -0.001350057               0.999999988              -0.000000000              -0.001362747               0.999999988              -0.000000000              -0.001378402               0.999999988               0.000000000              -0.001398253               0.999999988              -0.000000000              -0.001422238               0.999999988               0.000000000              -0.001449669               0.999999988               0.000000000              -0.001479750               0.999999988               0.000000000              -0.001511516               0.999999988               0.000000000              -0.001544475               0.999999988              -0.000000000              -0.001578295               0.999999988               0.000000000              -0.001612349               0.999999988              -0.000000000              -0.001646278               0.999999988              -0.000000000              -0.001679653               0.999999988               0.000000000              -0.001711713               0.999999988               0.000000000              -0.001741458               0.999999988               0.000899977               0.000000000               0.999999988               0.000946715              -0.000000000               0.999999988               0.000965784               0.000000000               0.999999988               0.000975647               0.000000000               0.999999988               0.000983215              -0.000000000               0.999999988               0.000990894               0.000000000               0.999999988               0.000999420               0.000000000               0.999999988               0.001008872              -0.000000000               0.999999988               0.001019115              -0.000000000               0.999999988               0.001029968               0.000000000               0.999999988               0.001041080               0.000000000               0.999999988               0.001051984               0.000000000               0.999999988               0.001062161               0.000000000               0.999999988               0.001071142              -0.000000000               0.999999988               0.001078471              -0.000000000               0.999999988               0.001083607               0.000000000               0.999999988               0.001085495               0.000000000               0.999999988               0.000895010              -0.000123176               0.999999988               0.000937638              -0.000096967               0.999999988               0.000954024              -0.000084614               0.999999988               0.000962156              -0.000079160               0.999999988               0.000968508              -0.000077190               0.999999988               0.000975222              -0.000076708               0.999999988               0.000982903              -0.000076646               0.999999988               0.000991455              -0.000076483               0.999999988               0.001000611              -0.000075678               0.999999988               0.001010159              -0.000073874               0.999999988               0.001019713              -0.000070707               0.999999988               0.001028814              -0.000065604               0.999999988               0.001036953              -0.000058437               0.999999988               0.001043697              -0.000048935               0.999999988               0.001048562              -0.000036590               0.999999988               0.001050991              -0.000020266               0.999999988               0.001050277               0.000001494               0.999999988               0.000880253              -0.000245342               0.999999988               0.000910882              -0.000193696               0.999999988               0.000919719              -0.000170308               0.999999988               0.000923133              -0.000160459               0.999999988               0.000926246              -0.000157365               0.999999988               0.000930361              -0.000156949               0.999999988               0.000935634              -0.000157152               0.999999988               0.000941632              -0.000156922               0.999999988               0.000947883              -0.000155240               0.999999988               0.000953886              -0.000151592               0.999999988               0.000959170              -0.000145180               0.999999988               0.000963396              -0.000135232               0.999999988               0.000966054              -0.000121547               0.999999988               0.000966724              -0.000103595               0.999999988               0.000965053              -0.000080319               0.999999988               0.000960699              -0.000050528               0.999999988               0.000953492              -0.000012491               0.999999988               0.000855885              -0.000365436               0.999999988               0.000867555              -0.000290051               0.999999988               0.000865511              -0.000258013               0.999999988               0.000862635              -0.000245668               0.999999988               0.000861573              -0.000242569               0.999999988               0.000862336              -0.000242945               0.999999988               0.000864281              -0.000243883               0.999999988               0.000866575              -0.000243778               0.999999988               0.000868425              -0.000241436               0.999999988               0.000869274              -0.000235781               0.999999988               0.000868508              -0.000226313               0.999999988               0.000865696              -0.000212104               0.999999988               0.000860565              -0.000192717               0.999999988               0.000852737              -0.000167612               0.999999988               0.000842031              -0.000136098               0.999999988               0.000828561              -0.000097317               0.999999988               0.000812678              -0.000050433               0.999999988               0.000822341              -0.000482351               0.999999988               0.000809909              -0.000386080               0.999999988               0.000795805              -0.000348344               0.999999988               0.000786525              -0.000335554               0.999999988               0.000781545              -0.000333620               0.999999988               0.000779130              -0.000335429               0.999999988               0.000777584              -0.000337377               0.999999988               0.000775695              -0.000337499               0.999999988               0.000772259              -0.000334318               0.999999988               0.000766664              -0.000326799               0.999999988               0.000758361              -0.000314353               0.999999988               0.000747053              -0.000296284               0.999999988               0.000732439              -0.000272239               0.999999988               0.000714490              -0.000241913               0.999999988               0.000693442              -0.000205090               0.999999988               0.000669830              -0.000161699               0.999999988               0.000644473              -0.000112111               0.999999988               0.000780395              -0.000595003               0.999999988               0.000740878              -0.000481928               0.999999988               0.000715520              -0.000441540               0.999999988               0.000701245              -0.000429934               0.999999988               0.000693428              -0.000430050               0.999999988               0.000688341              -0.000433670               0.999999988               0.000683498              -0.000436621               0.999999988               0.000676924              -0.000436714               0.999999988               0.000667453              -0.000432486               0.999999988               0.000654583              -0.000422971               0.999999988               0.000637769              -0.000407586               0.999999988               0.000616811              -0.000386252               0.999999988               0.000591852              -0.000358585               0.999999988               0.000563250              -0.000324561               0.999999988               0.000531671              -0.000284742               0.999999988               0.000497851              -0.000239982               0.999999988               0.000462848              -0.000191661               0.999999988               0.000730822              -0.000702398               0.999999988               0.000663778              -0.000577635               0.999999988               0.000629837              -0.000537183               0.999999988               0.000613009              -0.000527762               0.999999988               0.000603827              -0.000530100               0.999999988               0.000596754              -0.000535416               0.999999988               0.000588397              -0.000539252               0.999999988               0.000576696              -0.000538946               0.999999988               0.000560642              -0.000533407               0.999999988               0.000539487              -0.000521745               0.999999988               0.000513209              -0.000503550               0.999999988               0.000481888              -0.000479249               0.999999988               0.000446079              -0.000448691               0.999999988               0.000406431              -0.000412412               0.999999988               0.000364004              -0.000371588               0.999999988               0.000319872              -0.000327682               0.999999988               0.000275244              -0.000282683               0.999999988               0.000674389              -0.000803511               0.999999988               0.000582174              -0.000673113               0.999999988               0.000543522              -0.000634324               0.999999988               0.000526870              -0.000627265               0.999999988               0.000517619              -0.000631519               0.999999988               0.000508920              -0.000638224               0.999999988               0.000496879              -0.000642390               0.999999988               0.000479408              -0.000641396               0.999999988               0.000455590              -0.000634348               0.999999988               0.000425100              -0.000620501               0.999999988               0.000388330              -0.000599783               0.999999988               0.000345825              -0.000572989               0.999999988               0.000298323              -0.000540518               0.999999988               0.000246983              -0.000503538               0.999999988               0.000193274              -0.000463846               0.999999988               0.000138633              -0.000423167               0.999999988               0.000084296              -0.000382947               0.999999988               0.000613022              -0.000896274               0.999999988               0.000499070              -0.000768221               0.999999988               0.000461001              -0.000731365               0.999999988               0.000446492              -0.000726159               0.999999988               0.000437984              -0.000731990               0.999999988               0.000427609              -0.000739559               0.999999988               0.000411230              -0.000743580               0.999999988               0.000386765              -0.000741723               0.999999988               0.000354022              -0.000732938               0.999999988               0.000313149              -0.000716903               0.999999988               0.000264778              -0.000694189               0.999999988               0.000209771              -0.000665728               0.999999988               0.000149413              -0.000632848               0.999999988               0.000085664              -0.000597394               0.999999988               0.000020313              -0.000561388               0.999999988              -0.000045091              -0.000526230               0.999999988              -0.000109954              -0.000492368               0.999999988               0.000549333              -0.000984249               0.999999988               0.000429204              -0.000875581               0.999999988               0.000389052              -0.000835595               0.999999988               0.000374465              -0.000826428               0.999999988               0.000367063              -0.000830136               0.999999988               0.000359143              -0.000838101               0.999999988               0.000346252              -0.000845310               0.999999988               0.000326300              -0.000848976               0.999999988               0.000298752              -0.000847630               0.999999988               0.000263504              -0.000840796               0.999999988               0.000220944              -0.000828455               0.999999988               0.000171268              -0.000811083               0.999999988               0.000115164              -0.000789551               0.999999988               0.000053795              -0.000765091               0.999999988              -0.000011056              -0.000739228               0.999999988              -0.000077657              -0.000713425               0.999999988              -0.000144611              -0.000688932               0.999999988               0.000479969              -0.001064482               0.999999988               0.000361768              -0.000979661               0.999999988               0.000319726              -0.000942732               0.999999988               0.000304203              -0.000931757               0.999999988               0.000297088              -0.000934246               0.999999988               0.000290758              -0.000942770               0.999999988               0.000280752              -0.000952711               0.999999988               0.000264927              -0.000961244               0.999999988               0.000242334              -0.000966650               0.999999988               0.000212714              -0.000968102               0.999999988               0.000175947              -0.000965316               0.999999988               0.000132088              -0.000958487               0.999999988               0.000081300              -0.000947787               0.999999988               0.000024020              -0.000934051               0.999999988              -0.000038639              -0.000918339               0.999999988              -0.000105227              -0.000901865               0.999999988              -0.000173942              -0.000885813               0.999999988               0.000406448              -0.001134834               0.999999988               0.000296879              -0.001077095               0.999999988               0.000254696              -0.001047700               0.999999988               0.000238044              -0.001038076               0.999999988               0.000230618              -0.001040744               0.999999988               0.000225030              -0.001050375               0.999999988               0.000217389              -0.001062997               0.999999988               0.000205052              -0.001075920               0.999999988               0.000187027              -0.001087428               0.999999988               0.000162706              -0.001096496               0.999999988               0.000131958              -0.001102620               0.999999988               0.000094524              -0.001105616               0.999999988               0.000049828              -0.001105576               0.999999988              -0.000001979              -0.001102569               0.999999988              -0.000060558              -0.001097123               0.999999988              -0.000125322              -0.001090247               0.999999988              -0.000194914              -0.001082979               0.999999988               0.000329448              -0.001194145               0.999999988               0.000234489              -0.001163863               0.999999988               0.000194799              -0.001145171               0.999999988               0.000177902              -0.001139606               0.999999988               0.000170054              -0.001144194               0.999999988               0.000164836              -0.001155622               0.999999988               0.000158781              -0.001171146               0.999999988               0.000149417              -0.001188286               0.999999988               0.000135441              -0.001205374               0.999999988               0.000116258              -0.001221387               0.999999988               0.000091546              -0.001235706               0.999999988               0.000060883              -0.001247844               0.999999988               0.000023565              -0.001257706               0.999999988              -0.000021021              -0.001265141               0.999999988              -0.000073307              -0.001270316               0.999999988              -0.000133639              -0.001273571               0.999999988              -0.000201440              -0.001275677               0.999999988               0.000249648              -0.001241454               0.999999988               0.000174215              -0.001235993               0.999999988               0.000140258              -0.001229232               0.999999988               0.000124730              -0.001229580               0.999999988               0.000117180              -0.001237507               0.999999988               0.000112338              -0.001251544               0.999999988               0.000107470              -0.001269944               0.999999988               0.000100577              -0.001290915               0.999999988               0.000090446              -0.001312981               0.999999988               0.000076205              -0.001335166               0.999999988               0.000057504              -0.001356764               0.999999988               0.000034017              -0.001377221               0.999999988               0.000005055              -0.001396071               0.999999988              -0.000030623              -0.001413201               0.999999988              -0.000073964              -0.001428591               0.999999988              -0.000125891              -0.001442032               0.999999988              -0.000187161              -0.001453716               0.999999988               0.000167694              -0.001275982               0.999999988               0.000115379              -0.001290303               0.999999988               0.000090495              -0.001294370               0.999999988               0.000078455              -0.001300750               0.999999988               0.000072344              -0.001312440               0.999999988               0.000068445              -0.001329280               0.999999988               0.000064887              -0.001350358               0.999999988               0.000060235              -0.001374615               0.999999988               0.000053497              -0.001400881               0.999999988               0.000043973              -0.001428242               0.999999988               0.000031513              -0.001455985               0.999999988               0.000015707              -0.001483409               0.999999988              -0.000004344              -0.001510104               0.999999988              -0.000029568              -0.001535789               0.999999988              -0.000060971              -0.001560075               0.999999988              -0.000099739              -0.001582653               0.999999988              -0.000147692              -0.001603224               0.999999988               0.000084231              -0.001297017               0.999999988               0.000057456              -0.001324100               0.999999988               0.000044310              -0.001335828               0.999999988               0.000037664              -0.001346818               0.999999988               0.000034164              -0.001361400               0.999999988               0.000031966              -0.001380381               0.999999988               0.000030126              -0.001403499               0.999999988               0.000027751              -0.001430019               0.999999988               0.000024252              -0.001459103               0.999999988               0.000019403              -0.001489783               0.999999988               0.000013284              -0.001521404               0.999999988               0.000005384              -0.001553491               0.999999988              -0.000004910              -0.001585646               0.999999988              -0.000017950              -0.001617478               0.999999988              -0.000034484              -0.001648378               0.999999988              -0.000055464              -0.001677800               0.999999988              -0.000082182              -0.001705014               0.999999988               0.000000000              -0.001304060               0.999999988               0.000000000              -0.001335542               0.999999988               0.000000000              -0.001350057               0.999999988              -0.000000000              -0.001362747               0.999999988              -0.000000000              -0.001378402               0.999999988               0.000000000              -0.001398253               0.999999988              -0.000000000              -0.001422238               0.999999988               0.000000000              -0.001449669               0.999999988               0.000000000              -0.001479750               0.999999988               0.000000000              -0.001511516               0.999999988               0.000000000              -0.001544475               0.999999988              -0.000000000              -0.001578295               0.999999988               0.000000000              -0.001612349               0.999999988              -0.000000000              -0.001646278               0.999999988              -0.000000000              -0.001679653               0.999999988               0.000000000              -0.001711713               0.999999988               0.000000000              -0.001741458               0.999999988               0.000899977               0.000000000               0.999999988               0.000946715              -0.000000000               0.999999988               0.000965784               0.000000000               0.999999988               0.000975647               0.000000000               0.999999988               0.000983215              -0.000000000               0.999999988               0.000990894               0.000000000               0.999999988               0.000999420               0.000000000               0.999999988               0.001008872              -0.000000000               0.999999988               0.001019115              -0.000000000               0.999999988               0.001029968               0.000000000               0.999999988               0.001041080               0.000000000               0.999999988               0.001051984               0.000000000               0.999999988               0.001062161               0.000000000               0.999999988               0.001071142              -0.000000000               0.999999988               0.001078471              -0.000000000               0.999999988               0.001083607               0.000000000               0.999999988               0.001085495               0.000000000               0.999999988               0.000895010               0.000123176               0.999999988               0.000937638               0.000096967               0.999999988               0.000954024               0.000084614               0.999999988               0.000962156               0.000079160               0.999999988               0.000968508               0.000077190               0.999999988               0.000975222               0.000076708               0.999999988               0.000982903               0.000076646               0.999999988               0.000991455               0.000076483               0.999999988               0.001000611               0.000075678               0.999999988               0.001010159               0.000073874               0.999999988               0.001019713               0.000070707               0.999999988               0.001028814               0.000065604               0.999999988               0.001036953               0.000058437               0.999999988               0.001043697               0.000048935               0.999999988               0.001048562               0.000036590               0.999999988               0.001050991               0.000020266               0.999999988               0.001050277              -0.000001494               0.999999988               0.000880253               0.000245342               0.999999988               0.000910882               0.000193696               0.999999988               0.000919719               0.000170308               0.999999988               0.000923133               0.000160459               0.999999988               0.000926246               0.000157365               0.999999988               0.000930361               0.000156949               0.999999988               0.000935634               0.000157152               0.999999988               0.000941632               0.000156922               0.999999988               0.000947883               0.000155240               0.999999988               0.000953886               0.000151592               0.999999988               0.000959170               0.000145180               0.999999988               0.000963396               0.000135232               0.999999988               0.000966054               0.000121547               0.999999988               0.000966724               0.000103595               0.999999988               0.000965053               0.000080319               0.999999988               0.000960699               0.000050528               0.999999988               0.000953492               0.000012491               0.999999988               0.000855885               0.000365436               0.999999988               0.000867555               0.000290051               0.999999988               0.000865511               0.000258013               0.999999988               0.000862635               0.000245668               0.999999988               0.000861573               0.000242569               0.999999988               0.000862336               0.000242945               0.999999988               0.000864281               0.000243883               0.999999988               0.000866575               0.000243778               0.999999988               0.000868425               0.000241436               0.999999988               0.000869274               0.000235781               0.999999988               0.000868508               0.000226313               0.999999988               0.000865696               0.000212104               0.999999988               0.000860565               0.000192717               0.999999988               0.000852737               0.000167612               0.999999988               0.000842031               0.000136098               0.999999988               0.000828561               0.000097317               0.999999988               0.000812678               0.000050433               0.999999988               0.000822341               0.000482351               0.999999988               0.000809909               0.000386080               0.999999988               0.000795805               0.000348344               0.999999988               0.000786525               0.000335554               0.999999988               0.000781545               0.000333620               0.999999988               0.000779130               0.000335429               0.999999988               0.000777584               0.000337377               0.999999988               0.000775695               0.000337499               0.999999988               0.000772259               0.000334318               0.999999988               0.000766664               0.000326799               0.999999988               0.000758361               0.000314353               0.999999988               0.000747053               0.000296284               0.999999988               0.000732439               0.000272239               0.999999988               0.000714490               0.000241913               0.999999988               0.000693442               0.000205090               0.999999988               0.000669830               0.000161699               0.999999988               0.000644473               0.000112111               0.999999988               0.000780395               0.000595003               0.999999988               0.000740878               0.000481928               0.999999988               0.000715520               0.000441540               0.999999988               0.000701245               0.000429934               0.999999988               0.000693428               0.000430050               0.999999988               0.000688341               0.000433670               0.999999988               0.000683498               0.000436621               0.999999988               0.000676924               0.000436714               0.999999988               0.000667453               0.000432486               0.999999988               0.000654583               0.000422971               0.999999988               0.000637769               0.000407586               0.999999988               0.000616811               0.000386252               0.999999988               0.000591852               0.000358585               0.999999988               0.000563250               0.000324561               0.999999988               0.000531671               0.000284742               0.999999988               0.000497851               0.000239982               0.999999988               0.000462848               0.000191661               0.999999988               0.000730822               0.000702398               0.999999988               0.000663778               0.000577635               0.999999988               0.000629837               0.000537183               0.999999988               0.000613009               0.000527762               0.999999988               0.000603827               0.000530100               0.999999988               0.000596754               0.000535416               0.999999988               0.000588397               0.000539252               0.999999988               0.000576696               0.000538946               0.999999988               0.000560642               0.000533407               0.999999988               0.000539487               0.000521745               0.999999988               0.000513209               0.000503550               0.999999988               0.000481888               0.000479249               0.999999988               0.000446079               0.000448691               0.999999988               0.000406431               0.000412412               0.999999988               0.000364004               0.000371588               0.999999988               0.000319872               0.000327682               0.999999988               0.000275244               0.000282683               0.999999988               0.000674389               0.000803511               0.999999988               0.000582174               0.000673113               0.999999988               0.000543522               0.000634324               0.999999988               0.000526870               0.000627265               0.999999988               0.000517619               0.000631519               0.999999988               0.000508920               0.000638224               0.999999988               0.000496879               0.000642390               0.999999988               0.000479408               0.000641396               0.999999988               0.000455590               0.000634348               0.999999988               0.000425100               0.000620501               0.999999988               0.000388330               0.000599783               0.999999988               0.000345825               0.000572989               0.999999988               0.000298323               0.000540518               0.999999988               0.000246983               0.000503538               0.999999988               0.000193274               0.000463846               0.999999988               0.000138633               0.000423167               0.999999988               0.000084296               0.000382947               0.999999988               0.000613022               0.000896274               0.999999988               0.000499070               0.000768221               0.999999988               0.000461001               0.000731365               0.999999988               0.000446492               0.000726159               0.999999988               0.000437984               0.000731990               0.999999988               0.000427609               0.000739559               0.999999988               0.000411230               0.000743580               0.999999988               0.000386765               0.000741723               0.999999988               0.000354022               0.000732938               0.999999988               0.000313149               0.000716903               0.999999988               0.000264778               0.000694189               0.999999988               0.000209771               0.000665728               0.999999988               0.000149413               0.000632848               0.999999988               0.000085664               0.000597394               0.999999988               0.000020313               0.000561388               0.999999988              -0.000045091               0.000526230               0.999999988              -0.000109954               0.000492368               0.999999988               0.000549333               0.000984249               0.999999988               0.000429204               0.000875581               0.999999988               0.000389052               0.000835595               0.999999988               0.000374465               0.000826428               0.999999988               0.000367063               0.000830136               0.999999988               0.000359143               0.000838101               0.999999988               0.000346252               0.000845310               0.999999988               0.000326300               0.000848976               0.999999988               0.000298752               0.000847630               0.999999988               0.000263504               0.000840796               0.999999988               0.000220944               0.000828455               0.999999988               0.000171268               0.000811083               0.999999988               0.000115164               0.000789551               0.999999988               0.000053795               0.000765091               0.999999988              -0.000011056               0.000739228               0.999999988              -0.000077657               0.000713425               0.999999988              -0.000144611               0.000688932               0.999999988               0.000479969               0.001064482               0.999999988               0.000361768               0.000979661               0.999999988               0.000319726               0.000942732               0.999999988               0.000304203               0.000931757               0.999999988               0.000297088               0.000934246               0.999999988               0.000290758               0.000942770               0.999999988               0.000280752               0.000952711               0.999999988               0.000264927               0.000961244               0.999999988               0.000242334               0.000966650               0.999999988               0.000212714               0.000968102               0.999999988               0.000175947               0.000965316               0.999999988               0.000132088               0.000958487               0.999999988               0.000081300               0.000947787               0.999999988               0.000024020               0.000934051               0.999999988              -0.000038639               0.000918339               0.999999988              -0.000105227               0.000901865               0.999999988              -0.000173942               0.000885813               0.999999988               0.000406448               0.001134834               0.999999988               0.000296879               0.001077095               0.999999988               0.000254696               0.001047700               0.999999988               0.000238044               0.001038076               0.999999988               0.000230618               0.001040744               0.999999988               0.000225030               0.001050375               0.999999988               0.000217389               0.001062997               0.999999988               0.000205052               0.001075920               0.999999988               0.000187027               0.001087428               0.999999988               0.000162706               0.001096496               0.999999988               0.000131958               0.001102620               0.999999988               0.000094524               0.001105616               0.999999988               0.000049828               0.001105576               0.999999988              -0.000001979               0.001102569               0.999999988              -0.000060558               0.001097123               0.999999988              -0.000125322               0.001090247               0.999999988              -0.000194914               0.001082979               0.999999988               0.000329448               0.001194145               0.999999988               0.000234489               0.001163863               0.999999988               0.000194799               0.001145171               0.999999988               0.000177902               0.001139606               0.999999988               0.000170054               0.001144194               0.999999988               0.000164836               0.001155622               0.999999988               0.000158781               0.001171146               0.999999988               0.000149417               0.001188286               0.999999988               0.000135441               0.001205374               0.999999988               0.000116258               0.001221387               0.999999988               0.000091546               0.001235706               0.999999988               0.000060883               0.001247844               0.999999988               0.000023565               0.001257706               0.999999988              -0.000021021               0.001265141               0.999999988              -0.000073307               0.001270316               0.999999988              -0.000133639               0.001273571               0.999999988              -0.000201440               0.001275677               0.999999988               0.000249648               0.001241454               0.999999988               0.000174215               0.001235993               0.999999988               0.000140258               0.001229232               0.999999988               0.000124730               0.001229580               0.999999988               0.000117180               0.001237507               0.999999988               0.000112338               0.001251544               0.999999988               0.000107470               0.001269944               0.999999988               0.000100577               0.001290915               0.999999988               0.000090446               0.001312981               0.999999988               0.000076205               0.001335166               0.999999988               0.000057504               0.001356764               0.999999988               0.000034017               0.001377221               0.999999988               0.000005055               0.001396071               0.999999988              -0.000030623               0.001413201               0.999999988              -0.000073964               0.001428591               0.999999988              -0.000125891               0.001442032               0.999999988              -0.000187161               0.001453716               0.999999988               0.000167694               0.001275982               0.999999988               0.000115379               0.001290303               0.999999988               0.000090495               0.001294370               0.999999988               0.000078455               0.001300750               0.999999988               0.000072344               0.001312440               0.999999988               0.000068445               0.001329280               0.999999988               0.000064887               0.001350358               0.999999988               0.000060235               0.001374615               0.999999988               0.000053497               0.001400881               0.999999988               0.000043973               0.001428242               0.999999988               0.000031513               0.001455985               0.999999988               0.000015707               0.001483409               0.999999988              -0.000004344               0.001510104               0.999999988              -0.000029568               0.001535789               0.999999988              -0.000060971               0.001560075               0.999999988              -0.000099739               0.001582653               0.999999988              -0.000147692               0.001603224               0.999999988               0.000084231               0.001297017               0.999999988               0.000057456               0.001324100               0.999999988               0.000044310               0.001335828               0.999999988               0.000037664               0.001346818               0.999999988               0.000034164               0.001361400               0.999999988               0.000031966               0.001380381               0.999999988               0.000030126               0.001403499               0.999999988               0.000027751               0.001430019               0.999999988               0.000024252               0.001459103               0.999999988               0.000019403               0.001489783               0.999999988               0.000013284               0.001521404               0.999999988               0.000005384               0.001553491               0.999999988              -0.000004910               0.001585646               0.999999988              -0.000017950               0.001617478               0.999999988              -0.000034484               0.001648378               0.999999988              -0.000055464               0.001677800               0.999999988              -0.000082182               0.001705014               0.999999988               0.000000000               0.001304060               0.999999988               0.000000000               0.001335542               0.999999988              -0.000000000               0.001350057               0.999999988               0.000000000               0.001362747               0.999999988               0.000000000               0.001378402               0.999999988               0.000000000               0.001398253               0.999999988              -0.000000000               0.001422238               0.999999988              -0.000000000               0.001449669               0.999999988              -0.000000000               0.001479750               0.999999988              -0.000000000               0.001511516               0.999999988              -0.000000000               0.001544475               0.999999988              -0.000000000               0.001578295               0.999999988              -0.000000000               0.001612349               0.999999988               0.000000000               0.001646278               0.999999988               0.000000000               0.001679653               0.999999988              -0.000000000               0.001711713               0.999999988              -0.000000000               0.001741458               0.999999988 </DataArray>
<DataArray type="Float64"                                    Name="defo"                                                      NumberOfComponents=" 3" format="ascii">
             -0.000899977               0.000000000               0.999999988              -0.000946715              -0.000000000               0.999999988              -0.000965784               0.000000000               0.999999988              -0.000975647              -0.000000000               0.999999988              -0.000983215              -0.000000000               0.999999988              -0.000990894              -0.000000000               0.999999988              -0.000999420              -0.000000000               0.999999988              -0.001008872              -0.000000000               0.999999988              -0.001019115               0.000000000               0.999999988              -0.001029968               0.000000000               0.999999988              -0.001041080               0.000000000               0.999999988              -0.001051984               0.000000000               0.999999988              -0.001062161               0.000000000               0.999999988              -0.001071142              -0.000000000               0.999999988              -0.001078471               0.000000000               0.999999988              -0.001083607               0.000000000               0.999999988              -0.001085495               0.000000000               0.999999988              -0.000895010               0.000123176               0.999999988              -0.000937638               0.000096967               0.999999988              -0.000954024               0.000084614               0.999999988              -0.000962156               0.000079160               0.999999988              -0.000968508               0.000077190               0.999999988              -0.000975222               0.000076708               0.999999988              -0.000982903               0.000076646               0.999999988              -0.000991455               0.000076483               0.999999988              -0.001000611               0.000075678               0.999999988              -0.001010159               0.000073874               0.999999988              -0.001019713               0.000070707               0.999999988              -0.001028814               0.000065604               0.999999988              -0.001036953               0.000058437               0.999999988              -0.001043697               0.000048935               0.999999988              -0.001048562               0.000036590               0.999999988              -0.001050991               0.000020266               0.999999988              -0.001050277              -0.000001494               0.999999988              -0.000880253               0.000245342               0.999999988              -0.000910882               0.000193696               0.999999988              -0.000919719               0.000170308               0.999999988              -0.000923133               0.000160459               0.999999988              -0.000926246               0.000157365               0.999999988              -0.000930361               0.000156949               0.999999988              -0.000935634               0.000157152               0.999999988              -0.000941632               0.000156922               0.999999988              -0.000947883               0.000155240               0.999999988              -0.000953886               0.000151592               0.999999988              -0.000959170               0.000145180               0.999999988              -0.000963396               0.000135232               0.999999988              -0.000966054               0.000121547               0.999999988              -0.000966724               0.000103595               0.999999988              -0.000965053               0.000080319               0.999999988              -0.000960699               0.000050528               0.999999988              -0.000953492               0.000012491               0.999999988              -0.000855885               0.000365436               0.999999988              -0.000867555               0.000290051               0.999999988              -0.000865511               0.000258013               0.999999988              -0.000862635               0.000245668               0.999999988              -0.000861573               0.000242569               0.999999988              -0.000862336               0.000242945               0.999999988              -0.000864281               0.000243883               0.999999988              -0.000866575               0.000243778               0.999999988              -0.000868425               0.000241436               0.999999988              -0.000869274               0.000235781               0.999999988              -0.000868508               0.000226313               0.999999988              -0.000865696               0.000212104               0.999999988              -0.000860565               0.000192717               0.999999988              -0.000852737               0.000167612               0.999999988              -0.000842031               0.000136098               0.999999988              -0.000828561               0.000097317               0.999999988              -0.000812678               0.000050433               0.999999988              -0.000822341               0.000482351               0.999999988              -0.000809909               0.000386080               0.999999988              -0.000795805               0.000348344               0.999999988              -0.000786525               0.000335554               0.999999988              -0.000781545               0.000333620               0.999999988              -0.000779130               0.000335429               0.999999988              -0.000777584               0.000337377               0.999999988              -0.000775695               0.000337499               0.999999988              -0.000772259               0.000334318               0.999999988              -0.000766664               0.000326799               0.999999988              -0.000758361               0.000314353               0.999999988              -0.000747053               0.000296284               0.999999988              -0.000732439               0.000272239               0.999999988              -0.000714490               0.000241913               0.999999988              -0.000693442               0.000205090               0.999999988              -0.000669830               0.000161699               0.999999988              -0.000644473               0.000112111               0.999999988              -0.000780395               0.000595003               0.999999988              -0.000740878               0.000481928               0.999999988              -0.000715520               0.000441540               0.999999988              -0.000701245               0.000429934               0.999999988              -0.000693428               0.000430050               0.999999988              -0.000688341               0.000433670               0.999999988              -0.000683498               0.000436621               0.999999988              -0.000676924               0.000436714               0.999999988              -0.000667453               0.000432486               0.999999988              -0.000654583               0.000422971               0.999999988              -0.000637769               0.000407586               0.999999988              -0.000616811               0.000386252               0.999999988              -0.000591852               0.000358585               0.999999988              -0.000563250               0.000324561               0.999999988              -0.000531671               0.000284742               0.999999988              -0.000497851               0.000239982               0.999999988              -0.000462848               0.000191661               0.999999988              -0.000730822               0.000702398               0.999999988              -0.000663778               0.000577635               0.999999988              -0.000629837               0.000537183               0.999999988              -0.000613009               0.000527762               0.999999988              -0.000603827               0.000530100               0.999999988              -0.000596754               0.000535416               0.999999988              -0.000588397               0.000539252               0.999999988              -0.000576696               0.000538946               0.999999988              -0.000560642               0.000533407               0.999999988              -0.000539487               0.000521745               0.999999988              -0.000513209               0.000503550               0.999999988              -0.000481888               0.000479249               0.999999988              -0.000446079               0.000448691               0.999999988              -0.000406431               0.000412412               0.999999988              -0.000364004               0.000371588               0.999999988              -0.000319872               0.000327682               0.999999988              -0.000275244               0.000282683               0.999999988              -0.000674389               0.000803511               0.999999988              -0.000582174               0.000673113               0.999999988              -0.000543522               0.000634324               0.999999988              -0.000526870               0.000627265               0.999999988              -0.000517619               0.000631519               0.999999988              -0.000508920               0.000638224               0.999999988              -0.000496879               0.000642390               0.999999988              -0.000479408               0.000641396               0.999999988              -0.000455590               0.000634348               0.999999988              -0.000425100               0.000620501               0.999999988              -0.000388330               0.000599783               0.999999988              -0.000345825               0.000572989               0.999999988              -0.000298323               0.000540518               0.999999988              -0.000246983               0.000503538               0.999999988              -0.000193274               0.000463846               0.999999988              -0.000138633               0.000423167               0.999999988              -0.000084296               0.000382947               0.999999988              -0.000613022               0.000896274               0.999999988              -0.000499070               0.000768221               0.999999988              -0.000461001               0.000731365               0.999999988              -0.000446492               0.000726159               0.999999988              -0.000437984               0.000731990               0.999999988              -0.000427609               0.000739559               0.999999988              -0.000411230               0.000743580               0.999999988              -0.000386765               0.000741723               0.999999988              -0.000354022               0.000732938               0.999999988              -0.000313149               0.000716903               0.999999988              -0.000264778               0.000694189               0.999999988              -0.000209771               0.000665728               0.999999988              -0.000149413               0.000632848               0.999999988              -0.000085664               0.000597394               0.999999988              -0.000020313               0.000561388               0.999999988               0.000045091               0.000526230               0.999999988               0.000109954               0.000492368               0.999999988              -0.000549333               0.000984249               0.999999988              -0.000429204               0.000875581               0.999999988              -0.000389052               0.000835595               0.999999988              -0.000374465               0.000826428               0.999999988              -0.000367063               0.000830136               0.999999988              -0.000359143               0.000838101               0.999999988              -0.000346252               0.000845310               0.999999988              -0.000326300               0.000848976               0.999999988              -0.000298752               0.000847630               0.999999988              -0.000263504               0.000840796               0.999999988              -0.000220944               0.000828455               0.999999988              -0.000171268               0.000811083               0.999999988              -0.000115164               0.000789551               0.999999988              -0.000053795               0.000765091               0.999999988               0.000011056               0.000739228               0.999999988               0.000077657               0.000713425               0.999999988               0.000144611               0.000688932               0.999999988              -0.000479969               0.001064482               0.999999988              -0.000361768               0.000979661               0.999999988              -0.000319726               0.000942732               0.999999988              -0.000304203               0.000931757               0.999999988              -0.000297088               0.000934246               0.999999988              -0.000290758               0.000942770               0.999999988              -0.000280752               0.000952711               0.999999988              -0.000264927               0.000961244               0.999999988              -0.000242334               0.000966650               0.999999988              -0.000212714               0.000968102               0.999999988              -0.000175947               0.000965316               0.999999988              -0.000132088               0.000958487               0.999999988              -0.000081300               0.000947787               0.999999988              -0.000024020               0.000934051               0.999999988               0.000038639               0.000918339               0.999999988               0.000105227               0.000901865               0.999999988               0.000173942               0.000885813               0.999999988              -0.000406448               0.001134834               0.999999988              -0.000296879               0.001077095               0.999999988              -0.000254696               0.001047700               0.999999988              -0.000238044               0.001038076               0.999999988              -0.000230618               0.001040744               0.999999988              -0.000225030               0.001050375               0.999999988              -0.000217389               0.001062997               0.999999988              -0.000205052               0.001075920               0.999999988              -0.000187027               0.001087428               0.999999988              -0.000162706               0.001096496               0.999999988              -0.000131958               0.001102620               0.999999988              -0.000094524               0.001105616               0.999999988              -0.000049828               0.001105576               0.999999988               0.000001979               0.001102569               0.999999988               0.000060558               0.001097123               0.999999988               0.000125322               0.001090247               0.999999988               0.000194914               0.001082979               0.999999988              -0.000329448               0.001194145               0.999999988              -0.000234489               0.001163863               0.999999988              -0.000194799               0.001145171               0.999999988              -0.000177902               0.001139606               0.999999988              -0.000170054               0.001144194               0.999999988              -0.000164836               0.001155622               0.999999988              -0.000158781               0.001171146               0.999999988              -0.000149417               0.001188286               0.999999988              -0.000135441               0.001205374               0.999999988              -0.000116258               0.001221387               0.999999988              -0.000091546               0.001235706               0.999999988              -0.000060883               0.001247844               0.999999988              -0.000023565               0.001257706               0.999999988               0.000021021               0.001265141               0.999999988               0.000073307               0.001270316               0.999999988               0.000133639               0.001273571               0.999999988               0.000201440               0.001275677               0.999999988              -0.000249648               0.001241454               0.999999988              -0.000174215               0.001235993               0.999999988              -0.000140258               0.001229232               0.999999988              -0.000124730               0.001229580               0.999999988              -0.000117180               0.001237507               0.999999988              -0.000112338               0.001251544               0.999999988              -0.000107470               0.001269944               0.999999988              -0.000100577               0.001290915               0.999999988              -0.000090446               0.001312981               0.999999988              -0.000076205               0.001335166               0.999999988              -0.000057504               0.001356764               0.999999988              -0.000034017               0.001377221               0.999999988              -0.000005055               0.001396071               0.999999988               0.000030623               0.001413201               0.999999988               0.000073964               0.001428591               0.999999988               0.000125891               0.001442032               0.999999988               0.000187161               0.001453716               0.999999988              -0.000167694               0.001275982               0.999999988              -0.000115379               0.001290303               0.999999988              -0.000090495               0.001294370               0.999999988              -0.000078455               0.001300750               0.999999988              -0.000072344               0.001312440               0.999999988              -0.000068445               0.001329280               0.999999988              -0.000064887               0.001350358               0.999999988              -0.000060235               0.001374615               0.999999988              -0.000053497               0.001400881               0.999999988              -0.000043973               0.001428242               0.999999988              -0.000031513               0.001455985               0.999999988              -0.000015707               0.001483409               0.999999988               0.000004344               0.001510104               0.999999988               0.000029568               0.001535789               0.999999988               0.000060971               0.001560075               0.999999988               0.000099739               0.001582653               0.999999988               0.000147692               0.001603224               0.999999988              -0.000084231               0.001297017               0.999999988              -0.000057456               0.001324100               0.999999988              -0.000044310               0.001335828               0.999999988              -0.000037664               0.001346818               0.999999988              -0.000034164               0.001361400               0.999999988              -0.000031966               0.001380381               0.999999988              -0.000030126               0.001403499               0.999999988              -0.000027751               0.001430019               0.999999988              -0.000024252               0.001459103               0.999999988              -0.000019403               0.001489783               0.999999988              -0.000013284               0.001521404               0.999999988              -0.000005384               0.001553491               0.999999988               0.000004910               0.001585646               0.999999988               0.000017950               0.001617478               0.999999988               0.000034484               0.001648378               0.999999988               0.000055464               0.001677800               0.999999988               0.000082182               0.001705014               0.999999988               0.000000000               0.001304060               0.999999988               0.000000000               0.001335542               0.999999988              -0.000000000               0.001350057               0.999999988               0.000000000               0.001362747               0.999999988               0.000000000               0.001378402               0.999999988               0.000000000               0.001398253               0.999999988              -0.000000000               0.001422238               0.999999988              -0.000000000               0.001449669               0.999999988              -0.000000000               0.001479750               0.999999988              -0.000000000               0.001511516               0.999999988              -0.000000000               0.001544475               0.999999988              -0.000000000               0.001578295               0.999999988              -0.000000000               0.001612349               0.999999988               0.000000000               0.001646278               0.999999988               0.000000000               0.001679653               0.999999988              -0.000000000               0.001711713               0.999999988              -0.000000000               0.001741458               0.999999988              -0.000899977               0.000000000               0.999999988              -0.000946715              -0.000000000               0.999999988              -0.000965784               0.000000000               0.999999988              -0.000975647              -0.000000000               0.999999988              -0.000983215              -0.000000000               0.999999988              -0.000990894              -0.000000000               0.999999988              -0.000999420              -0.000000000               0.999999988              -0.001008872              -0.000000000               0.999999988              -0.001019115               0.000000000               0.999999988              -0.001029968               0.000000000               0.999999988              -0.001041080               0.000000000               0.999999988              -0.001051984               0.000000000               0.999999988              -0.001062161               0.000000000               0.999999988              -0.001071142              -0.000000000               0.999999988              -0.001078471               0.000000000               0.999999988              -0.001083607               0.000000000               0.999999988              -0.001085495               0.000000000               0.999999988              -0.000895010              -0.000123176               0.999999988              -0.000937638              -0.000096967               0.999999988              -0.000954024              -0.000084614               0.999999988              -0.000962156              -0.000079160               0.999999988              -0.000968508              -0.000077190               0.999999988              -0.000975222              -0.000076708               0.999999988              -0.000982903              -0.000076646               0.999999988              -0.000991455              -0.000076483               0.999999988              -0.001000611              -0.000075678               0.999999988              -0.001010159              -0.000073874               0.999999988              -0.001019713              -0.000070707               0.999999988              -0.001028814              -0.000065604               0.999999988              -0.001036953              -0.000058437               0.999999988              -0.001043697              -0.000048935               0.999999988              -0.001048562              -0.000036590               0.999999988              -0.001050991              -0.000020266               0.999999988              -0.001050277               0.000001494               0.999999988              -0.000880253              -0.000245342               0.999999988              -0.000910882              -0.000193696               0.999999988              -0.000919719              -0.000170308               0.999999988              -0.000923133              -0.000160459               0.999999988              -0.000926246              -0.000157365               0.999999988              -0.000930361              -0.000156949               0.999999988              -0.000935634              -0.000157152               0.999999988              -0.000941632              -0.000156922               0.999999988              -0.000947883              -0.000155240               0.999999988              -0.000953886              -0.000151592               0.999999988              -0.000959170              -0.000145180               0.999999988              -0.000963396              -0.000135232               0.999999988              -0.000966054              -0.000121547               0.999999988              -0.000966724              -0.000103595               0.999999988              -0.000965053              -0.000080319               0.999999988              -0.000960699              -0.000050528               0.999999988              -0.000953492              -0.000012491               0.999999988              -0.000855885              -0.000365436               0.999999988              -0.000867555              -0.000290051               0.999999988              -0.000865511              -0.000258013               0.999999988              -0.000862635              -0.000245668               0.999999988              -0.000861573              -0.000242569               0.999999988              -0.000862336              -0.000242945               0.999999988              -0.000864281              -0.000243883               0.999999988              -0.000866575              -0.000243778               0.999999988              -0.000868425              -0.000241436               0.999999988              -0.000869274              -0.000235781               0.999999988              -0.000868508              -0.000226313               0.999999988              -0.000865696              -0.000212104               0.999999988              -0.000860565              -0.000192717               0.999999988              -0.000852737              -0.000167612               0.999999988              -0.000842031              -0.000136098               0.999999988              -0.000828561              -0.000097317               0.999999988              -0.000812678              -0.000050433               0.999999988              -0.000822341              -0.000482351               0.999999988              -0.000809909              -0.000386080               0.999999988              -0.000795805              -0.000348344               0.999999988              -0.000786525              -0.000335554               0.999999988              -0.000781545              -0.000333620               0.999999988              -0.000779130              -0.000335429               0.999999988              -0.000777584              -0.000337377               0.999999988              -0.000775695              -0.000337499               0.999999988              -0.000772259              -0.000334318               0.999999988              -0.000766664              -0.000326799               0.999999988              -0.000758361              -0.000314353               0.999999988              -0.000747053              -0.000296284               0.999999988              -0.000732439              -0.000272239               0.999999988              -0.000714490              -0.000241913               0.999999988              -0.000693442              -0.000205090               0.999999988              -0.000669830              -0.000161699               0.999999988              -0.000644473              -0.000112111               0.999999988              -0.000780395              -0.000595003               0.999999988              -0.000740878              -0.000481928               0.999999988              -0.000715520              -0.000441540               0.999999988              -0.000701245              -0.000429934               0.999999988              -0.000693428              -0.000430050               0.999999988              -0.000688341              -0.000433670               0.999999988              -0.000683498              -0.000436621               0.999999988              -0.000676924              -0.000436714               0.999999988              -0.000667453              -0.000432486               0.999999988              -0.000654583              -0.000422971               0.999999988              -0.000637769              -0.000407586               0.999999988              -0.000616811              -0.000386252               0.999999988              -0.000591852              -0.000358585               0.999999988              -0.000563250              -0.000324561               0.999999988              -0.000531671              -0.000284742               0.999999988              -0.000497851              -0.000239982               0.999999988              -0.000462848              -0.000191661               0.999999988              -0.000730822              -0.000702398               0.999999988              -0.000663778              -0.000577635               0.999999988              -0.000629837              -0.000537183               0.999999988              -0.000613009              -0.000527762               0.999999988              -0.000603827              -0.000530100               0.999999988              -0.000596754              -0.000535416               0.999999988              -0.000588397              -0.000539252               0.999999988              -0.000576696              -0.000538946               0.999999988              -0.000560642              -0.000533407               0.999999988              -0.000539487              -0.000521745               0.999999988              -0.000513209              -0.000503550               0.999999988              -0.000481888              -0.000479249               0.999999988              -0.000446079              -0.000448691               0.999999988              -0.000406431              -0.000412412               0.999999988              -0.000364004              -0.000371588               0.999999988              -0.000319872              -0.000327682               0.999999988              -0.000275244              -0.000282683               0.999999988              -0.000674389              -0.000803511               0.999999988              -0.000582174              -0.000673113               0.999999988              -0.000543522              -0.000634324               0.999999988              -0.000526870              -0.000627265               0.999999988              -0.000517619              -0.000631519               0.999999988              -0.000508920              -0.000638224               0.999999988              -0.000496879              -0.000642390               0.999999988              -0.000479408              -0.000641396               0.999999988              -0.000455590              -0.000634348               0.999999988              -0.000425100              -0.000620501               0.999999988              -0.000388330              -0.000599783               0.999999988              -0.000345825              -0.000572989               0.999999988              -0.000298323              -0.000540518               0.999999988              -0.000246983              -0.000503538               0.999999988              -0.000193274              -0.000463846               0.999999988              -0.000138633              -0.000423167               0.999999988              -0.000084296              -0.000382947               0.999999988              -0.000613022              -0.000896274               0.999999988              -0.000499070              -0.000768221               0.999999988              -0.000461001              -0.000731365               0.999999988              -0.000446492              -0.000726159               0.999999988              -0.000437984              -0.000731990               0.999999988              -0.000427609              -0.000739559               0.999999988              -0.000411230              -0.000743580               0.999999988              -0.000386765              -0.000741723               0.999999988              -0.000354022              -0.000732938               0.999999988              -0.000313149              -0.000716903               0.999999988              -0.000264778              -0.000694189               0.999999988              -0.000209771              -0.000665728               0.999999988              -0.000149413              -0.000632848               0.999999988              -0.000085664              -0.000597394               0.999999988              -0.000020313              -0.000561388               0.999999988               0.000045091              -0.000526230               0.999999988               0.000109954              -0.000492368               0.999999988              -0.000549333              -0.000984249               0.999999988              -0.000429204              -0.000875581               0.999999988              -0.000389052              -0.000835595               0.999999988              -0.000374465              -0.000826428               0.999999988              -0.000367063              -0.000830136               0.999999988              -0.000359143              -0.000838101               0.999999988              -0.000346252              -0.000845310               0.999999988              -0.000326300              -0.000848976               0.999999988              -0.000298752              -0.000847630               0.999999988              -0.000263504              -0.000840796               0.999999988              -0.000220944              -0.000828455               0.999999988              -0.000171268              -0.000811083               0.999999988              -0.000115164              -0.000789551               0.999999988              -0.000053795              -0.000765091               0.999999988               0.000011056              -0.000739228               0.999999988               0.000077657              -0.000713425               0.999999988               0.000144611              -0.000688932               0.999999988              -0.000479969              -0.001064482               0.999999988              -0.000361768              -0.000979661               0.999999988              -0.000319726              -0.000942732               0.999999988              -0.000304203              -0.000931757               0.999999988              -0.000297088              -0.000934246               0.999999988              -0.000290758              -0.000942770               0.999999988              -0.000280752              -0.000952711               0.999999988              -0.000264927              -0.000961244               0.999999988              -0.000242334              -0.000966650               0.999999988              -0.000212714              -0.000968102               0.999999988              -0.000175947              -0.000965316               0.999999988              -0.000132088              -0.000958487               0.999999988              -0.000081300              -0.000947787               0.999999988              -0.000024020              -0.000934051               0.999999988               0.000038639              -0.000918339               0.999999988               0.000105227              -0.000901865               0.999999988               0.000173942              -0.000885813               0.999999988              -0.000406448              -0.001134834               0.999999988              -0.000296879              -0.001077095               0.999999988              -0.000254696              -0.001047700               0.999999988              -0.000238044              -0.001038076               0.999999988              -0.000230618              -0.001040744               0.999999988              -0.000225030              -0.001050375               0.999999988              -0.000217389              -0.001062997               0.999999988              -0.000205052              -0.001075920               0.999999988              -0.000187027              -0.001087428               0.999999988              -0.000162706              -0.001096496               0.999999988              -0.000131958              -0.001102620               0.999999988              -0.000094524              -0.001105616               0.999999988              -0.000049828              -0.001105576               0.999999988               0.000001979              -0.001102569               0.999999988               0.000060558              -0.001097123               0.999999988               0.000125322              -0.001090247               0.999999988               0.000194914              -0.001082979               0.999999988              -0.000329448              -0.001194145               0.999999988              -0.000234489              -0.001163863               0.999999988              -0.000194799              -0.001145171               0.999999988              -0.000177902              -0.001139606               0.999999988              -0.000170054              -0.001144194               0.999999988              -0.000164836              -0.001155622               0.999999988              -0.000158781              -0.001171146               0.999999988              -0.000149417              -0.001188286               0.999999988              -0.000135441              -0.001205374               0.999999988              -0.000116258              -0.001221387               0.999999988              -0.000091546              -0.001235706               0.999999988              -0.000060883              -0.001247844               0.999999988              -0.000023565              -0.001257706               0.999999988               0.000021021              -0.001265141               0.999999988               0.000073307              -0.001270316               0.999999988               0.000133639              -0.001273571               0.999999988               0.000201440              -0.001275677               0.999999988              -0.000249648              -0.001241454               0.999999988              -0.000174215              -0.001235993               0.999999988              -0.000140258              -0.001229232               0.999999988              -0.000124730              -0.001229580               0.999999988              -0.000117180              -0.001237507               0.999999988              -0.000112338              -0.001251544               0.999999988              -0.000107470              -0.001269944               0.999999988              -0.000100577              -0.001290915               0.999999988              -0.000090446              -0.001312981               0.999999988              -0.000076205              -0.001335166               0.999999988              -0.000057504              -0.001356764               0.999999988              -0.000034017              -0.001377221               0.999999988              -0.000005055              -0.001396071               0.999999988               0.000030623              -0.001413201               0.999999988               0.000073964              -0.001428591               0.999999988               0.000125891              -0.001442032               0.999999988               0.000187161              -0.001453716               0.999999988              -0.000167694              -0.001275982               0.999999988              -0.000115379              -0.001290303               0.999999988              -0.000090495              -0.001294370               0.999999988              -0.000078455              -0.001300750               0.999999988              -0.000072344              -0.001312440               0.999999988              -0.000068445              -0.001329280               0.999999988              -0.000064887              -0.001350358               0.999999988              -0.000060235              -0.001374615               0.999999988              -0.000053497              -0.001400881               0.999999988              -0.000043973              -0.001428242               0.999999988              -0.000031513              -0.001455985               0.999999988              -0.000015707              -0.001483409               0.999999988               0.000004344              -0.001510104               0.999999988               0.000029568              -0.001535789               0.999999988               0.000060971              -0.001560075               0.999999988               0.000099739              -0.001582653               0.999999988               0.000147692              -0.001603224               0.999999988              -0.000084231              -0.001297017               0.999999988              -0.000057456              -0.001324100               0.999999988              -0.000044310              -0.001335828               0.999999988              -0.000037664              -0.001346818               0.999999988              -0.000034164              -0.001361400               0.999999988              -0.000031966              -0.001380381               0.999999988              -0.000030126              -0.001403499               0.999999988              -0.000027751              -0.001430019               0.999999988              -0.000024252              -0.001459103               0.999999988              -0.000019403              -0.001489783               0.999999988              -0.000013284              -0.001521404               0.999999988              -0.000005384              -0.001553491               0.999999988               0.000004910              -0.001585646               0.999999988               0.000017950              -0.001617478               0.999999988               0.000034484              -0.001648378               0.999999988               0.000055464              -0.001677800               0.999999988               0.000082182              -0.001705014               0.999999988               0.000000000              -0.001304060               0.999999988               0.000000000              -0.001335542               0.999999988               0.000000000              -0.001350057               0.999999988              -0.000000000              -0.001362747               0.999999988              -0.000000000              -0.001378402               0.999999988               0.000000000              -0.001398253               0.999999988              -0.000000000              -0.001422238               0.999999988               0.000000000              -0.001449669               0.999999988               0.000000000              -0.001479750               0.999999988               0.000000000              -0.001511516               0.999999988               0.000000000              -0.001544475               0.999999988              -0.000000000              -0.001578295               0.999999988               0.000000000              -0.001612349               0.999999988              -0.000000000              -0.001646278               0.999999988              -0.000000000              -0.001679653               0.999999988               0.000000000              -0.001711713               0.999999988               0.000000000              -0.001741458               0.999999988               0.000899977               0.000000000               0.999999988               0.000946715              -0.000000000               0.999999988               0.000965784               0.000000000               0.999999988               0.000975647               0.000000000               0.999999988               0.000983215              -0.000000000               0.999999988               0.000990894               0.000000000               0.999999988               0.000999420               0.000000000               0.999999988               0.001008872              -0.000000000               0.999999988               0.001019115              -0.000000000               0.999999988               0.001029968               0.000000000               0.999999988               0.001041080               0.000000000               0.999999988               0.001051984               0.000000000               0.999999988               0.001062161               0.000000000               0.999999988               0.001071142              -0.000000000               0.999999988               0.001078471              -0.000000000               0.999999988               0.001083607               0.000000000               0.999999988               0.001085495               0.000000000               0.999999988               0.000895010              -0.000123176               0.999999988               0.000937638              -0.000096967               0.999999988               0.000954024              -0.000084614               0.999999988               0.000962156              -0.000079160               0.999999988               0.000968508              -0.000077190               0.999999988               0.000975222              -0.000076708               0.999999988               0.000982903              -0.000076646               0.999999988               0.000991455              -0.000076483               0.999999988               0.001000611              -0.000075678               0.999999988               0.001010159              -0.000073874               0.999999988               0.001019713              -0.000070707               0.999999988               0.001028814              -0.000065604               0.999999988               0.001036953              -0.000058437               0.999999988               0.001043697              -0.000048935               0.999999988               0.001048562              -0.000036590               0.999999988               0.001050991              -0.000020266               0.999999988               0.001050277               0.000001494               0.999999988               0.000880253              -0.000245342               0.999999988               0.000910882              -0.000193696               0.999999988               0.000919719              -0.000170308               0.999999988               0.000923133              -0.000160459               0.999999988               0.000926246              -0.000157365               0.999999988               0.000930361              -0.000156949               0.999999988               0.000935634              -0.000157152               0.999999988               0.000941632              -0.000156922               0.999999988               0.000947883              -0.000155240               0.999999988               0.000953886              -0.000151592               0.999999988               0.000959170              -0.000145180               0.999999988               0.000963396              -0.000135232               0.999999988               0.000966054              -0.000121547               0.999999988               0.000966724              -0.000103595               0.999999988               0.000965053              -0.000080319               0.999999988               0.000960699              -0.000050528               0.999999988               0.000953492              -0.000012491               0.999999988               0.000855885              -0.000365436               0.999999988               0.000867555              -0.000290051               0.999999988               0.000865511              -0.000258013               0.999999988               0.000862635              -0.000245668               0.999999988               0.000861573              -0.000242569               0.999999988               0.000862336              -0.000242945               0.999999988               0.000864281              -0.000243883               0.999999988               0.000866575              -0.000243778               0.999999988               0.000868425              -0.000241436               0.999999988               0.000869274              -0.000235781               0.999999988               0.000868508              -0.000226313               0.999999988               0.000865696              -0.000212104               0.999999988               0.000860565              -0.000192717               0.999999988               0.000852737              -0.000167612               0.999999988               0.000842031              -0.000136098               0.999999988               0.000828561              -0.000097317               0.999999988               0.000812678              -0.000050433               0.999999988               0.000822341              -0.000482351               0.999999988               0.000809909              -0.000386080               0.999999988               0.000795805              -0.000348344               0.999999988               0.000786525              -0.000335554               0.999999988               0.000781545              -0.000333620               0.999999988               0.000779130              -0.000335429               0.999999988               0.000777584              -0.000337377               0.999999988               0.000775695              -0.000337499               0.999999988               0.000772259              -0.000334318               0.999999988               0.000766664              -0.000326799               0.999999988               0.000758361              -0.000314353               0.999999988               0.000747053              -0.000296284               0.999999988               0.000732439              -0.000272239               0.999999988               0.000714490              -0.000241913               0.999999988               0.000693442              -0.000205090               0.999999988               0.000669830              -0.000161699               0.999999988               0.000644473              -0.000112111               0.999999988               0.000780395              -0.000595003               0.999999988               0.000740878              -0.000481928               0.999999988               0.000715520              -0.000441540               0.999999988               0.000701245              -0.000429934               0.999999988               0.000693428              -0.000430050               0.999999988               0.000688341              -0.000433670               0.999999988               0.000683498              -0.000436621               0.999999988               0.000676924              -0.000436714               0.999999988               0.000667453              -0.000432486               0.999999988               0.000654583              -0.000422971               0.999999988               0.000637769              -0.000407586               0.999999988               0.000616811              -0.000386252               0.999999988               0.000591852              -0.000358585               0.999999988               0.000563250              -0.000324561               0.999999988               0.000531671              -0.000284742               0.999999988               0.000497851              -0.000239982               0.999999988               0.000462848              -0.000191661               0.999999988               0.000730822              -0.000702398               0.999999988               0.000663778              -0.000577635               0.999999988               0.000629837              -0.000537183               0.999999988               0.000613009              -0.000527762               0.999999988               0.000603827              -0.000530100               0.999999988               0.000596754              -0.000535416               0.999999988               0.000588397              -0.000539252               0.999999988               0.000576696              -0.000538946               0.999999988               0.000560642              -0.000533407               0.999999988               0.000539487              -0.000521745               0.999999988               0.000513209              -0.000503550               0.999999988               0.000481888              -0.000479249               0.999999988               0.000446079              -0.000448691               0.999999988               0.000406431              -0.000412412               0.999999988               0.000364004              -0.000371588               0.999999988               0.000319872              -0.000327682               0.999999988               0.000275244              -0.000282683               0.999999988               0.000674389              -0.000803511               0.999999988               0.000582174              -0.000673113               0.999999988               0.000543522              -0.000634324               0.999999988               0.000526870              -0.000627265               0.999999988               0.000517619              -0.000631519               0.999999988               0.000508920              -0.000638224               0.999999988               0.000496879              -0.000642390               0.999999988               0.000479408              -0.000641396               0.999999988               0.000455590              -0.000634348               0.999999988               0.000425100              -0.000620501               0.999999988               0.000388330              -0.000599783               0.999999988               0.000345825              -0.000572989               0.999999988               0.000298323              -0.000540518               0.999999988               0.000246983              -0.000503538               0.999999988               0.000193274              -0.000463846               0.999999988               0.000138633              -0.000423167               0.999999988               0.000084296              -0.000382947               0.999999988               0.000613022              -0.000896274               0.999999988               0.000499070              -0.000768221               0.999999988               0.000461001              -0.000731365               0.999999988               0.000446492              -0.000726159               0.999999988               0.000437984              -0.000731990               0.999999988               0.000427609              -0.000739559               0.999999988               0.000411230              -0.000743580               0.999999988               0.000386765              -0.000741723               0.999999988               0.000354022              -0.000732938               0.999999988               0.000313149              -0.000716903               0.999999988               0.000264778              -0.000694189               0.999999988               0.000209771              -0.000665728               0.999999988               0.000149413              -0.000632848               0.999999988               0.000085664              -0.000597394               0.999999988               0.000020313              -0.000561388               0.999999988              -0.000045091              -0.000526230               0.999999988              -0.000109954              -0.000492368               0.999999988               0.000549333              -0.000984249               0.999999988               0.000429204              -0.000875581               0.999999988               0.000389052              -0.000835595               0.999999988               0.000374465              -0.000826428               0.999999988               0.000367063              -0.000830136               0.999999988               0.000359143              -0.000838101               0.999999988               0.000346252              -0.000845310               0.999999988               0.000326300              -0.000848976               0.999999988               0.000298752              -0.000847630               0.999999988               0.000263504              -0.000840796               0.999999988               0.000220944              -0.000828455               0.999999988               0.000171268              -0.000811083               0.999999988               0.000115164              -0.000789551               0.999999988               0.000053795              -0.000765091               0.999999988              -0.000011056              -0.000739228               0.999999988              -0.000077657              -0.000713425               0.999999988              -0.000144611              -0.000688932               0.999999988               0.000479969              -0.001064482               0.999999988               0.000361768              -0.000979661               0.999999988               0.000319726              -0.000942732               0.999999988               0.000304203              -0.000931757               0.999999988               0.000297088              -0.000934246               0.999999988               0.000290758              -0.000942770               0.999999988               0.000280752              -0.000952711               0.999999988               0.000264927              -0.000961244               0.999999988               0.000242334              -0.000966650               0.999999988               0.000212714              -0.000968102               0.999999988               0.000175947              -0.000965316               0.999999988               0.000132088              -0.000958487               0.999999988               0.000081300              -0.000947787               0.999999988               0.000024020              -0.000934051               0.999999988              -0.000038639              -0.000918339               0.999999988              -0.000105227              -0.000901865               0.999999988              -0.000173942              -0.000885813               0.999999988               0.000406448              -0.001134834               0.999999988               0.000296879              -0.001077095               0.999999988               0.000254696              -0.001047700               0.999999988               0.000238044              -0.001038076               0.999999988               0.000230618              -0.001040744               0.999999988               0.000225030              -0.001050375               0.999999988               0.000217389              -0.001062997               0.999999988               0.000205052              -0.001075920               0.999999988               0.000187027              -0.001087428               0.999999988               0.000162706              -0.001096496               0.999999988               0.000131958              -0.001102620               0.999999988               0.000094524              -0.001105616               0.999999988               0.000049828              -0.001105576               0.999999988              -0.000001979              -0.001102569               0.999999988              -0.000060558              -0.001097123               0.999999988              -0.000125322              -0.001090247               0.999999988              -0.000194914              -0.001082979               0.999999988               0.000329448              -0.001194145               0.999999988               0.000234489              -0.001163863               0.999999988               0.000194799              -0.001145171               0.999999988               0.000177902              -0.001139606               0.999999988               0.000170054              -0.001144194               0.999999988               0.000164836              -0.001155622               0.999999988               0.000158781              -0.001171146               0.999999988               0.000149417              -0.001188286               0.999999988               0.000135441              -0.001205374               0.999999988               0.000116258              -0.001221387               0.999999988               0.000091546              -0.001235706               0.999999988               0.000060883              -0.001247844               0.999999988               0.000023565              -0.001257706               0.999999988              -0.000021021              -0.001265141               0.999999988              -0.000073307              -0.001270316               0.999999988              -0.000133639              -0.001273571               0.999999988              -0.000201440              -0.001275677               0.999999988               0.000249648              -0.001241454               0.999999988               0.000174215              -0.001235993               0.999999988               0.000140258              -0.001229232               0.999999988               0.000124730              -0.001229580               0.999999988               0.000117180              -0.001237507               0.999999988               0.000112338              -0.001251544               0.999999988               0.000107470              -0.001269944               0.999999988               0.000100577              -0.001290915               0.999999988               0.000090446              -0.001312981               0.999999988               0.000076205              -0.001335166               0.999999988               0.000057504              -0.001356764               0.999999988               0.000034017              -0.001377221               0.999999988               0.000005055              -0.001396071               0.999999988              -0.000030623              -0.001413201               0.999999988              -0.000073964              -0.001428591               0.999999988              -0.000125891              -0.001442032               0.999999988              -0.000187161              -0.001453716               0.999999988               0.000167694              -0.001275982               0.999999988               0.000115379              -0.001290303               0.999999988               0.000090495              -0.001294370               0.999999988               0.000078455              -0.001300750               0.999999988               0.000072344              -0.001312440               0.999999988               0.000068445              -0.001329280               0.999999988               0.000064887              -0.001350358               0.999999988               0.000060235              -0.001374615               0.999999988               0.000053497              -0.001400881               0.999999988               0.000043973              -0.001428242               0.999999988               0.000031513              -0.001455985               0.999999988               0.000015707              -0.001483409               0.999999988              -0.000004344              -0.001510104               0.999999988              -0.000029568              -0.001535789               0.999999988              -0.000060971              -0.001560075               0.999999988              -0.000099739              -0.001582653               0.999999988              -0.000147692              -0.001603224               0.999999988               0.000084231              -0.001297017               0.999999988               0.000057456              -0.001324100               0.999999988               0.000044310              -0.001335828               0.999999988               0.000037664              -0.001346818               0.999999988               0.000034164              -0.001361400               0.999999988               0.000031966              -0.001380381               0.999999988               0.000030126              -0.001403499               0.999999988               0.000027751              -0.001430019               0.999999988               0.000024252              -0.001459103               0.999999988               0.000019403              -0.001489783               0.999999988               0.000013284              -0.001521404               0.999999988               0.000005384              -0.001553491               0.999999988              -0.000004910              -0.001585646               0.999999988              -0.000017950              -0.001617478               0.999999988              -0.000034484              -0.001648378               0.999999988              -0.000055464              -0.001677800               0.999999988              -0.000082182              -0.001705014               0.999999988               0.000000000              -0.001304060               0.999999988               0.000000000              -0.001335542               0.999999988               0.000000000              -0.001350057               0.999999988              -0.000000000              -0.001362747               0.999999988              -0.000000000              -0.001378402               0.999999988               0.000000000              -0.001398253               0.999999988              -0.000000000              -0.001422238               0.999999988               0.000000000              -0.001449669               0.999999988               0.000000000              -0.001479750               0.999999988               0.000000000              -0.001511516               0.999999988               0.000000000              -0.001544475               0.999999988              -0.000000000              -0.001578295               0.999999988               0.000000000              -0.001612349               0.999999988              -0.000000000              -0.001646278               0.999999988              -0.000000000              -0.001679653               0.999999988               0.000000000              -0.001711713               0.999999988               0.000000000              -0.001741458               0.999999988               0.000899977               0.000000000               0.999999988               0.000946715              -0.000000000               0.999999988               0.000965784               0.000000000               0.999999988               0.000975647               0.000000000               0.999999988               0.000983215              -0.000000000               0.999999988               0.000990894               0.000000000               0.999999988               0.000999420               0.000000000               0.999999988               0.001008872              -0.000000000               0.999999988               0.001019115              -0.000000000               0.999999988               0.001029968               0.000000000               0.999999988               0.001041080               0.000000000               0.999999988               0.001051984               0.000000000               0.999999988               0.001062161               0.000000000               0.999999988               0.001071142              -0.000000000               0.999999988               0.001078471              -0.000000000               0.999999988               0.001083607               0.000000000               0.999999988               0.001085495               0.000000000               0.999999988               0.000895010               0.000123176               0.999999988               0.000937638               0.000096967               0.999999988               0.000954024               0.000084614               0.999999988               0.000962156               0.000079160               0.999999988               0.000968508               0.000077190               0.999999988               0.000975222               0.000076708               0.999999988               0.000982903               0.000076646               0.999999988               0.000991455               0.000076483               0.999999988               0.001000611               0.000075678               0.999999988               0.001010159               0.000073874               0.999999988               0.001019713               0.000070707               0.999999988               0.001028814               0.000065604               0.999999988               0.001036953               0.000058437               0.999999988               0.001043697               0.000048935               0.999999988               0.001048562               0.000036590               0.999999988               0.001050991               0.000020266               0.999999988               0.001050277              -0.000001494               0.999999988               0.000880253               0.000245342               0.999999988               0.000910882               0.000193696               0.999999988               0.000919719               0.000170308               0.999999988               0.000923133               0.000160459               0.999999988               0.000926246               0.000157365               0.999999988               0.000930361               0.000156949               0.999999988               0.000935634               0.000157152               0.999999988               0.000941632               0.000156922               0.999999988               0.000947883               0.000155240               0.999999988               0.000953886               0.000151592               0.999999988               0.000959170               0.000145180               0.999999988               0.000963396               0.000135232               0.999999988               0.000966054               0.000121547               0.999999988               0.000966724               0.000103595               0.999999988               0.000965053               0.000080319               0.999999988               0.000960699               0.000050528               0.999999988               0.000953492               0.000012491               0.999999988               0.000855885               0.000365436               0.999999988               0.000867555               0.000290051               0.999999988               0.000865511               0.000258013               0.999999988               0.000862635               0.000245668               0.999999988               0.000861573               0.000242569               0.999999988               0.000862336               0.000242945               0.999999988               0.000864281               0.000243883               0.999999988               0.000866575               0.000243778               0.999999988               0.000868425               0.000241436               0.999999988               0.000869274               0.000235781               0.999999988               0.000868508               0.000226313               0.999999988               0.000865696               0.000212104               0.999999988               0.000860565               0.000192717               0.999999988               0.000852737               0.000167612               0.999999988               0.000842031               0.000136098               0.999999988               0.000828561               0.000097317               0.999999988               0.000812678               0.000050433               0.999999988               0.000822341               0.000482351               0.999999988               0.000809909               0.000386080               0.999999988               0.000795805               0.000348344               0.999999988               0.000786525               0.000335554               0.999999988               0.000781545               0.000333620               0.999999988               0.000779130               0.000335429               0.999999988               0.000777584               0.000337377               0.999999988               0.000775695               0.000337499               0.999999988               0.000772259               0.000334318               0.999999988               0.000766664               0.000326799               0.999999988               0.000758361               0.000314353               0.999999988               0.000747053               0.000296284               0.999999988               0.000732439               0.000272239               0.999999988               0.000714490               0.000241913               0.999999988               0.000693442               0.000205090               0.999999988               0.000669830               0.000161699               0.999999988               0.000644473               0.000112111               0.999999988               0.000780395               0.000595003               0.999999988               0.000740878               0.000481928               0.999999988               0.000715520               0.000441540               0.999999988               0.000701245               0.000429934               0.999999988               0.000693428               0.000430050               0.999999988               0.000688341               0.000433670               0.999999988               0.000683498               0.000436621               0.999999988               0.000676924               0.000436714               0.999999988               0.000667453               0.000432486               0.999999988               0.000654583               0.000422971               0.999999988               0.000637769               0.000407586               0.999999988               0.000616811               0.000386252               0.999999988               0.000591852               0.000358585               0.999999988               0.000563250               0.000324561               0.999999988               0.000531671               0.000284742               0.999999988               0.000497851               0.000239982               0.999999988               0.000462848               0.000191661               0.999999988               0.000730822               0.000702398               0.999999988               0.000663778               0.000577635               0.999999988               0.000629837               0.000537183               0.999999988               0.000613009               0.000527762               0.999999988               0.000603827               0.000530100               0.999999988               0.000596754               0.000535416               0.999999988               0.000588397               0.000539252               0.999999988               0.000576696               0.000538946               0.999999988               0.000560642               0.000533407               0.999999988               0.000539487               0.000521745               0.999999988               0.000513209               0.000503550               0.999999988               0.000481888               0.000479249               0.999999988               0.000446079               0.000448691               0.999999988               0.000406431               0.000412412               0.999999988               0.000364004               0.000371588               0.999999988               0.000319872               0.000327682               0.999999988               0.000275244               0.000282683               0.999999988               0.000674389               0.000803511               0.999999988               0.000582174               0.000673113               0.999999988               0.000543522               0.000634324               0.999999988               0.000526870               0.000627265               0.999999988               0.000517619               0.000631519               0.999999988               0.000508920               0.000638224               0.999999988               0.000496879               0.000642390               0.999999988               0.000479408               0.000641396               0.999999988               0.000455590               0.000634348               0.999999988               0.000425100               0.000620501               0.999999988               0.000388330               0.000599783               0.999999988               0.000345825               0.000572989               0.999999988               0.000298323               0.000540518               0.999999988               0.000246983               0.000503538               0.999999988               0.000193274               0.000463846               0.999999988               0.000138633               0.000423167               0.999999988               0.000084296               0.000382947               0.999999988               0.000613022               0.000896274               0.999999988               0.000499070               0.000768221               0.999999988               0.000461001               0.000731365               0.999999988               0.000446492               0.000726159               0.999999988               0.000437984               0.000731990               0.999999988               0.000427609               0.000739559               0.999999988               0.000411230               0.000743580               0.999999988               0.000386765               0.000741723               0.999999988               0.000354022               0.000732938               0.999999988               0.000313149               0.000716903               0.999999988               0.000264778               0.000694189               0.999999988               0.000209771               0.000665728               0.999999988               0.000149413               0.000632848               0.999999988               0.000085664               0.000597394               0.999999988               0.000020313               0.000561388               0.999999988              -0.000045091               0.000526230               0.999999988              -0.000109954               0.000492368               0.999999988               0.000549333               0.000984249               0.999999988               0.000429204               0.000875581               0.999999988               0.000389052               0.000835595               0.999999988               0.000374465               0.000826428               0.999999988               0.000367063               0.000830136               0.999999988               0.000359143               0.000838101               0.999999988               0.000346252               0.000845310               0.999999988               0.000326300               0.000848976               0.999999988               0.000298752               0.000847630               0.999999988               0.000263504               0.000840796               0.999999988               0.000220944               0.000828455               0.999999988               0.000171268               0.000811083               0.999999988               0.000115164               0.000789551               0.999999988               0.000053795               0.000765091               0.999999988              -0.000011056               0.000739228               0.999999988              -0.000077657               0.000713425               0.999999988              -0.000144611               0.000688932               0.999999988               0.000479969               0.001064482               0.999999988               0.000361768               0.000979661               0.999999988               0.000319726               0.000942732               0.999999988               0.000304203               0.000931757               0.999999988               0.000297088               0.000934246               0.999999988               0.000290758               0.000942770               0.999999988               0.000280752               0.000952711               0.999999988               0.000264927               0.000961244               0.999999988               0.000242334               0.000966650               0.999999988               0.000212714               0.000968102               0.999999988               0.000175947               0.000965316               0.999999988               0.000132088               0.000958487               0.999999988               0.000081300               0.000947787               0.999999988               0.000024020               0.000934051               0.999999988              -0.000038639               0.000918339               0.999999988              -0.000105227               0.000901865               0.999999988              -0.000173942               0.000885813               0.999999988               0.000406448               0.001134834               0.999999988               0.000296879               0.001077095               0.999999988               0.000254696               0.001047700               0.999999988               0.000238044               0.001038076               0.999999988               0.000230618               0.001040744               0.999999988               0.000225030               0.001050375               0.999999988               0.000217389               0.001062997               0.999999988               0.000205052               0.001075920               0.999999988               0.000187027               0.001087428               0.999999988               0.000162706               0.001096496               0.999999988               0.000131958               0.001102620               0.999999988               0.000094524               0.001105616               0.999999988               0.000049828               0.001105576               0.999999988              -0.000001979               0.001102569               0.999999988              -0.000060558               0.001097123               0.999999988              -0.000125322               0.001090247               0.999999988              -0.000194914               0.001082979               0.999999988               0.000329448               0.001194145               0.999999988               0.000234489               0.001163863               0.999999988               0.000194799               0.001145171               0.999999988               0.000177902               0.001139606               0.999999988               0.000170054               0.001144194               0.999999988               0.000164836               0.001155622               0.999999988               0.000158781               0.001171146               0.999999988               0.000149417               0.001188286               0.999999988               0.000135441               0.001205374               0.999999988               0.000116258               0.001221387               0.999999988               0.000091546               0.001235706               0.999999988               0.000060883               0.001247844               0.999999988               0.000023565               0.001257706               0.999999988              -0.000021021               0.001265141               0.999999988              -0.000073307               0.001270316               0.999999988              -0.000133639               0.001273571               0.999999988              -0.000201440               0.001275677               0.999999988               0.000249648               0.001241454               0.999999988               0.000174215               0.001235993               0.999999988               0.000140258               0.001229232               0.999999988               0.000124730               0.001229580               0.999999988               0.000117180               0.001237507               0.999999988               0.000112338               0.001251544               0.999999988               0.000107470               0.001269944               0.999999988               0.000100577               0.001290915               0.999999988               0.000090446               0.001312981               0.999999988               0.000076205               0.001335166               0.999999988               0.000057504               0.001356764               0.999999988               0.000034017               0.001377221               0.999999988               0.000005055               0.001396071               0.999999988              -0.000030623               0.001413201               0.999999988              -0.000073964               0.001428591               0.999999988              -0.000125891               0.001442032               0.999999988              -0.000187161               0.001453716               0.999999988               0.000167694               0.001275982               0.999999988               0.000115379               0.001290303               0.999999988               0.000090495               0.001294370               0.999999988               0.000078455               0.001300750               0.999999988               0.000072344               0.001312440               0.999999988               0.000068445               0.001329280               0.999999988               0.000064887               0.001350358               0.999999988               0.000060235               0.001374615               0.999999988               0.000053497               0.001400881               0.999999988               0.000043973               0.001428242               0.999999988               0.000031513               0.001455985               0.999999988               0.000015707               0.001483409               0.999999988              -0.000004344               0.001510104               0.999999988              -0.000029568               0.001535789               0.999999988              -0.000060971               0.001560075               0.999999988              -0.000099739               0.001582653               0.999999988              -0.000147692               0.001603224               0.999999988               0.000084231               0.001297017               0.999999988               0.000057456               0.001324100               0.999999988               0.000044310               0.001335828               0.999999988               0.000037664               0.001346818               0.999999988               0.000034164               0.001361400               0.999999988               0.000031966               0.001380381               0.999999988               0.000030126               0.001403499               0.999999988               0.000027751               0.001430019               0.999999988               0.000024252               0.001459103               0.999999988               0.000019403               0.001489783               0.999999988               0.000013284               0.001521404               0.999999988               0.000005384               0.001553491               0.999999988              -0.000004910               0.001585646               0.999999988              -0.000017950               0.001617478               0.999999988              -0.000034484               0.001648378               0.999999988              -0.000055464               0.001677800               0.999999988              -0.000082182               0.001705014               0.999999988               0.000000000               0.001304060               0.999999988               0.000000000               0.001335542               0.999999988              -0.000000000               0.001350057               0.999999988               0.000000000               0.001362747               0.999999988               0.000000000               0.001378402               0.999999988               0.000000000               0.001398253               0.999999988              -0.000000000               0.001422238               0.999999988              -0.000000000               0.001449669               0.999999988              -0.000000000               0.001479750               0.999999988              -0.000000000               0.001511516               0.999999988              -0.000000000               0.001544475               0.999999988              -0.000000000               0.001578295               0.999999988              -0.000000000               0.001612349               0.999999988               0.000000000               0.001646278               0.999999988               0.000000000               0.001679653               0.999999988              -0.000000000               0.001711713               0.999999988              -0.000000000               0.001741458               0.999999988 </DataArray>
<DataArray type="Float64"                                    Name="stress"                                                      NumberOfComponents="10" format="ascii">
              0.002123347               0.022314120              -0.000000000              -0.001993005               0.008102301               0.006109296               0.000000000               0.000000000               0.000000000               0.000000000               0.002028533               0.017036001              -0.000000000              -0.001368797               0.006134876               0.004766079               0.000000000               0.000000000               0.000000000               0.000000000               0.002610347               0.012744313              -0.000000000              -0.000614158               0.004452781               0.003838623               0.000000000               0.000000000               0.000000000               0.000000000               0.002420817               0.010324634              -0.000000000              -0.000382772               0.003569101               0.003186329               0.000000000               0.000000000               0.000000000               0.000000000               0.002019185               0.008794594              -0.000000000              -0.000342129               0.003045545               0.002703416               0.000000000               0.000000000               0.000000000               0.000000000               0.001597639               0.007712934              -0.000000000              -0.000365001               0.002692619               0.002327618               0.000000000               0.000000000               0.000000000               0.000000000               0.001216007               0.006871276              -0.000000000              -0.000402906               0.002424704               0.002021798               0.000000000               0.000000000               0.000000000               0.000000000               0.000888913               0.006166814               0.000000000              -0.000437508               0.002201420               0.001763912               0.000000000               0.000000000               0.000000000               0.000000000               0.000605215               0.005530906               0.000000000              -0.000464406               0.001998419               0.001534012               0.000000000               0.000000000               0.000000000               0.000000000               0.000363180               0.004925483              -0.000000000              -0.000479492               0.001801642               0.001322150               0.000000000               0.000000000               0.000000000               0.000000000               0.000170257               0.004325363              -0.000000000              -0.000476823               0.001600714               0.001123891               0.000000000               0.000000000               0.000000000               0.000000000               0.000027462               0.003706811              -0.000000000              -0.000453052               0.001386609               0.000933556               0.000000000               0.000000000               0.000000000               0.000000000              -0.000067655               0.003063598              -0.000000000              -0.000408319               0.001157296               0.000748976               0.000000000               0.000000000               0.000000000               0.000000000              -0.000120774               0.002386531               0.000000000              -0.000343606               0.000910038               0.000566432               0.000000000               0.000000000               0.000000000               0.000000000              -0.000133257               0.001655878               0.000000000              -0.000256956               0.000637606               0.000380650               0.000000000               0.000000000               0.000000000               0.000000000              -0.000087952               0.000839204               0.000000000              -0.000137882               0.000325693               0.000187810               0.000000000               0.000000000               0.000000000               0.000000000              -0.000115011               0.000211334               0.000000000              -0.000069546               0.000093626               0.000024079               0.000000000               0.000000000               0.000000000               0.000000000               0.002182055               0.021835053              -0.001465546              -0.001911107               0.007915314               0.006004207               0.000000000               0.000000000               0.000000000               0.000000000               0.001963524               0.016735741              -0.000637866              -0.001355643               0.006030405               0.004674763               0.000000000               0.000000000               0.000000000               0.000000000               0.002411058               0.012632708               0.000179368              -0.000674940               0.004435841               0.003760900               0.000000000               0.000000000               0.000000000               0.000000000               0.002169732               0.010309686               0.000514692              -0.000475060               0.003594881               0.003119821               0.000000000               0.000000000               0.000000000               0.000000000               0.001760388               0.008831288               0.000639425              -0.000443764               0.003091655               0.002647890               0.000000000               0.000000000               0.000000000               0.000000000               0.001348531               0.007773779               0.000668950              -0.000466022               0.002746574               0.002280552               0.000000000               0.000000000               0.000000000               0.000000000               0.000985899               0.006941591               0.000660062              -0.000497986               0.002479836               0.001981850               0.000000000               0.000000000               0.000000000               0.000000000               0.000684825               0.006238183               0.000634699              -0.000522962               0.002253694               0.001730732               0.000000000               0.000000000               0.000000000               0.000000000               0.000430681               0.005599753               0.000602128              -0.000538463               0.002046053               0.001507591               0.000000000               0.000000000               0.000000000               0.000000000               0.000219079               0.004993124               0.000567454              -0.000541985               0.001845019               0.001303035               0.000000000               0.000000000               0.000000000               0.000000000               0.000052941               0.004393093               0.000526116              -0.000529283               0.001640777               0.001111495               0.000000000               0.000000000               0.000000000               0.000000000              -0.000064971               0.003783423               0.000481568              -0.000497291               0.001426892               0.000929601               0.000000000               0.000000000               0.000000000               0.000000000              -0.000135797               0.003159433               0.000436866              -0.000445852               0.001201751               0.000755899               0.000000000               0.000000000               0.000000000               0.000000000              -0.000165278               0.002510347               0.000381998              -0.000375772               0.000962031               0.000586259               0.000000000               0.000000000               0.000000000               0.000000000              -0.000153452               0.001819169               0.000300896              -0.000284940               0.000701363               0.000416423               0.000000000               0.000000000               0.000000000               0.000000000              -0.000091663               0.001069598               0.000174993              -0.000168073               0.000412553               0.000244480               0.000000000               0.000000000               0.000000000               0.000000000              -0.000107109               0.000509377               0.000110443              -0.000103838               0.000204403               0.000100565               0.000000000               0.000000000               0.000000000               0.000000000               0.002311027               0.020459705              -0.002701111              -0.001690825               0.007383441               0.005692617               0.000000000               0.000000000               0.000000000               0.000000000               0.001751220               0.015880925              -0.001164208              -0.001328405               0.005736390               0.004407985               0.000000000               0.000000000               0.000000000               0.000000000               0.001831763               0.012317043               0.000333426              -0.000852717               0.004389879               0.003537162               0.000000000               0.000000000               0.000000000               0.000000000               0.001462953               0.010263902               0.000922383              -0.000734379               0.003666059               0.002931680               0.000000000               0.000000000               0.000000000               0.000000000               0.001044072               0.008916307               0.001130433              -0.000723010               0.003213076               0.002490066               0.000000000               0.000000000               0.000000000               0.000000000               0.000672848               0.007919924               0.001170604              -0.000737671               0.002885839               0.002148167               0.000000000               0.000000000               0.000000000               0.000000000               0.000372326               0.007114806               0.001146564              -0.000749727               0.002621487               0.001871760               0.000000000               0.000000000               0.000000000               0.000000000               0.000143219               0.006418885               0.001095570              -0.000748652               0.002389157               0.001640505               0.000000000               0.000000000               0.000000000               0.000000000              -0.000030320               0.005782851               0.001032967              -0.000734225               0.002172339               0.001438114               0.000000000               0.000000000               0.000000000               0.000000000              -0.000157388               0.005176171               0.000965873              -0.000706041               0.001960720               0.001254679               0.000000000               0.000000000               0.000000000               0.000000000              -0.000245272               0.004586010               0.000888199              -0.000665227               0.001750397               0.001085170               0.000000000               0.000000000               0.000000000               0.000000000              -0.000293810               0.004004224               0.000806162              -0.000610705               0.001538296               0.000927591               0.000000000               0.000000000               0.000000000               0.000000000              -0.000298901               0.003425612               0.000721187              -0.000540288               0.001321955               0.000781667               0.000000000               0.000000000               0.000000000               0.000000000              -0.000267448               0.002843342               0.000615564              -0.000455710               0.001099674               0.000643965               0.000000000               0.000000000               0.000000000               0.000000000              -0.000202955               0.002256506               0.000470951              -0.000358171               0.000871551               0.000513381               0.000000000               0.000000000               0.000000000               0.000000000              -0.000108033               0.001673316               0.000266150              -0.000249676               0.000640992               0.000391315               0.000000000               0.000000000               0.000000000               0.000000000              -0.000095859               0.001273164               0.000161150              -0.000195092               0.000489414               0.000294322               0.000000000               0.000000000               0.000000000               0.000000000               0.002393479               0.018364103              -0.003533158              -0.001397957               0.006587291               0.005189335               0.000000000               0.000000000               0.000000000               0.000000000               0.001358879               0.014599856              -0.001510733              -0.001315400               0.005305037               0.003989637               0.000000000               0.000000000               0.000000000               0.000000000               0.000933577               0.011843626               0.000424576              -0.001130359               0.004324622               0.003194263               0.000000000               0.000000000               0.000000000               0.000000000               0.000424695               0.010170898               0.001136402              -0.001112099               0.003760965               0.002648866               0.000000000               0.000000000               0.000000000               0.000000000               0.000028005               0.008996470               0.001366010              -0.001114054               0.003370145               0.002256090               0.000000000               0.000000000               0.000000000               0.000000000              -0.000252102               0.008080800               0.001394063              -0.001104636               0.003061785               0.001957149               0.000000000               0.000000000               0.000000000               0.000000000              -0.000438424               0.007313152               0.001348937              -0.001078551               0.002797210               0.001718659               0.000000000               0.000000000               0.000000000               0.000000000              -0.000547096               0.006633545               0.001276617              -0.001034352               0.002555943               0.001521591               0.000000000               0.000000000               0.000000000               0.000000000              -0.000603657               0.006004495               0.001191552              -0.000976931               0.002327122               0.001350191               0.000000000               0.000000000               0.000000000               0.000000000              -0.000619984               0.005405886               0.001103146              -0.000908228               0.002104686               0.001196458               0.000000000               0.000000000               0.000000000               0.000000000              -0.000598798               0.004836993               0.001007058              -0.000829172               0.001888705               0.001059534               0.000000000               0.000000000               0.000000000               0.000000000              -0.000549452               0.004294493               0.000901556              -0.000742854               0.001679101               0.000936247               0.000000000               0.000000000               0.000000000               0.000000000              -0.000470108               0.003776083               0.000788551              -0.000648300               0.001474781               0.000826482               0.000000000               0.000000000               0.000000000               0.000000000              -0.000362945               0.003285713               0.000654802              -0.000546818               0.001277499               0.000730682               0.000000000               0.000000000               0.000000000               0.000000000              -0.000241486               0.002835123               0.000485041              -0.000444947               0.001093347               0.000648400               0.000000000               0.000000000               0.000000000               0.000000000              -0.000119265               0.002443121               0.000266035              -0.000350114               0.000931070               0.000580957               0.000000000               0.000000000               0.000000000               0.000000000              -0.000081832               0.002211190               0.000154743              -0.000307085               0.000839418               0.000532333               0.000000000               0.000000000               0.000000000               0.000000000               0.002287148               0.015802698              -0.003888550              -0.001117657               0.005640065               0.004522408               0.000000000               0.000000000               0.000000000               0.000000000               0.000764997               0.013067124              -0.001669542              -0.001346514               0.004804502               0.003457988               0.000000000               0.000000000               0.000000000               0.000000000              -0.000173467               0.011272350               0.000412642              -0.001474090               0.004248776               0.002774686               0.000000000               0.000000000               0.000000000               0.000000000              -0.000764024               0.010011322               0.001116861              -0.001537921               0.003849714               0.002311793               0.000000000               0.000000000               0.000000000               0.000000000              -0.001081128               0.009021173               0.001317878              -0.001533066               0.003518049               0.001984983               0.000000000               0.000000000               0.000000000               0.000000000              -0.001218933               0.008191108               0.001323546              -0.001480985               0.003224004               0.001743019               0.000000000               0.000000000               0.000000000               0.000000000              -0.001246942               0.007461091               0.001262736              -0.001400236               0.002953751               0.001553514               0.000000000               0.000000000               0.000000000               0.000000000              -0.001202219               0.006796859               0.001182126              -0.001300437               0.002699076               0.001398639               0.000000000               0.000000000               0.000000000               0.000000000              -0.001115968               0.006177536               0.001092344              -0.001190677               0.002456050               0.001265373               0.000000000               0.000000000               0.000000000               0.000000000              -0.001004386               0.005597135               0.000999672              -0.001076284               0.002224454               0.001148170               0.000000000               0.000000000               0.000000000               0.000000000              -0.000871057               0.005054449               0.000903012              -0.000958451               0.002004283               0.001045832               0.000000000               0.000000000               0.000000000               0.000000000              -0.000719492               0.004560013               0.000796054              -0.000839809               0.001799925               0.000960116               0.000000000               0.000000000               0.000000000               0.000000000              -0.000553955               0.004113335               0.000677484              -0.000721898               0.001611731               0.000889832               0.000000000               0.000000000               0.000000000               0.000000000              -0.000387032               0.003717872               0.000541509              -0.000609870               0.001442568               0.000832698               0.000000000               0.000000000               0.000000000               0.000000000              -0.000232302               0.003390140               0.000381748              -0.000510880               0.001300328               0.000789449               0.000000000               0.000000000               0.000000000               0.000000000              -0.000106479               0.003152534               0.000198678              -0.000433995               0.001195499               0.000761504               0.000000000               0.000000000               0.000000000               0.000000000              -0.000060836               0.003044009               0.000107534              -0.000403314               0.001149097               0.000745784               0.000000000               0.000000000               0.000000000               0.000000000               0.001877571               0.013053036              -0.003780992              -0.000927541               0.004660148               0.003732607               0.000000000               0.000000000               0.000000000               0.000000000              -0.000019866               0.011452433              -0.001669287              -0.001439001               0.004297106               0.002858105               0.000000000               0.000000000               0.000000000               0.000000000              -0.001360905               0.010645886               0.000273084              -0.001841071               0.004162283               0.002321213               0.000000000               0.000000000               0.000000000               0.000000000              -0.001918531               0.009768579               0.000870806              -0.001940517               0.003902999               0.001962483               0.000000000               0.000000000               0.000000000               0.000000000              -0.002080744               0.008942120               0.001024478              -0.001898039               0.003613357               0.001715317               0.000000000               0.000000000               0.000000000               0.000000000              -0.002039040               0.008187823               0.001017185              -0.001788113               0.003325285               0.001537171               0.000000000               0.000000000               0.000000000               0.000000000              -0.001887659               0.007496916               0.000959119              -0.001644983               0.003047274               0.001402292               0.000000000               0.000000000               0.000000000               0.000000000              -0.001679517               0.006851358               0.000890616              -0.001486235               0.002779175               0.001292940               0.000000000               0.000000000               0.000000000               0.000000000              -0.001452491               0.006249879               0.000815150              -0.001325916               0.002525244               0.001199328               0.000000000               0.000000000               0.000000000               0.000000000              -0.001221375               0.005692345               0.000736036              -0.001169556               0.002287281               0.001117725               0.000000000               0.000000000               0.000000000               0.000000000              -0.000982878               0.005186027               0.000656993              -0.001016830               0.002067602               0.001050771               0.000000000               0.000000000               0.000000000               0.000000000              -0.000747740               0.004742448               0.000567922              -0.000873206               0.001871869               0.000998662               0.000000000               0.000000000               0.000000000               0.000000000              -0.000527159               0.004359572               0.000460795              -0.000742629               0.001700719               0.000958090               0.000000000               0.000000000               0.000000000               0.000000000              -0.000334977               0.004044011               0.000343590              -0.000631116               0.001558362               0.000927246               0.000000000               0.000000000               0.000000000               0.000000000              -0.000178383               0.003812536               0.000221942              -0.000543459               0.001451986               0.000908526               0.000000000               0.000000000               0.000000000               0.000000000              -0.000069007               0.003679938               0.000104865              -0.000485869               0.001388590               0.000902721               0.000000000               0.000000000               0.000000000               0.000000000              -0.000028223               0.003644363               0.000049224              -0.000466128               0.001370151               0.000904024               0.000000000               0.000000000               0.000000000               0.000000000               0.001090853               0.010352280              -0.003294882              -0.000884966               0.003745713               0.002860748               0.000000000               0.000000000               0.000000000               0.000000000              -0.000957899               0.009888774              -0.001570074              -0.001595306               0.003827993               0.002232687               0.000000000               0.000000000               0.000000000               0.000000000              -0.002501240               0.009982553              -0.000001842              -0.002185779               0.004056077               0.001870299               0.000000000               0.000000000               0.000000000               0.000000000              -0.002894844               0.009423719               0.000444473              -0.002263526               0.003895717               0.001632191               0.000000000               0.000000000               0.000000000               0.000000000              -0.002837714               0.008730540               0.000563630              -0.002155455               0.003628636               0.001473181               0.000000000               0.000000000               0.000000000               0.000000000              -0.002587615               0.008046272               0.000569046              -0.001976135               0.003340776               0.001364641               0.000000000               0.000000000               0.000000000               0.000000000              -0.002257317               0.007393634               0.000536469              -0.001770694               0.003054751               0.001284057               0.000000000               0.000000000               0.000000000               0.000000000              -0.001906760               0.006774767               0.000497006              -0.001561877               0.002778859               0.001216982               0.000000000               0.000000000               0.000000000               0.000000000              -0.001558261               0.006203701               0.000454719              -0.001359807               0.002521149               0.001161342               0.000000000               0.000000000               0.000000000               0.000000000              -0.001229678               0.005681408               0.000405852              -0.001171302               0.002284218               0.001112915               0.000000000               0.000000000               0.000000000               0.000000000              -0.000923244               0.005218231               0.000356887              -0.000998493               0.002072224               0.001073731               0.000000000               0.000000000               0.000000000               0.000000000              -0.000642451               0.004824096               0.000298264              -0.000843929               0.001889325               0.001045397               0.000000000               0.000000000               0.000000000               0.000000000              -0.000401378               0.004503508               0.000223023              -0.000713453               0.001738972               0.001025519               0.000000000               0.000000000               0.000000000               0.000000000              -0.000212640               0.004267493               0.000146257              -0.000613175               0.001626875               0.001013700               0.000000000               0.000000000               0.000000000               0.000000000              -0.000084211               0.004123742               0.000077355              -0.000547046               0.001556915               0.001009870               0.000000000               0.000000000               0.000000000               0.000000000              -0.000018859               0.004069862               0.000027188              -0.000515804               0.001528542               0.001012738               0.000000000               0.000000000               0.000000000               0.000000000               0.000001578               0.004075600               0.000005540              -0.000508857               0.001528139               0.001019282               0.000000000               0.000000000               0.000000000               0.000000000              -0.000035189               0.007859660              -0.002547569              -0.000995653               0.002951744               0.001956091               0.000000000               0.000000000               0.000000000               0.000000000              -0.001985658               0.008464680              -0.001434115              -0.001802703               0.003422433               0.001619729               0.000000000               0.000000000               0.000000000               0.000000000              -0.003476299               0.009281321              -0.000398988              -0.002463771               0.003915000               0.001451228               0.000000000               0.000000000               0.000000000               0.000000000              -0.003600069               0.008964825              -0.000085949              -0.002470623               0.003811786               0.001341163               0.000000000               0.000000000               0.000000000               0.000000000              -0.003291712               0.008393869               0.000032247              -0.002283620               0.003559135               0.001275515               0.000000000               0.000000000               0.000000000               0.000000000              -0.002839718               0.007776657               0.000076649              -0.002036971               0.003271184               0.001234212               0.000000000               0.000000000               0.000000000               0.000000000              -0.002350057               0.007163867               0.000091161              -0.001776750               0.002980182               0.001203432               0.000000000               0.000000000               0.000000000               0.000000000              -0.001880597               0.006585322               0.000099620              -0.001528385               0.002704547               0.001176162               0.000000000               0.000000000               0.000000000               0.000000000              -0.001446829               0.006051193               0.000102848              -0.001298957               0.002450030               0.001151073               0.000000000               0.000000000               0.000000000               0.000000000              -0.001056433               0.005572332               0.000093350              -0.001092701               0.002221659               0.001128958               0.000000000               0.000000000               0.000000000               0.000000000              -0.000716327               0.005164482               0.000080758              -0.000914181               0.002026204               0.001112023               0.000000000               0.000000000               0.000000000               0.000000000              -0.000425342               0.004833587               0.000062928              -0.000763700               0.001865746               0.001102047               0.000000000               0.000000000               0.000000000               0.000000000              -0.000196733               0.004592151               0.000034794              -0.000647792               0.001746633               0.001098840               0.000000000               0.000000000               0.000000000               0.000000000              -0.000041861               0.004449646               0.000008863              -0.000571902               0.001673835               0.001101932               0.000000000               0.000000000               0.000000000               0.000000000               0.000035270               0.004400685              -0.000007761              -0.000536858               0.001645833               0.001108975               0.000000000               0.000000000               0.000000000               0.000000000               0.000041293               0.004422094              -0.000012377              -0.000537275               0.001653108               0.001115833               0.000000000               0.000000000               0.000000000               0.000000000               0.000031405               0.004460901              -0.000015140              -0.000545834               0.001668897               0.001123063               0.000000000               0.000000000               0.000000000               0.000000000              -0.001351330               0.005757035              -0.001658595              -0.001226376               0.002327784               0.001101408               0.000000000               0.000000000               0.000000000               0.000000000              -0.002986413               0.007184842              -0.001297945              -0.002018006               0.003067592               0.001049586               0.000000000               0.000000000               0.000000000               0.000000000              -0.004241648               0.008556045              -0.000878596              -0.002660117               0.003738692               0.001078575               0.000000000               0.000000000               0.000000000               0.000000000              -0.004083841               0.008490777              -0.000645125              -0.002592781               0.003694491               0.001101710               0.000000000               0.000000000               0.000000000               0.000000000              -0.003565743               0.008069682              -0.000499655              -0.002345858               0.003471820               0.001125962               0.000000000               0.000000000               0.000000000               0.000000000              -0.002953405               0.007540930              -0.000400513              -0.002050138               0.003196997               0.001146859               0.000000000               0.000000000               0.000000000               0.000000000              -0.002341073               0.006991559              -0.000324296              -0.001751843               0.002914444               0.001162601               0.000000000               0.000000000               0.000000000               0.000000000              -0.001779057               0.006463690              -0.000262944              -0.001475104               0.002646243               0.001171139               0.000000000               0.000000000               0.000000000               0.000000000              -0.001283996               0.005967432              -0.000216138              -0.001227425               0.002398266               0.001170841               0.000000000               0.000000000               0.000000000               0.000000000              -0.000849168               0.005530682              -0.000181806              -0.001009771               0.002180132               0.001170362               0.000000000               0.000000000               0.000000000               0.000000000              -0.000477742               0.005170182              -0.000151556              -0.000825424               0.001998518               0.001173094               0.000000000               0.000000000               0.000000000               0.000000000              -0.000181205               0.004888656              -0.000119683              -0.000679032               0.001855880               0.001176848               0.000000000               0.000000000               0.000000000               0.000000000               0.000026525               0.004703143              -0.000090874              -0.000577945               0.001760347               0.001182402               0.000000000               0.000000000               0.000000000               0.000000000               0.000141944               0.004625247              -0.000063788              -0.000524926               0.001716709               0.001191783               0.000000000               0.000000000               0.000000000               0.000000000               0.000176934               0.004641394              -0.000038797              -0.000513823               0.001718390               0.001204567               0.000000000               0.000000000               0.000000000               0.000000000               0.000153856               0.004717978              -0.000018067              -0.000532050               0.001749993               0.001217944               0.000000000               0.000000000               0.000000000               0.000000000               0.000124534               0.004773026              -0.000008515              -0.000549926               0.001774301               0.001224375               0.000000000               0.000000000               0.000000000               0.000000000              -0.002862518               0.003816015              -0.000735435              -0.001550443               0.001788806               0.000238363               0.000000000               0.000000000               0.000000000               0.000000000              -0.003838002               0.005686059              -0.001150765              -0.002150003               0.002612002               0.000461999               0.000000000               0.000000000               0.000000000               0.000000000              -0.004715461               0.007457640              -0.001378262              -0.002700496               0.003386020               0.000685524               0.000000000               0.000000000               0.000000000               0.000000000              -0.004401782               0.007774984              -0.001228343              -0.002622535               0.003465814               0.000843279               0.000000000               0.000000000               0.000000000               0.000000000              -0.003800440               0.007623156              -0.001053728              -0.002378054               0.003333711               0.000955657               0.000000000               0.000000000               0.000000000               0.000000000              -0.003136033               0.007295525              -0.000897442              -0.002087948               0.003127800               0.001039852               0.000000000               0.000000000               0.000000000               0.000000000              -0.002485596               0.006897869              -0.000759604              -0.001794328               0.002897376               0.001103048               0.000000000               0.000000000               0.000000000               0.000000000              -0.001882920               0.006480974              -0.000647230              -0.001516213               0.002665707               0.001149494               0.000000000               0.000000000               0.000000000               0.000000000              -0.001346114               0.006073382              -0.000555935              -0.001263963               0.002445761               0.001181799               0.000000000               0.000000000               0.000000000               0.000000000              -0.000874267               0.005701592              -0.000478958              -0.001040546               0.002247360               0.001206814               0.000000000               0.000000000               0.000000000               0.000000000              -0.000470131               0.005379222              -0.000404454              -0.000848700               0.002075956               0.001227256               0.000000000               0.000000000               0.000000000               0.000000000              -0.000138392               0.005118157              -0.000324587              -0.000691665               0.001936590               0.001244925               0.000000000               0.000000000               0.000000000               0.000000000               0.000110076               0.004929544              -0.000241329              -0.000574913               0.001834803               0.001259889               0.000000000               0.000000000               0.000000000               0.000000000               0.000266342               0.004829182              -0.000161674              -0.000503768               0.001777634               0.001273866               0.000000000               0.000000000               0.000000000               0.000000000               0.000335108               0.004816488              -0.000092942              -0.000476394               0.001764278               0.001287884               0.000000000               0.000000000               0.000000000               0.000000000               0.000334909               0.004881462              -0.000038323              -0.000484591               0.001788668               0.001304077               0.000000000               0.000000000               0.000000000               0.000000000               0.000301773               0.004921677              -0.000008400              -0.000502044               0.001807890               0.001305847               0.000000000               0.000000000               0.000000000               0.000000000              -0.004751314               0.002067398               0.000147460              -0.002040164               0.001369178              -0.000670986               0.000000000               0.000000000               0.000000000               0.000000000              -0.004793008               0.004164051              -0.000943917              -0.002317880               0.002160628              -0.000157251               0.000000000               0.000000000               0.000000000               0.000000000              -0.005114760               0.006140376              -0.001777752              -0.002685576               0.002941963               0.000256387               0.000000000               0.000000000               0.000000000               0.000000000              -0.004664031               0.006819843              -0.001778735              -0.002601486               0.003140420               0.000538934               0.000000000               0.000000000               0.000000000               0.000000000              -0.004015298               0.006975723              -0.001606940              -0.002377696               0.003117783               0.000740086               0.000000000               0.000000000               0.000000000               0.000000000              -0.003333651               0.006889791              -0.001412954              -0.002111338               0.003000353               0.000889015               0.000000000               0.000000000               0.000000000               0.000000000              -0.002661182               0.006682133              -0.001230007              -0.001833205               0.002838424               0.001005218               0.000000000               0.000000000               0.000000000               0.000000000              -0.002033508               0.006411141              -0.001071141              -0.001563954               0.002658344               0.001094389               0.000000000               0.000000000               0.000000000               0.000000000              -0.001463806               0.006117318              -0.000937004              -0.001313589               0.002476949               0.001163360               0.000000000               0.000000000               0.000000000               0.000000000              -0.000953487               0.005829535              -0.000819167              -0.001086247               0.002305241               0.001218994               0.000000000               0.000000000               0.000000000               0.000000000              -0.000499931               0.005570277              -0.000707034              -0.000883757               0.002151326               0.001267569               0.000000000               0.000000000               0.000000000               0.000000000              -0.000107079               0.005343226              -0.000590656              -0.000708056               0.002017076               0.001309020               0.000000000               0.000000000               0.000000000               0.000000000               0.000210105               0.005154341              -0.000464718              -0.000565502               0.001906597               0.001341095               0.000000000               0.000000000               0.000000000               0.000000000               0.000443651               0.005022183              -0.000334697              -0.000461403               0.001827845               0.001366442               0.000000000               0.000000000               0.000000000               0.000000000               0.000581984               0.004954271              -0.000207375              -0.000401039               0.001785087               0.001384048               0.000000000               0.000000000               0.000000000               0.000000000               0.000623488               0.004954075              -0.000092559              -0.000385451               0.001779825               0.001394375               0.000000000               0.000000000               0.000000000               0.000000000               0.000598450               0.004955813              -0.000032485              -0.000395057               0.001783607               0.001388550               0.000000000               0.000000000               0.000000000               0.000000000              -0.006883739               0.000666283               0.000898292              -0.002664685               0.001110315              -0.001554370               0.000000000               0.000000000               0.000000000               0.000000000              -0.005884687               0.002734953              -0.000671902              -0.002548622               0.001761180              -0.000787443               0.000000000               0.000000000               0.000000000               0.000000000              -0.005454171               0.004634702              -0.001975019              -0.002624646               0.002419766              -0.000204880               0.000000000               0.000000000               0.000000000               0.000000000              -0.004785921               0.005559597              -0.002165527              -0.002489664               0.002683068               0.000193404               0.000000000               0.000000000               0.000000000               0.000000000              -0.004074197               0.005996646              -0.002044930              -0.002277399               0.002757995               0.000480595               0.000000000               0.000000000               0.000000000               0.000000000              -0.003379274               0.006162838              -0.001850479              -0.002037578               0.002733451               0.000695873               0.000000000               0.000000000               0.000000000               0.000000000              -0.002704643               0.006167419              -0.001648916              -0.001785165               0.002650840               0.000865676               0.000000000               0.000000000               0.000000000               0.000000000              -0.002069587               0.006070609              -0.001460245              -0.001534918               0.002535155               0.001000237               0.000000000               0.000000000               0.000000000               0.000000000              -0.001483906               0.005918959              -0.001294401              -0.001296332               0.002405077               0.001108745               0.000000000               0.000000000               0.000000000               0.000000000              -0.000944762               0.005748252              -0.001148591              -0.001072815               0.002273669               0.001200855               0.000000000               0.000000000               0.000000000               0.000000000              -0.000447144               0.005579913              -0.001014069              -0.000865166               0.002148341               0.001283175               0.000000000               0.000000000               0.000000000               0.000000000               0.000005964               0.005422718              -0.000870629              -0.000675602               0.002032755               0.001357153               0.000000000               0.000000000               0.000000000               0.000000000               0.000399582               0.005276281              -0.000713352              -0.000509691               0.001928640               0.001418949               0.000000000               0.000000000               0.000000000               0.000000000               0.000716678               0.005144890              -0.000544999              -0.000374356               0.001839732               0.001465375               0.000000000               0.000000000               0.000000000               0.000000000               0.000942654               0.005052610              -0.000362662              -0.000278080               0.001776880               0.001498799               0.000000000               0.000000000               0.000000000               0.000000000               0.001060310               0.005010660              -0.000176446              -0.000228716               0.001746442               0.001517726               0.000000000               0.000000000               0.000000000               0.000000000               0.001076811               0.004994700              -0.000082273              -0.000220533               0.001738394               0.001517861               0.000000000               0.000000000               0.000000000               0.000000000              -0.009118515              -0.000311742               0.001397941              -0.003380473               0.001022903              -0.002357570               0.000000000               0.000000000               0.000000000               0.000000000              -0.007054318               0.001481468              -0.000385460              -0.002830549               0.001437329              -0.001393220               0.000000000               0.000000000               0.000000000               0.000000000              -0.005757082               0.003076602              -0.001944311              -0.002543477               0.001873346              -0.000670130               0.000000000               0.000000000               0.000000000               0.000000000              -0.004789678               0.004109548              -0.002300848              -0.002309818               0.002139773              -0.000170045               0.000000000               0.000000000               0.000000000               0.000000000              -0.003978643               0.004762099              -0.002261739              -0.002087249               0.002283099               0.000195850               0.000000000               0.000000000               0.000000000               0.000000000              -0.003261380               0.005159824              -0.002100057              -0.001867992               0.002342587               0.000474595               0.000000000               0.000000000               0.000000000               0.000000000              -0.002598709               0.005376050              -0.001906469              -0.001646519               0.002340838               0.000694319               0.000000000               0.000000000               0.000000000               0.000000000              -0.001971624               0.005462020              -0.001713892              -0.001422109               0.002294691               0.000872582               0.000000000               0.000000000               0.000000000               0.000000000              -0.001379097               0.005470361              -0.001538522              -0.001200954               0.002223753               0.001022799               0.000000000               0.000000000               0.000000000               0.000000000              -0.000819991               0.005438301              -0.001383352              -0.000987283               0.002141843               0.001154560               0.000000000               0.000000000               0.000000000               0.000000000              -0.000293184               0.005380628              -0.001240725              -0.000782521               0.002054365               0.001271844               0.000000000               0.000000000               0.000000000               0.000000000               0.000207782               0.005311911              -0.001091998              -0.000586070               0.001965976               0.001379906               0.000000000               0.000000000               0.000000000               0.000000000               0.000679416               0.005237600              -0.000923035              -0.000399918               0.001879155               0.001479237               0.000000000               0.000000000               0.000000000               0.000000000               0.001096818               0.005160521              -0.000729766              -0.000233758               0.001798076               0.001564317               0.000000000               0.000000000               0.000000000               0.000000000               0.001438990               0.005090526              -0.000507224              -0.000096695               0.001729056               0.001632362               0.000000000               0.000000000               0.000000000               0.000000000               0.001685084               0.005038079              -0.000260577               0.000002146               0.001678627               0.001680774               0.000000000               0.000000000               0.000000000               0.000000000               0.001793725               0.005024372              -0.000138371               0.000044600               0.001659907               0.001704507               0.000000000               0.000000000               0.000000000               0.000000000              -0.011250855              -0.000903109               0.001545379              -0.004106179               0.001067682              -0.003038497               0.000000000               0.000000000               0.000000000               0.000000000              -0.008205389               0.000472758              -0.000150726              -0.003136113               0.001202948              -0.001933164               0.000000000               0.000000000               0.000000000               0.000000000              -0.006028300               0.001629928              -0.001689597              -0.002464350               0.001364750              -0.001099601               0.000000000               0.000000000               0.000000000               0.000000000              -0.004713710               0.002646451              -0.002129223              -0.002098444               0.001581620              -0.000516824               0.000000000               0.000000000               0.000000000               0.000000000              -0.003770700               0.003428863              -0.002164457              -0.001842617               0.001757147              -0.000085470               0.000000000               0.000000000               0.000000000               0.000000000              -0.003015884               0.004000898              -0.002053747              -0.001631065               0.001877307               0.000246242               0.000000000               0.000000000               0.000000000               0.000000000              -0.002357650               0.004400120              -0.001894383              -0.001434131               0.001944735               0.000510604               0.000000000               0.000000000               0.000000000               0.000000000              -0.001746287               0.004663587              -0.001726525              -0.001237804               0.001967114               0.000729310               0.000000000               0.000000000               0.000000000               0.000000000              -0.001161131               0.004834879              -0.001567471              -0.001039782               0.001958204               0.000918422               0.000000000               0.000000000               0.000000000               0.000000000              -0.000595733               0.004947384              -0.001424157              -0.000841821               0.001929718               0.001087897               0.000000000               0.000000000               0.000000000               0.000000000              -0.000044220               0.005015364              -0.001295938              -0.000643502               0.001886272               0.001242769               0.000000000               0.000000000               0.000000000               0.000000000               0.000496254               0.005047616              -0.001165442              -0.000444856               0.001830807               0.001385951               0.000000000               0.000000000               0.000000000               0.000000000               0.001026190               0.005060690              -0.001009433              -0.000247765               0.001769468               0.001521703               0.000000000               0.000000000               0.000000000               0.000000000               0.001540880               0.005067484              -0.000818610              -0.000055606               0.001707680               0.001652074               0.000000000               0.000000000               0.000000000               0.000000000               0.002023472               0.005056545              -0.000589358               0.000126732               0.001643254               0.001769987               0.000000000               0.000000000               0.000000000               0.000000000               0.002453452               0.005028999              -0.000315490               0.000291417               0.001579178               0.001870594               0.000000000               0.000000000               0.000000000               0.000000000               0.002708105               0.005036614              -0.000179460               0.000385959               0.001550202               0.001936160               0.000000000               0.000000000               0.000000000               0.000000000              -0.013034925              -0.001194881               0.001310875              -0.004738734               0.001181276              -0.003557458               0.000000000               0.000000000               0.000000000               0.000000000              -0.009195765              -0.000249679              -0.000014806              -0.003417199               0.001055833              -0.002361366               0.000000000               0.000000000               0.000000000               0.000000000              -0.006258102               0.000453104              -0.001248501              -0.002403424               0.000952169              -0.001451255               0.000000000               0.000000000               0.000000000               0.000000000              -0.004611252               0.001374688              -0.001647308              -0.001901053               0.001091905              -0.000809148               0.000000000               0.000000000               0.000000000               0.000000000              -0.003533271               0.002207984              -0.001714995              -0.001600972               0.001269643              -0.000331329               0.000000000               0.000000000               0.000000000               0.000000000              -0.002727632               0.002890983              -0.001654212              -0.001384232               0.001425061               0.000040829               0.000000000               0.000000000               0.000000000               0.000000000              -0.002057132               0.003433934              -0.001546385              -0.001200664               0.001544854               0.000344190               0.000000000               0.000000000               0.000000000               0.000000000              -0.001455212               0.003851093              -0.001423135              -0.001027089               0.001626048               0.000598958               0.000000000               0.000000000               0.000000000               0.000000000              -0.000886814               0.004163731              -0.001301822              -0.000853020               0.001672236               0.000819216               0.000000000               0.000000000               0.000000000               0.000000000              -0.000324955               0.004401955              -0.001194202              -0.000672102               0.001691337               0.001019236               0.000000000               0.000000000               0.000000000               0.000000000               0.000241966               0.004581703              -0.001099564              -0.000481975               0.001687877               0.001205902               0.000000000               0.000000000               0.000000000               0.000000000               0.000812570               0.004715665              -0.000998737              -0.000284744               0.001666787               0.001382043               0.000000000               0.000000000               0.000000000               0.000000000               0.001394533               0.004824808              -0.000877961              -0.000080152               0.001634970               0.001554819               0.000000000               0.000000000               0.000000000               0.000000000               0.002000671               0.004912290              -0.000730044               0.000136214               0.001592009               0.001728223               0.000000000               0.000000000               0.000000000               0.000000000               0.002628650               0.004969520              -0.000544092               0.000364550               0.001534974               0.001899524               0.000000000               0.000000000               0.000000000               0.000000000               0.003270359               0.004994814              -0.000301394               0.000602027               0.001464246               0.002066273               0.000000000               0.000000000               0.000000000               0.000000000               0.003711705               0.005043322              -0.000179642               0.000761466               0.001427268               0.002188735               0.000000000               0.000000000               0.000000000               0.000000000              -0.014225809              -0.001304480               0.000751422              -0.005171615               0.001289036              -0.003882579               0.000000000               0.000000000               0.000000000               0.000000000              -0.009865992              -0.000676811               0.000023532              -0.003615143               0.000979437              -0.002635706               0.000000000               0.000000000               0.000000000               0.000000000              -0.006415997              -0.000315124              -0.000664097              -0.002366607               0.000683823              -0.001682784               0.000000000               0.000000000               0.000000000               0.000000000              -0.004526606               0.000501097              -0.000901054              -0.001760113               0.000753731              -0.001006382               0.000000000               0.000000000               0.000000000               0.000000000              -0.003340977               0.001339843              -0.000952020              -0.001420345               0.000920056              -0.000500289               0.000000000               0.000000000               0.000000000               0.000000000              -0.002491432               0.002086673              -0.000929701              -0.001195119               0.001093923              -0.000101196               0.000000000               0.000000000               0.000000000               0.000000000              -0.001811148               0.002718127              -0.000877908              -0.001018944               0.001245681               0.000226737               0.000000000               0.000000000               0.000000000               0.000000000              -0.001211839               0.003233710              -0.000811763              -0.000858651               0.001364109               0.000505458               0.000000000               0.000000000               0.000000000               0.000000000              -0.000646829               0.003638485              -0.000745191              -0.000697370               0.001445273               0.000747903               0.000000000               0.000000000               0.000000000               0.000000000              -0.000088632               0.003955077              -0.000688588              -0.000527621               0.001494219               0.000966598               0.000000000               0.000000000               0.000000000               0.000000000               0.000476945               0.004214443              -0.000637789              -0.000347951               0.001520784               0.001172833               0.000000000               0.000000000               0.000000000               0.000000000               0.001062744               0.004432092              -0.000580313              -0.000155483               0.001529177               0.001373694               0.000000000               0.000000000               0.000000000               0.000000000               0.001688154               0.004620409              -0.000513977               0.000055506               0.001521619               0.001577125               0.000000000               0.000000000               0.000000000               0.000000000               0.002366797               0.004776425              -0.000434430               0.000290493               0.001495295               0.001785788               0.000000000               0.000000000               0.000000000               0.000000000               0.003109685               0.004892734              -0.000330391               0.000554535               0.001446050               0.002000585               0.000000000               0.000000000               0.000000000               0.000000000               0.003930446               0.004962581              -0.000187212               0.000853586               0.001369648               0.002223235               0.000000000               0.000000000               0.000000000               0.000000000               0.004540180               0.005046880              -0.000116009               0.001071697               0.001325044               0.002396741               0.000000000               0.000000000               0.000000000               0.000000000              -0.014644174              -0.001328578               0.000000000              -0.005325489               0.001332295              -0.003993195               0.000000000               0.000000000               0.000000000               0.000000000              -0.010102607              -0.000816793              -0.000000000              -0.003686376               0.000956521              -0.002729855               0.000000000               0.000000000               0.000000000               0.000000000              -0.006473218              -0.000583210              -0.000000000              -0.002354554               0.000590444              -0.001764110               0.000000000               0.000000000               0.000000000               0.000000000              -0.004492618               0.000187172               0.000000000              -0.001708127               0.000631762              -0.001076365               0.000000000               0.000000000               0.000000000               0.000000000              -0.003262055               0.001025995              -0.000000000              -0.001351518               0.000792499              -0.000559019               0.000000000               0.000000000               0.000000000               0.000000000              -0.002395049               0.001796668              -0.000000000              -0.001122724               0.000973124              -0.000149600               0.000000000               0.000000000               0.000000000               0.000000000              -0.001714512               0.002456927              -0.000000000              -0.000950056               0.001135653               0.000185597               0.000000000               0.000000000               0.000000000               0.000000000              -0.001116519               0.003002918               0.000000000              -0.000794057               0.001265649               0.000471591               0.000000000               0.000000000               0.000000000               0.000000000              -0.000548941               0.003436490               0.000000000              -0.000635413               0.001357290               0.000721877               0.000000000               0.000000000               0.000000000               0.000000000               0.000009587               0.003780782               0.000000000              -0.000469002               0.001416582               0.000947580               0.000000000               0.000000000               0.000000000               0.000000000               0.000571578               0.004073725              -0.000000000              -0.000294873               0.001456186               0.001161313               0.000000000               0.000000000               0.000000000               0.000000000               0.001159630               0.004322070               0.000000000              -0.000105397               0.001475808               0.001370411               0.000000000               0.000000000               0.000000000               0.000000000               0.001798465               0.004534681               0.000000000               0.000107588               0.001475682               0.001583271               0.000000000               0.000000000               0.000000000               0.000000000               0.002502884               0.004719590               0.000000000               0.000348629               0.001456971               0.001805600               0.000000000               0.000000000               0.000000000               0.000000000               0.003290213               0.004864088              -0.000000000               0.000625813               0.001412742               0.002038555               0.000000000               0.000000000               0.000000000               0.000000000               0.004183386               0.004950918              -0.000000000               0.000949896               0.001333658               0.002283553               0.000000000               0.000000000               0.000000000               0.000000000               0.004861744               0.005047966              -0.000000000               0.001192146               0.001285256               0.002477403               0.000000000               0.000000000               0.000000000               0.000000000               0.000000000               0.000000000               0.000000000               0.000000000               0.000000000               0.000000000               0.000000000               0.000000000               0.000000000               0.000000000               0.000000000               0.000000000               0.000000000               0.000000000               0.000000000               0.000000000               0.000000000               0.000000000               0.000000000               0.000000000               0.000000000               0.000000000               0.000000000               0.000000000               0.000000000               0.000000000               0.000000000               0.000000000               0.000000000               0.000000000               0.000000000               0.000000000               0.000000000               0.000000000               0.000000000               0.000000000               0.000000000               0.000000000               0.000000000               0.000000000               0.000000000               0.000000000               0.000000000               0.000000000               0.000000000               0.000000000               0.000000000               0.000000000               0.000000000               0.000000000               0.000000000               0.000000000               0.000000000               0.000000000               0.000000000               0.000000000               0.000000000               0.000000000               0.000000000               0.000000000               0.000000000               0.000000000               0.000000000               0.000000000               0.000000000               0.000000000               0.000000000               0.000000000               0.000000000               0.000000000               0.000000000               0.000000000               0.000000000               0.000000000               0.000000000               0.000000000               0.000000000               0.000000000               0.000000000               0.000000000               0.000000000               0.000000000               0.000000000               0.000000000               0.000000000               0.000000000               0.000000000               0.000000000               0.000000000               0.000000000               0.000000000               0.000000000               0.000000000               0.000000000               0.000000000               0.000000000               0.000000000               0.000000000               0.000000000               0.000000000               0.000000000               0.000000000               0.000000000               0.000000000               0.000000000               0.000000000               0.000000000               0.000000000               0.000000000               0.000000000               0.000000000               0.000000000               0.000000000               0.000000000               0.000000000               0.000000000               0.000000000               0.000000000               0.000000000               0.000000000               0.000000000               0.000000000               0.000000000               0.000000000               0.000000000               0.000000000               0.000000000               0.000000000               0.000000000               0.000000000               0.000000000               0.000000000               0.000000000               0.000000000               0.000000000               0.000000000               0.000000000               0.000000000               0.000000000               0.000000000               0.000000000               0.000000000               0.000000000               0.000000000               0.000000000               0.000000000               0.000000000               0.000000000               0.000000000               0.000000000               0.000000000               0.000000000               0.000000000               0.000000000               0.000000000               0.000000000               0.000000000               0.000000000               0.000000000               0.000000000               0.000000000               0.000000000               0.000000000               0.000000000               0.000000000               0.000000000               0.000000000               0.000000000               0.000000000               0.000000000               0.002182055               0.021835053               0.001465546              -0.001911107               0.007915314               0.006004207               0.000000000               0.000000000               0.000000000               0.000000000               0.001963524               0.016735741               0.000637866              -0.001355643               0.006030405               0.004674763               0.000000000               0.000000000               0.000000000               0.000000000               0.002411058               0.012632708              -0.000179368              -0.000674940               0.004435841               0.003760900               0.000000000               0.000000000               0.000000000               0.000000000               0.002169732               0.010309686              -0.000514692              -0.000475060               0.003594881               0.003119821               0.000000000               0.000000000               0.000000000               0.000000000               0.001760388               0.008831288              -0.000639425              -0.000443764               0.003091655               0.002647890               0.000000000               0.000000000               0.000000000               0.000000000               0.001348531               0.007773779              -0.000668950              -0.000466022               0.002746574               0.002280552               0.000000000               0.000000000               0.000000000               0.000000000               0.000985899               0.006941591              -0.000660062              -0.000497986               0.002479836               0.001981850               0.000000000               0.000000000               0.000000000               0.000000000               0.000684825               0.006238183              -0.000634699              -0.000522962               0.002253694               0.001730732               0.000000000               0.000000000               0.000000000               0.000000000               0.000430681               0.005599753              -0.000602128              -0.000538463               0.002046053               0.001507591               0.000000000               0.000000000               0.000000000               0.000000000               0.000219079               0.004993124              -0.000567454              -0.000541985               0.001845019               0.001303035               0.000000000               0.000000000               0.000000000               0.000000000               0.000052941               0.004393093              -0.000526116              -0.000529283               0.001640777               0.001111495               0.000000000               0.000000000               0.000000000               0.000000000              -0.000064971               0.003783423              -0.000481568              -0.000497291               0.001426892               0.000929601               0.000000000               0.000000000               0.000000000               0.000000000              -0.000135797               0.003159433              -0.000436866              -0.000445852               0.001201751               0.000755899               0.000000000               0.000000000               0.000000000               0.000000000              -0.000165278               0.002510347              -0.000381998              -0.000375772               0.000962031               0.000586259               0.000000000               0.000000000               0.000000000               0.000000000              -0.000153452               0.001819169              -0.000300896              -0.000284940               0.000701363               0.000416423               0.000000000               0.000000000               0.000000000               0.000000000              -0.000091663               0.001069598              -0.000174993              -0.000168073               0.000412553               0.000244480               0.000000000               0.000000000               0.000000000               0.000000000              -0.000107109               0.000509377              -0.000110443              -0.000103838               0.000204403               0.000100565               0.000000000               0.000000000               0.000000000               0.000000000               0.002311027               0.020459705               0.002701111              -0.001690825               0.007383441               0.005692617               0.000000000               0.000000000               0.000000000               0.000000000               0.001751220               0.015880925               0.001164208              -0.001328405               0.005736390               0.004407985               0.000000000               0.000000000               0.000000000               0.000000000               0.001831763               0.012317043              -0.000333426              -0.000852717               0.004389879               0.003537162               0.000000000               0.000000000               0.000000000               0.000000000               0.001462953               0.010263902              -0.000922383              -0.000734379               0.003666059               0.002931680               0.000000000               0.000000000               0.000000000               0.000000000               0.001044072               0.008916307              -0.001130433              -0.000723010               0.003213076               0.002490066               0.000000000               0.000000000               0.000000000               0.000000000               0.000672848               0.007919924              -0.001170604              -0.000737671               0.002885839               0.002148167               0.000000000               0.000000000               0.000000000               0.000000000               0.000372326               0.007114806              -0.001146564              -0.000749727               0.002621487               0.001871760               0.000000000               0.000000000               0.000000000               0.000000000               0.000143219               0.006418885              -0.001095570              -0.000748652               0.002389157               0.001640505               0.000000000               0.000000000               0.000000000               0.000000000              -0.000030320               0.005782851              -0.001032967              -0.000734225               0.002172339               0.001438114               0.000000000               0.000000000               0.000000000               0.000000000              -0.000157388               0.005176171              -0.000965873              -0.000706041               0.001960720               0.001254679               0.000000000               0.000000000               0.000000000               0.000000000              -0.000245272               0.004586010              -0.000888199              -0.000665227               0.001750397               0.001085170               0.000000000               0.000000000               0.000000000               0.000000000              -0.000293810               0.004004224              -0.000806162              -0.000610705               0.001538296               0.000927591               0.000000000               0.000000000               0.000000000               0.000000000              -0.000298901               0.003425612              -0.000721187              -0.000540288               0.001321955               0.000781667               0.000000000               0.000000000               0.000000000               0.000000000              -0.000267448               0.002843342              -0.000615564              -0.000455710               0.001099674               0.000643965               0.000000000               0.000000000               0.000000000               0.000000000              -0.000202955               0.002256506              -0.000470951              -0.000358171               0.000871551               0.000513381               0.000000000               0.000000000               0.000000000               0.000000000              -0.000108033               0.001673316              -0.000266150              -0.000249676               0.000640992               0.000391315               0.000000000               0.000000000               0.000000000               0.000000000              -0.000095859               0.001273164              -0.000161150              -0.000195092               0.000489414               0.000294322               0.000000000               0.000000000               0.000000000               0.000000000               0.002393479               0.018364103               0.003533158              -0.001397957               0.006587291               0.005189335               0.000000000               0.000000000               0.000000000               0.000000000               0.001358879               0.014599856               0.001510733              -0.001315400               0.005305037               0.003989637               0.000000000               0.000000000               0.000000000               0.000000000               0.000933577               0.011843626              -0.000424576              -0.001130359               0.004324622               0.003194263               0.000000000               0.000000000               0.000000000               0.000000000               0.000424695               0.010170898              -0.001136402              -0.001112099               0.003760965               0.002648866               0.000000000               0.000000000               0.000000000               0.000000000               0.000028005               0.008996470              -0.001366010              -0.001114054               0.003370145               0.002256090               0.000000000               0.000000000               0.000000000               0.000000000              -0.000252102               0.008080800              -0.001394063              -0.001104636               0.003061785               0.001957149               0.000000000               0.000000000               0.000000000               0.000000000              -0.000438424               0.007313152              -0.001348937              -0.001078551               0.002797210               0.001718659               0.000000000               0.000000000               0.000000000               0.000000000              -0.000547096               0.006633545              -0.001276617              -0.001034352               0.002555943               0.001521591               0.000000000               0.000000000               0.000000000               0.000000000              -0.000603657               0.006004495              -0.001191552              -0.000976931               0.002327122               0.001350191               0.000000000               0.000000000               0.000000000               0.000000000              -0.000619984               0.005405886              -0.001103146              -0.000908228               0.002104686               0.001196458               0.000000000               0.000000000               0.000000000               0.000000000              -0.000598798               0.004836993              -0.001007058              -0.000829172               0.001888705               0.001059534               0.000000000               0.000000000               0.000000000               0.000000000              -0.000549452               0.004294493              -0.000901556              -0.000742854               0.001679101               0.000936247               0.000000000               0.000000000               0.000000000               0.000000000              -0.000470108               0.003776083              -0.000788551              -0.000648300               0.001474781               0.000826482               0.000000000               0.000000000               0.000000000               0.000000000              -0.000362945               0.003285713              -0.000654802              -0.000546818               0.001277499               0.000730682               0.000000000               0.000000000               0.000000000               0.000000000              -0.000241486               0.002835123              -0.000485041              -0.000444947               0.001093347               0.000648400               0.000000000               0.000000000               0.000000000               0.000000000              -0.000119265               0.002443121              -0.000266035              -0.000350114               0.000931070               0.000580957               0.000000000               0.000000000               0.000000000               0.000000000              -0.000081832               0.002211190              -0.000154743              -0.000307085               0.000839418               0.000532333               0.000000000               0.000000000               0.000000000               0.000000000               0.002287148               0.015802698               0.003888550              -0.001117657               0.005640065               0.004522408               0.000000000               0.000000000               0.000000000               0.000000000               0.000764997               0.013067124               0.001669542              -0.001346514               0.004804502               0.003457988               0.000000000               0.000000000               0.000000000               0.000000000              -0.000173467               0.011272350              -0.000412642              -0.001474090               0.004248776               0.002774686               0.000000000               0.000000000               0.000000000               0.000000000              -0.000764024               0.010011322              -0.001116861              -0.001537921               0.003849714               0.002311793               0.000000000               0.000000000               0.000000000               0.000000000              -0.001081128               0.009021173              -0.001317878              -0.001533066               0.003518049               0.001984983               0.000000000               0.000000000               0.000000000               0.000000000              -0.001218933               0.008191108              -0.001323546              -0.001480985               0.003224004               0.001743019               0.000000000               0.000000000               0.000000000               0.000000000              -0.001246942               0.007461091              -0.001262736              -0.001400236               0.002953751               0.001553514               0.000000000               0.000000000               0.000000000               0.000000000              -0.001202219               0.006796859              -0.001182126              -0.001300437               0.002699076               0.001398639               0.000000000               0.000000000               0.000000000               0.000000000              -0.001115968               0.006177536              -0.001092344              -0.001190677               0.002456050               0.001265373               0.000000000               0.000000000               0.000000000               0.000000000              -0.001004386               0.005597135              -0.000999672              -0.001076284               0.002224454               0.001148170               0.000000000               0.000000000               0.000000000               0.000000000              -0.000871057               0.005054449              -0.000903012              -0.000958451               0.002004283               0.001045832               0.000000000               0.000000000               0.000000000               0.000000000              -0.000719492               0.004560013              -0.000796054              -0.000839809               0.001799925               0.000960116               0.000000000               0.000000000               0.000000000               0.000000000              -0.000553955               0.004113335              -0.000677484              -0.000721898               0.001611731               0.000889832               0.000000000               0.000000000               0.000000000               0.000000000              -0.000387032               0.003717872              -0.000541509              -0.000609870               0.001442568               0.000832698               0.000000000               0.000000000               0.000000000               0.000000000              -0.000232302               0.003390140              -0.000381748              -0.000510880               0.001300328               0.000789449               0.000000000               0.000000000               0.000000000               0.000000000              -0.000106479               0.003152534              -0.000198678              -0.000433995               0.001195499               0.000761504               0.000000000               0.000000000               0.000000000               0.000000000              -0.000060836               0.003044009              -0.000107534              -0.000403314               0.001149097               0.000745784               0.000000000               0.000000000               0.000000000               0.000000000               0.001877571               0.013053036               0.003780992              -0.000927541               0.004660148               0.003732607               0.000000000               0.000000000               0.000000000               0.000000000              -0.000019866               0.011452433               0.001669287              -0.001439001               0.004297106               0.002858105               0.000000000               0.000000000               0.000000000               0.000000000              -0.001360905               0.010645886              -0.000273084              -0.001841071               0.004162283               0.002321213               0.000000000               0.000000000               0.000000000               0.000000000              -0.001918531               0.009768579              -0.000870806              -0.001940517               0.003902999               0.001962483               0.000000000               0.000000000               0.000000000               0.000000000              -0.002080744               0.008942120              -0.001024478              -0.001898039               0.003613357               0.001715317               0.000000000               0.000000000               0.000000000               0.000000000              -0.002039040               0.008187823              -0.001017185              -0.001788113               0.003325285               0.001537171               0.000000000               0.000000000               0.000000000               0.000000000              -0.001887659               0.007496916              -0.000959119              -0.001644983               0.003047274               0.001402292               0.000000000               0.000000000               0.000000000               0.000000000              -0.001679517               0.006851358              -0.000890616              -0.001486235               0.002779175               0.001292940               0.000000000               0.000000000               0.000000000               0.000000000              -0.001452491               0.006249879              -0.000815150              -0.001325916               0.002525244               0.001199328               0.000000000               0.000000000               0.000000000               0.000000000              -0.001221375               0.005692345              -0.000736036              -0.001169556               0.002287281               0.001117725               0.000000000               0.000000000               0.000000000               0.000000000              -0.000982878               0.005186027              -0.000656993              -0.001016830               0.002067602               0.001050771               0.000000000               0.000000000               0.000000000               0.000000000              -0.000747740               0.004742448              -0.000567922              -0.000873206               0.001871869               0.000998662               0.000000000               0.000000000               0.000000000               0.000000000              -0.000527159               0.004359572              -0.000460795              -0.000742629               0.001700719               0.000958090               0.000000000               0.000000000               0.000000000               0.000000000              -0.000334977               0.004044011              -0.000343590              -0.000631116               0.001558362               0.000927246               0.000000000               0.000000000               0.000000000               0.000000000              -0.000178383               0.003812536              -0.000221942              -0.000543459               0.001451986               0.000908526               0.000000000               0.000000000               0.000000000               0.000000000              -0.000069007               0.003679938              -0.000104865              -0.000485869               0.001388590               0.000902721               0.000000000               0.000000000               0.000000000               0.000000000              -0.000028223               0.003644363              -0.000049224              -0.000466128               0.001370151               0.000904024               0.000000000               0.000000000               0.000000000               0.000000000               0.001090853               0.010352280               0.003294882              -0.000884966               0.003745713               0.002860748               0.000000000               0.000000000               0.000000000               0.000000000              -0.000957899               0.009888774               0.001570074              -0.001595306               0.003827993               0.002232687               0.000000000               0.000000000               0.000000000               0.000000000              -0.002501240               0.009982553               0.000001842              -0.002185779               0.004056077               0.001870299               0.000000000               0.000000000               0.000000000               0.000000000              -0.002894844               0.009423719              -0.000444473              -0.002263526               0.003895717               0.001632191               0.000000000               0.000000000               0.000000000               0.000000000              -0.002837714               0.008730540              -0.000563630              -0.002155455               0.003628636               0.001473181               0.000000000               0.000000000               0.000000000               0.000000000              -0.002587615               0.008046272              -0.000569046              -0.001976135               0.003340776               0.001364641               0.000000000               0.000000000               0.000000000               0.000000000              -0.002257317               0.007393634              -0.000536469              -0.001770694               0.003054751               0.001284057               0.000000000               0.000000000               0.000000000               0.000000000              -0.001906760               0.006774767              -0.000497006              -0.001561877               0.002778859               0.001216982               0.000000000               0.000000000               0.000000000               0.000000000              -0.001558261               0.006203701              -0.000454719              -0.001359807               0.002521149               0.001161342               0.000000000               0.000000000               0.000000000               0.000000000              -0.001229678               0.005681408              -0.000405852              -0.001171302               0.002284218               0.001112915               0.000000000               0.000000000               0.000000000               0.000000000              -0.000923244               0.005218231              -0.000356887              -0.000998493               0.002072224               0.001073731               0.000000000               0.000000000               0.000000000               0.000000000              -0.000642451               0.004824096              -0.000298264              -0.000843929               0.001889325               0.001045397               0.000000000               0.000000000               0.000000000               0.000000000              -0.000401378               0.004503508              -0.000223023              -0.000713453               0.001738972               0.001025519               0.000000000               0.000000000               0.000000000               0.000000000              -0.000212640               0.004267493              -0.000146257              -0.000613175               0.001626875               0.001013700               0.000000000               0.000000000               0.000000000               0.000000000              -0.000084211               0.004123742              -0.000077355              -0.000547046               0.001556915               0.001009870               0.000000000               0.000000000               0.000000000               0.000000000              -0.000018859               0.004069862              -0.000027188              -0.000515804               0.001528542               0.001012738               0.000000000               0.000000000               0.000000000               0.000000000               0.000001578               0.004075600              -0.000005540              -0.000508857               0.001528139               0.001019282               0.000000000               0.000000000               0.000000000               0.000000000              -0.000035189               0.007859660               0.002547569              -0.000995653               0.002951744               0.001956091               0.000000000               0.000000000               0.000000000               0.000000000              -0.001985658               0.008464680               0.001434115              -0.001802703               0.003422433               0.001619729               0.000000000               0.000000000               0.000000000               0.000000000              -0.003476299               0.009281321               0.000398988              -0.002463771               0.003915000               0.001451228               0.000000000               0.000000000               0.000000000               0.000000000              -0.003600069               0.008964825               0.000085949              -0.002470623               0.003811786               0.001341163               0.000000000               0.000000000               0.000000000               0.000000000              -0.003291712               0.008393869              -0.000032247              -0.002283620               0.003559135               0.001275515               0.000000000               0.000000000               0.000000000               0.000000000              -0.002839718               0.007776657              -0.000076649              -0.002036971               0.003271184               0.001234212               0.000000000               0.000000000               0.000000000               0.000000000              -0.002350057               0.007163867              -0.000091161              -0.001776750               0.002980182               0.001203432               0.000000000               0.000000000               0.000000000               0.000000000              -0.001880597               0.006585322              -0.000099620              -0.001528385               0.002704547               0.001176162               0.000000000               0.000000000               0.000000000               0.000000000              -0.001446829               0.006051193              -0.000102848              -0.001298957               0.002450030               0.001151073               0.000000000               0.000000000               0.000000000               0.000000000              -0.001056433               0.005572332              -0.000093350              -0.001092701               0.002221659               0.001128958               0.000000000               0.000000000               0.000000000               0.000000000              -0.000716327               0.005164482              -0.000080758              -0.000914181               0.002026204               0.001112023               0.000000000               0.000000000               0.000000000               0.000000000              -0.000425342               0.004833587              -0.000062928              -0.000763700               0.001865746               0.001102047               0.000000000               0.000000000               0.000000000               0.000000000              -0.000196733               0.004592151              -0.000034794              -0.000647792               0.001746633               0.001098840               0.000000000               0.000000000               0.000000000               0.000000000              -0.000041861               0.004449646              -0.000008863              -0.000571902               0.001673835               0.001101932               0.000000000               0.000000000               0.000000000               0.000000000               0.000035270               0.004400685               0.000007761              -0.000536858               0.001645833               0.001108975               0.000000000               0.000000000               0.000000000               0.000000000               0.000041293               0.004422094               0.000012377              -0.000537275               0.001653108               0.001115833               0.000000000               0.000000000               0.000000000               0.000000000               0.000031405               0.004460901               0.000015140              -0.000545834               0.001668897               0.001123063               0.000000000               0.000000000               0.000000000               0.000000000              -0.001351330               0.005757035               0.001658595              -0.001226376               0.002327784               0.001101408               0.000000000               0.000000000               0.000000000               0.000000000              -0.002986413               0.007184842               0.001297945              -0.002018006               0.003067592               0.001049586               0.000000000               0.000000000               0.000000000               0.000000000              -0.004241648               0.008556045               0.000878596              -0.002660117               0.003738692               0.001078575               0.000000000               0.000000000               0.000000000               0.000000000              -0.004083841               0.008490777               0.000645125              -0.002592781               0.003694491               0.001101710               0.000000000               0.000000000               0.000000000               0.000000000              -0.003565743               0.008069682               0.000499655              -0.002345858               0.003471820               0.001125962               0.000000000               0.000000000               0.000000000               0.000000000              -0.002953405               0.007540930               0.000400513              -0.002050138               0.003196997               0.001146859               0.000000000               0.000000000               0.000000000               0.000000000              -0.002341073               0.006991559               0.000324296              -0.001751843               0.002914444               0.001162601               0.000000000               0.000000000               0.000000000               0.000000000              -0.001779057               0.006463690               0.000262944              -0.001475104               0.002646243               0.001171139               0.000000000               0.000000000               0.000000000               0.000000000              -0.001283996               0.005967432               0.000216138              -0.001227425               0.002398266               0.001170841               0.000000000               0.000000000               0.000000000               0.000000000              -0.000849168               0.005530682               0.000181806              -0.001009771               0.002180132               0.001170362               0.000000000               0.000000000               0.000000000               0.000000000              -0.000477742               0.005170182               0.000151556              -0.000825424               0.001998518               0.001173094               0.000000000               0.000000000               0.000000000               0.000000000              -0.000181205               0.004888656               0.000119683              -0.000679032               0.001855880               0.001176848               0.000000000               0.000000000               0.000000000               0.000000000               0.000026525               0.004703143               0.000090874              -0.000577945               0.001760347               0.001182402               0.000000000               0.000000000               0.000000000               0.000000000               0.000141944               0.004625247               0.000063788              -0.000524926               0.001716709               0.001191783               0.000000000               0.000000000               0.000000000               0.000000000               0.000176934               0.004641394               0.000038797              -0.000513823               0.001718390               0.001204567               0.000000000               0.000000000               0.000000000               0.000000000               0.000153856               0.004717978               0.000018067              -0.000532050               0.001749993               0.001217944               0.000000000               0.000000000               0.000000000               0.000000000               0.000124534               0.004773026               0.000008515              -0.000549926               0.001774301               0.001224375               0.000000000               0.000000000               0.000000000               0.000000000              -0.002862518               0.003816015               0.000735435              -0.001550443               0.001788806               0.000238363               0.000000000               0.000000000               0.000000000               0.000000000              -0.003838002               0.005686059               0.001150765              -0.002150003               0.002612002               0.000461999               0.000000000               0.000000000               0.000000000               0.000000000              -0.004715461               0.007457640               0.001378262              -0.002700496               0.003386020               0.000685524               0.000000000               0.000000000               0.000000000               0.000000000              -0.004401782               0.007774984               0.001228343              -0.002622535               0.003465814               0.000843279               0.000000000               0.000000000               0.000000000               0.000000000              -0.003800440               0.007623156               0.001053728              -0.002378054               0.003333711               0.000955657               0.000000000               0.000000000               0.000000000               0.000000000              -0.003136033               0.007295525               0.000897442              -0.002087948               0.003127800               0.001039852               0.000000000               0.000000000               0.000000000               0.000000000              -0.002485596               0.006897869               0.000759604              -0.001794328               0.002897376               0.001103048               0.000000000               0.000000000               0.000000000               0.000000000              -0.001882920               0.006480974               0.000647230              -0.001516213               0.002665707               0.001149494               0.000000000               0.000000000               0.000000000               0.000000000              -0.001346114               0.006073382               0.000555935              -0.001263963               0.002445761               0.001181799               0.000000000               0.000000000               0.000000000               0.000000000              -0.000874267               0.005701592               0.000478958              -0.001040546               0.002247360               0.001206814               0.000000000               0.000000000               0.000000000               0.000000000              -0.000470131               0.005379222               0.000404454              -0.000848700               0.002075956               0.001227256               0.000000000               0.000000000               0.000000000               0.000000000              -0.000138392               0.005118157               0.000324587              -0.000691665               0.001936590               0.001244925               0.000000000               0.000000000               0.000000000               0.000000000               0.000110076               0.004929544               0.000241329              -0.000574913               0.001834803               0.001259889               0.000000000               0.000000000               0.000000000               0.000000000               0.000266342               0.004829182               0.000161674              -0.000503768               0.001777634               0.001273866               0.000000000               0.000000000               0.000000000               0.000000000               0.000335108               0.004816488               0.000092942              -0.000476394               0.001764278               0.001287884               0.000000000               0.000000000               0.000000000               0.000000000               0.000334909               0.004881462               0.000038323              -0.000484591               0.001788668               0.001304077               0.000000000               0.000000000               0.000000000               0.000000000               0.000301773               0.004921677               0.000008400              -0.000502044               0.001807890               0.001305847               0.000000000               0.000000000               0.000000000               0.000000000              -0.004751314               0.002067398              -0.000147460              -0.002040164               0.001369178              -0.000670986               0.000000000               0.000000000               0.000000000               0.000000000              -0.004793008               0.004164051               0.000943917              -0.002317880               0.002160628              -0.000157251               0.000000000               0.000000000               0.000000000               0.000000000              -0.005114760               0.006140376               0.001777752              -0.002685576               0.002941963               0.000256387               0.000000000               0.000000000               0.000000000               0.000000000              -0.004664031               0.006819843               0.001778735              -0.002601486               0.003140420               0.000538934               0.000000000               0.000000000               0.000000000               0.000000000              -0.004015298               0.006975723               0.001606940              -0.002377696               0.003117783               0.000740086               0.000000000               0.000000000               0.000000000               0.000000000              -0.003333651               0.006889791               0.001412954              -0.002111338               0.003000353               0.000889015               0.000000000               0.000000000               0.000000000               0.000000000              -0.002661182               0.006682133               0.001230007              -0.001833205               0.002838424               0.001005218               0.000000000               0.000000000               0.000000000               0.000000000              -0.002033508               0.006411141               0.001071141              -0.001563954               0.002658344               0.001094389               0.000000000               0.000000000               0.000000000               0.000000000              -0.001463806               0.006117318               0.000937004              -0.001313589               0.002476949               0.001163360               0.000000000               0.000000000               0.000000000               0.000000000              -0.000953487               0.005829535               0.000819167              -0.001086247               0.002305241               0.001218994               0.000000000               0.000000000               0.000000000               0.000000000              -0.000499931               0.005570277               0.000707034              -0.000883757               0.002151326               0.001267569               0.000000000               0.000000000               0.000000000               0.000000000              -0.000107079               0.005343226               0.000590656              -0.000708056               0.002017076               0.001309020               0.000000000               0.000000000               0.000000000               0.000000000               0.000210105               0.005154341               0.000464718              -0.000565502               0.001906597               0.001341095               0.000000000               0.000000000               0.000000000               0.000000000               0.000443651               0.005022183               0.000334697              -0.000461403               0.001827845               0.001366442               0.000000000               0.000000000               0.000000000               0.000000000               0.000581984               0.004954271               0.000207375              -0.000401039               0.001785087               0.001384048               0.000000000               0.000000000               0.000000000               0.000000000               0.000623488               0.004954075               0.000092559              -0.000385451               0.001779825               0.001394375               0.000000000               0.000000000               0.000000000               0.000000000               0.000598450               0.004955813               0.000032485              -0.000395057               0.001783607               0.001388550               0.000000000               0.000000000               0.000000000               0.000000000              -0.006883739               0.000666283              -0.000898292              -0.002664685               0.001110315              -0.001554370               0.000000000               0.000000000               0.000000000               0.000000000              -0.005884687               0.002734953               0.000671902              -0.002548622               0.001761180              -0.000787443               0.000000000               0.000000000               0.000000000               0.000000000              -0.005454171               0.004634702               0.001975019              -0.002624646               0.002419766              -0.000204880               0.000000000               0.000000000               0.000000000               0.000000000              -0.004785921               0.005559597               0.002165527              -0.002489664               0.002683068               0.000193404               0.000000000               0.000000000               0.000000000               0.000000000              -0.004074197               0.005996646               0.002044930              -0.002277399               0.002757995               0.000480595               0.000000000               0.000000000               0.000000000               0.000000000              -0.003379274               0.006162838               0.001850479              -0.002037578               0.002733451               0.000695873               0.000000000               0.000000000               0.000000000               0.000000000              -0.002704643               0.006167419               0.001648916              -0.001785165               0.002650840               0.000865676               0.000000000               0.000000000               0.000000000               0.000000000              -0.002069587               0.006070609               0.001460245              -0.001534918               0.002535155               0.001000237               0.000000000               0.000000000               0.000000000               0.000000000              -0.001483906               0.005918959               0.001294401              -0.001296332               0.002405077               0.001108745               0.000000000               0.000000000               0.000000000               0.000000000              -0.000944762               0.005748252               0.001148591              -0.001072815               0.002273669               0.001200855               0.000000000               0.000000000               0.000000000               0.000000000              -0.000447144               0.005579913               0.001014069              -0.000865166               0.002148341               0.001283175               0.000000000               0.000000000               0.000000000               0.000000000               0.000005964               0.005422718               0.000870629              -0.000675602               0.002032755               0.001357153               0.000000000               0.000000000               0.000000000               0.000000000               0.000399582               0.005276281               0.000713352              -0.000509691               0.001928640               0.001418949               0.000000000               0.000000000               0.000000000               0.000000000               0.000716678               0.005144890               0.000544999              -0.000374356               0.001839732               0.001465375               0.000000000               0.000000000               0.000000000               0.000000000               0.000942654               0.005052610               0.000362662              -0.000278080               0.001776880               0.001498799               0.000000000               0.000000000               0.000000000               0.000000000               0.001060310               0.005010660               0.000176446              -0.000228716               0.001746442               0.001517726               0.000000000               0.000000000               0.000000000               0.000000000               0.001076811               0.004994700               0.000082273              -0.000220533               0.001738394               0.001517861               0.000000000               0.000000000               0.000000000               0.000000000              -0.009118515              -0.000311742              -0.001397941              -0.003380473               0.001022903              -0.002357570               0.000000000               0.000000000               0.000000000               0.000000000              -0.007054318               0.001481468               0.000385460              -0.002830549               0.001437329              -0.001393220               0.000000000               0.000000000               0.000000000               0.000000000              -0.005757082               0.003076602               0.001944311              -0.002543477               0.001873346              -0.000670130               0.000000000               0.000000000               0.000000000               0.000000000              -0.004789678               0.004109548               0.002300848              -0.002309818               0.002139773              -0.000170045               0.000000000               0.000000000               0.000000000               0.000000000              -0.003978643               0.004762099               0.002261739              -0.002087249               0.002283099               0.000195850               0.000000000               0.000000000               0.000000000               0.000000000              -0.003261380               0.005159824               0.002100057              -0.001867992               0.002342587               0.000474595               0.000000000               0.000000000               0.000000000               0.000000000              -0.002598709               0.005376050               0.001906469              -0.001646519               0.002340838               0.000694319               0.000000000               0.000000000               0.000000000               0.000000000              -0.001971624               0.005462020               0.001713892              -0.001422109               0.002294691               0.000872582               0.000000000               0.000000000               0.000000000               0.000000000              -0.001379097               0.005470361               0.001538522              -0.001200954               0.002223753               0.001022799               0.000000000               0.000000000               0.000000000               0.000000000              -0.000819991               0.005438301               0.001383352              -0.000987283               0.002141843               0.001154560               0.000000000               0.000000000               0.000000000               0.000000000              -0.000293184               0.005380628               0.001240725              -0.000782521               0.002054365               0.001271844               0.000000000               0.000000000               0.000000000               0.000000000               0.000207782               0.005311911               0.001091998              -0.000586070               0.001965976               0.001379906               0.000000000               0.000000000               0.000000000               0.000000000               0.000679416               0.005237600               0.000923035              -0.000399918               0.001879155               0.001479237               0.000000000               0.000000000               0.000000000               0.000000000               0.001096818               0.005160521               0.000729766              -0.000233758               0.001798076               0.001564317               0.000000000               0.000000000               0.000000000               0.000000000               0.001438990               0.005090526               0.000507224              -0.000096695               0.001729056               0.001632362               0.000000000               0.000000000               0.000000000               0.000000000               0.001685084               0.005038079               0.000260577               0.000002146               0.001678627               0.001680774               0.000000000               0.000000000               0.000000000               0.000000000               0.001793725               0.005024372               0.000138371               0.000044600               0.001659907               0.001704507               0.000000000               0.000000000               0.000000000               0.000000000              -0.011250855              -0.000903109              -0.001545379              -0.004106179               0.001067682              -0.003038497               0.000000000               0.000000000               0.000000000               0.000000000              -0.008205389               0.000472758               0.000150726              -0.003136113               0.001202948              -0.001933164               0.000000000               0.000000000               0.000000000               0.000000000              -0.006028300               0.001629928               0.001689597              -0.002464350               0.001364750              -0.001099601               0.000000000               0.000000000               0.000000000               0.000000000              -0.004713710               0.002646451               0.002129223              -0.002098444               0.001581620              -0.000516824               0.000000000               0.000000000               0.000000000               0.000000000              -0.003770700               0.003428863               0.002164457              -0.001842617               0.001757147              -0.000085470               0.000000000               0.000000000               0.000000000               0.000000000              -0.003015884               0.004000898               0.002053747              -0.001631065               0.001877307               0.000246242               0.000000000               0.000000000               0.000000000               0.000000000              -0.002357650               0.004400120               0.001894383              -0.001434131               0.001944735               0.000510604               0.000000000               0.000000000               0.000000000               0.000000000              -0.001746287               0.004663587               0.001726525              -0.001237804               0.001967114               0.000729310               0.000000000               0.000000000               0.000000000               0.000000000              -0.001161131               0.004834879               0.001567471              -0.001039782               0.001958204               0.000918422               0.000000000               0.000000000               0.000000000               0.000000000              -0.000595733               0.004947384               0.001424157              -0.000841821               0.001929718               0.001087897               0.000000000               0.000000000               0.000000000               0.000000000              -0.000044220               0.005015364               0.001295938              -0.000643502               0.001886272               0.001242769               0.000000000               0.000000000               0.000000000               0.000000000               0.000496254               0.005047616               0.001165442              -0.000444856               0.001830807               0.001385951               0.000000000               0.000000000               0.000000000               0.000000000               0.001026190               0.005060690               0.001009433              -0.000247765               0.001769468               0.001521703               0.000000000               0.000000000               0.000000000               0.000000000               0.001540880               0.005067484               0.000818610              -0.000055606               0.001707680               0.001652074               0.000000000               0.000000000               0.000000000               0.000000000               0.002023472               0.005056545               0.000589358               0.000126732               0.001643254               0.001769987               0.000000000               0.000000000               0.000000000               0.000000000               0.002453452               0.005028999               0.000315490               0.000291417               0.001579178               0.001870594               0.000000000               0.000000000               0.000000000               0.000000000               0.002708105               0.005036614               0.000179460               0.000385959               0.001550202               0.001936160               0.000000000               0.000000000               0.000000000               0.000000000              -0.013034925              -0.001194881              -0.001310875              -0.004738734               0.001181276              -0.003557458               0.000000000               0.000000000               0.000000000               0.000000000              -0.009195765              -0.000249679               0.000014806              -0.003417199               0.001055833              -0.002361366               0.000000000               0.000000000               0.000000000               0.000000000              -0.006258102               0.000453104               0.001248501              -0.002403424               0.000952169              -0.001451255               0.000000000               0.000000000               0.000000000               0.000000000              -0.004611252               0.001374688               0.001647308              -0.001901053               0.001091905              -0.000809148               0.000000000               0.000000000               0.000000000               0.000000000              -0.003533271               0.002207984               0.001714995              -0.001600972               0.001269643              -0.000331329               0.000000000               0.000000000               0.000000000               0.000000000              -0.002727632               0.002890983               0.001654212              -0.001384232               0.001425061               0.000040829               0.000000000               0.000000000               0.000000000               0.000000000              -0.002057132               0.003433934               0.001546385              -0.001200664               0.001544854               0.000344190               0.000000000               0.000000000               0.000000000               0.000000000              -0.001455212               0.003851093               0.001423135              -0.001027089               0.001626048               0.000598958               0.000000000               0.000000000               0.000000000               0.000000000              -0.000886814               0.004163731               0.001301822              -0.000853020               0.001672236               0.000819216               0.000000000               0.000000000               0.000000000               0.000000000              -0.000324955               0.004401955               0.001194202              -0.000672102               0.001691337               0.001019236               0.000000000               0.000000000               0.000000000               0.000000000               0.000241966               0.004581703               0.001099564              -0.000481975               0.001687877               0.001205902               0.000000000               0.000000000               0.000000000               0.000000000               0.000812570               0.004715665               0.000998737              -0.000284744               0.001666787               0.001382043               0.000000000               0.000000000               0.000000000               0.000000000               0.001394533               0.004824808               0.000877961              -0.000080152               0.001634970               0.001554819               0.000000000               0.000000000               0.000000000               0.000000000               0.002000671               0.004912290               0.000730044               0.000136214               0.001592009               0.001728223               0.000000000               0.000000000               0.000000000               0.000000000               0.002628650               0.004969520               0.000544092               0.000364550               0.001534974               0.001899524               0.000000000               0.000000000               0.000000000               0.000000000               0.003270359               0.004994814               0.000301394               0.000602027               0.001464246               0.002066273               0.000000000               0.000000000               0.000000000               0.000000000               0.003711705               0.005043322               0.000179642               0.000761466               0.001427268               0.002188735               0.000000000               0.000000000               0.000000000               0.000000000              -0.014225809              -0.001304480              -0.000751422              -0.005171615               0.001289036              -0.003882579               0.000000000               0.000000000               0.000000000               0.000000000              -0.009865992              -0.000676811              -0.000023532              -0.003615143               0.000979437              -0.002635706               0.000000000               0.000000000               0.000000000               0.000000000              -0.006415997              -0.000315124               0.000664097              -0.002366607               0.000683823              -0.001682784               0.000000000               0.000000000               0.000000000               0.000000000              -0.004526606               0.000501097               0.000901054              -0.001760113               0.000753731              -0.001006382               0.000000000               0.000000000               0.000000000               0.000000000              -0.003340977               0.001339843               0.000952020              -0.001420345               0.000920056              -0.000500289               0.000000000               0.000000000               0.000000000               0.000000000              -0.002491432               0.002086673               0.000929701              -0.001195119               0.001093923              -0.000101196               0.000000000               0.000000000               0.000000000               0.000000000              -0.001811148               0.002718127               0.000877908              -0.001018944               0.001245681               0.000226737               0.000000000               0.000000000               0.000000000               0.000000000              -0.001211839               0.003233710               0.000811763              -0.000858651               0.001364109               0.000505458               0.000000000               0.000000000               0.000000000               0.000000000              -0.000646829               0.003638485               0.000745191              -0.000697370               0.001445273               0.000747903               0.000000000               0.000000000               0.000000000               0.000000000              -0.000088632               0.003955077               0.000688588              -0.000527621               0.001494219               0.000966598               0.000000000               0.000000000               0.000000000               0.000000000               0.000476945               0.004214443               0.000637789              -0.000347951               0.001520784               0.001172833               0.000000000               0.000000000               0.000000000               0.000000000               0.001062744               0.004432092               0.000580313              -0.000155483               0.001529177               0.001373694               0.000000000               0.000000000               0.000000000               0.000000000               0.001688154               0.004620409               0.000513977               0.000055506               0.001521619               0.001577125               0.000000000               0.000000000               0.000000000               0.000000000               0.002366797               0.004776425               0.000434430               0.000290493               0.001495295               0.001785788               0.000000000               0.000000000               0.000000000               0.000000000               0.003109685               0.004892734               0.000330391               0.000554535               0.001446050               0.002000585               0.000000000               0.000000000               0.000000000               0.000000000               0.003930446               0.004962581               0.000187212               0.000853586               0.001369648               0.002223235               0.000000000               0.000000000               0.000000000               0.000000000               0.004540180               0.005046880               0.000116009               0.001071697               0.001325044               0.002396741               0.000000000               0.000000000               0.000000000               0.000000000              -0.014644174              -0.001328578               0.000000000              -0.005325489               0.001332295              -0.003993195               0.000000000               0.000000000               0.000000000               0.000000000              -0.010102607              -0.000816793               0.000000000              -0.003686376               0.000956521              -0.002729855               0.000000000               0.000000000               0.000000000               0.000000000              -0.006473218              -0.000583210               0.000000000              -0.002354554               0.000590444              -0.001764110               0.000000000               0.000000000               0.000000000               0.000000000              -0.004492618               0.000187172               0.000000000              -0.001708127               0.000631762              -0.001076365               0.000000000               0.000000000               0.000000000               0.000000000              -0.003262055               0.001025995               0.000000000              -0.001351518               0.000792499              -0.000559019               0.000000000               0.000000000               0.000000000               0.000000000              -0.002395049               0.001796668               0.000000000              -0.001122724               0.000973124              -0.000149600               0.000000000               0.000000000               0.000000000               0.000000000              -0.001714512               0.002456927              -0.000000000              -0.000950056               0.001135653               0.000185597               0.000000000               0.000000000               0.000000000               0.000000000              -0.001116519               0.003002918              -0.000000000              -0.000794057               0.001265649               0.000471591               0.000000000               0.000000000               0.000000000               0.000000000              -0.000548941               0.003436490               0.000000000              -0.000635413               0.001357290               0.000721877               0.000000000               0.000000000               0.000000000               0.000000000               0.000009587               0.003780782              -0.000000000              -0.000469002               0.001416582               0.000947580               0.000000000               0.000000000               0.000000000               0.000000000               0.000571578               0.004073725               0.000000000              -0.000294873               0.001456186               0.001161313               0.000000000               0.000000000               0.000000000               0.000000000               0.001159630               0.004322070              -0.000000000              -0.000105397               0.001475808               0.001370411               0.000000000               0.000000000               0.000000000               0.000000000               0.001798465               0.004534681              -0.000000000               0.000107588               0.001475682               0.001583271               0.000000000               0.000000000               0.000000000               0.000000000               0.002502884               0.004719590               0.000000000               0.000348629               0.001456971               0.001805600               0.000000000               0.000000000               0.000000000               0.000000000               0.003290213               0.004864088              -0.000000000               0.000625813               0.001412742               0.002038555               0.000000000               0.000000000               0.000000000               0.000000000               0.004183386               0.004950918              -0.000000000               0.000949896               0.001333658               0.002283553               0.000000000               0.000000000               0.000000000               0.000000000               0.004861744               0.005047966               0.000000000               0.001192146               0.001285256               0.002477403               0.000000000               0.000000000               0.000000000               0.000000000               0.002123347               0.022314120               0.000000000              -0.001993005               0.008102301               0.006109296               0.000000000               0.000000000               0.000000000               0.000000000               0.002028533               0.017036001              -0.000000000              -0.001368797               0.006134876               0.004766079               0.000000000               0.000000000               0.000000000               0.000000000               0.002610347               0.012744313              -0.000000000              -0.000614158               0.004452781               0.003838623               0.000000000               0.000000000               0.000000000               0.000000000               0.002420817               0.010324634               0.000000000              -0.000382772               0.003569101               0.003186329               0.000000000               0.000000000               0.000000000               0.000000000               0.002019185               0.008794594               0.000000000              -0.000342129               0.003045545               0.002703416               0.000000000               0.000000000               0.000000000               0.000000000               0.001597639               0.007712934              -0.000000000              -0.000365001               0.002692619               0.002327618               0.000000000               0.000000000               0.000000000               0.000000000               0.001216007               0.006871276               0.000000000              -0.000402906               0.002424704               0.002021798               0.000000000               0.000000000               0.000000000               0.000000000               0.000888913               0.006166814               0.000000000              -0.000437508               0.002201420               0.001763912               0.000000000               0.000000000               0.000000000               0.000000000               0.000605215               0.005530906              -0.000000000              -0.000464406               0.001998419               0.001534012               0.000000000               0.000000000               0.000000000               0.000000000               0.000363180               0.004925483              -0.000000000              -0.000479492               0.001801642               0.001322150               0.000000000               0.000000000               0.000000000               0.000000000               0.000170257               0.004325363               0.000000000              -0.000476823               0.001600714               0.001123891               0.000000000               0.000000000               0.000000000               0.000000000               0.000027462               0.003706811              -0.000000000              -0.000453052               0.001386609               0.000933556               0.000000000               0.000000000               0.000000000               0.000000000              -0.000067655               0.003063598               0.000000000              -0.000408319               0.001157296               0.000748976               0.000000000               0.000000000               0.000000000               0.000000000              -0.000120774               0.002386531               0.000000000              -0.000343606               0.000910038               0.000566432               0.000000000               0.000000000               0.000000000               0.000000000              -0.000133257               0.001655878              -0.000000000              -0.000256956               0.000637606               0.000380650               0.000000000               0.000000000               0.000000000               0.000000000              -0.000087952               0.000839204              -0.000000000              -0.000137882               0.000325693               0.000187810               0.000000000               0.000000000               0.000000000               0.000000000              -0.000115011               0.000211334               0.000000000              -0.000069546               0.000093626               0.000024079               0.000000000               0.000000000               0.000000000               0.000000000               0.002182055               0.021835053              -0.001465546              -0.001911107               0.007915314               0.006004207               0.000000000               0.000000000               0.000000000               0.000000000               0.001963524               0.016735741              -0.000637866              -0.001355643               0.006030405               0.004674763               0.000000000               0.000000000               0.000000000               0.000000000               0.002411058               0.012632708               0.000179368              -0.000674940               0.004435841               0.003760900               0.000000000               0.000000000               0.000000000               0.000000000               0.002169732               0.010309686               0.000514692              -0.000475060               0.003594881               0.003119821               0.000000000               0.000000000               0.000000000               0.000000000               0.001760388               0.008831288               0.000639425              -0.000443764               0.003091655               0.002647890               0.000000000               0.000000000               0.000000000               0.000000000               0.001348531               0.007773779               0.000668950              -0.000466022               0.002746574               0.002280552               0.000000000               0.000000000               0.000000000               0.000000000               0.000985899               0.006941591               0.000660062              -0.000497986               0.002479836               0.001981850               0.000000000               0.000000000               0.000000000               0.000000000               0.000684825               0.006238183               0.000634699              -0.000522962               0.002253694               0.001730732               0.000000000               0.000000000               0.000000000               0.000000000               0.000430681               0.005599753               0.000602128              -0.000538463               0.002046053               0.001507591               0.000000000               0.000000000               0.000000000               0.000000000               0.000219079               0.004993124               0.000567454              -0.000541985               0.001845019               0.001303035               0.000000000               0.000000000               0.000000000               0.000000000               0.000052941               0.004393093               0.000526116              -0.000529283               0.001640777               0.001111495               0.000000000               0.000000000               0.000000000               0.000000000              -0.000064971               0.003783423               0.000481568              -0.000497291               0.001426892               0.000929601               0.000000000               0.000000000               0.000000000               0.000000000              -0.000135797               0.003159433               0.000436866              -0.000445852               0.001201751               0.000755899               0.000000000               0.000000000               0.000000000               0.000000000              -0.000165278               0.002510347               0.000381998              -0.000375772               0.000962031               0.000586259               0.000000000               0.000000000               0.000000000               0.000000000              -0.000153452               0.001819169               0.000300896              -0.000284940               0.000701363               0.000416423               0.000000000               0.000000000               0.000000000               0.000000000              -0.000091663               0.001069598               0.000174993              -0.000168073               0.000412553               0.000244480               0.000000000               0.000000000               0.000000000               0.000000000              -0.000107109               0.000509377               0.000110443              -0.000103838               0.000204403               0.000100565               0.000000000               0.000000000               0.000000000               0.000000000               0.002311027               0.020459705              -0.002701111              -0.001690825               0.007383441               0.005692617               0.000000000               0.000000000               0.000000000               0.000000000               0.001751220               0.015880925              -0.001164208              -0.001328405               0.005736390               0.004407985               0.000000000               0.000000000               0.000000000               0.000000000               0.001831763               0.012317043               0.000333426              -0.000852717               0.004389879               0.003537162               0.000000000               0.000000000               0.000000000               0.000000000               0.001462953               0.010263902               0.000922383              -0.000734379               0.003666059               0.002931680               0.000000000               0.000000000               0.000000000               0.000000000               0.001044072               0.008916307               0.001130433              -0.000723010               0.003213076               0.002490066               0.000000000               0.000000000               0.000000000               0.000000000               0.000672848               0.007919924               0.001170604              -0.000737671               0.002885839               0.002148167               0.000000000               0.000000000               0.000000000               0.000000000               0.000372326               0.007114806               0.001146564              -0.000749727               0.002621487               0.001871760               0.000000000               0.000000000               0.000000000               0.000000000               0.000143219               0.006418885               0.001095570              -0.000748652               0.002389157               0.001640505               0.000000000               0.000000000               0.000000000               0.000000000              -0.000030320               0.005782851               0.001032967              -0.000734225               0.002172339               0.001438114               0.000000000               0.000000000               0.000000000               0.000000000              -0.000157388               0.005176171               0.000965873              -0.000706041               0.001960720               0.001254679               0.000000000               0.000000000               0.000000000               0.000000000              -0.000245272               0.004586010               0.000888199              -0.000665227               0.001750397               0.001085170               0.000000000               0.000000000               0.000000000               0.000000000              -0.000293810               0.004004224               0.000806162              -0.000610705               0.001538296               0.000927591               0.000000000               0.000000000               0.000000000               0.000000000              -0.000298901               0.003425612               0.000721187              -0.000540288               0.001321955               0.000781667               0.000000000               0.000000000               0.000000000               0.000000000              -0.000267448               0.002843342               0.000615564              -0.000455710               0.001099674               0.000643965               0.000000000               0.000000000               0.000000000               0.000000000              -0.000202955               0.002256506               0.000470951              -0.000358171               0.000871551               0.000513381               0.000000000               0.000000000               0.000000000               0.000000000              -0.000108033               0.001673316               0.000266150              -0.000249676               0.000640992               0.000391315               0.000000000               0.000000000               0.000000000               0.000000000              -0.000095859               0.001273164               0.000161150              -0.000195092               0.000489414               0.000294322               0.000000000               0.000000000               0.000000000               0.000000000               0.002393479               0.018364103              -0.003533158              -0.001397957               0.006587291               0.005189335               0.000000000               0.000000000               0.000000000               0.000000000               0.001358879               0.014599856              -0.001510733              -0.001315400               0.005305037               0.003989637               0.000000000               0.000000000               0.000000000               0.000000000               0.000933577               0.011843626               0.000424576              -0.001130359               0.004324622               0.003194263               0.000000000               0.000000000               0.000000000               0.000000000               0.000424695               0.010170898               0.001136402              -0.001112099               0.003760965               0.002648866               0.000000000               0.000000000               0.000000000               0.000000000               0.000028005               0.008996470               0.001366010              -0.001114054               0.003370145               0.002256090               0.000000000               0.000000000               0.000000000               0.000000000              -0.000252102               0.008080800               0.001394063              -0.001104636               0.003061785               0.001957149               0.000000000               0.000000000               0.000000000               0.000000000              -0.000438424               0.007313152               0.001348937              -0.001078551               0.002797210               0.001718659               0.000000000               0.000000000               0.000000000               0.000000000              -0.000547096               0.006633545               0.001276617              -0.001034352               0.002555943               0.001521591               0.000000000               0.000000000               0.000000000               0.000000000              -0.000603657               0.006004495               0.001191552              -0.000976931               0.002327122               0.001350191               0.000000000               0.000000000               0.000000000               0.000000000              -0.000619984               0.005405886               0.001103146              -0.000908228               0.002104686               0.001196458               0.000000000               0.000000000               0.000000000               0.000000000              -0.000598798               0.004836993               0.001007058              -0.000829172               0.001888705               0.001059534               0.000000000               0.000000000               0.000000000               0.000000000              -0.000549452               0.004294493               0.000901556              -0.000742854               0.001679101               0.000936247               0.000000000               0.000000000               0.000000000               0.000000000              -0.000470108               0.003776083               0.000788551              -0.000648300               0.001474781               0.000826482               0.000000000               0.000000000               0.000000000               0.000000000              -0.000362945               0.003285713               0.000654802              -0.000546818               0.001277499               0.000730682               0.000000000               0.000000000               0.000000000               0.000000000              -0.000241486               0.002835123               0.000485041              -0.000444947               0.001093347               0.000648400               0.000000000               0.000000000               0.000000000               0.000000000              -0.000119265               0.002443121               0.000266035              -0.000350114               0.000931070               0.000580957               0.000000000               0.000000000               0.000000000               0.000000000              -0.000081832               0.002211190               0.000154743              -0.000307085               0.000839418               0.000532333               0.000000000               0.000000000               0.000000000               0.000000000               0.002287148               0.015802698              -0.003888550              -0.001117657               0.005640065               0.004522408               0.000000000               0.000000000               0.000000000               0.000000000               0.000764997               0.013067124              -0.001669542              -0.001346514               0.004804502               0.003457988               0.000000000               0.000000000               0.000000000               0.000000000              -0.000173467               0.011272350               0.000412642              -0.001474090               0.004248776               0.002774686               0.000000000               0.000000000               0.000000000               0.000000000              -0.000764024               0.010011322               0.001116861              -0.001537921               0.003849714               0.002311793               0.000000000               0.000000000               0.000000000               0.000000000              -0.001081128               0.009021173               0.001317878              -0.001533066               0.003518049               0.001984983               0.000000000               0.000000000               0.000000000               0.000000000              -0.001218933               0.008191108               0.001323546              -0.001480985               0.003224004               0.001743019               0.000000000               0.000000000               0.000000000               0.000000000              -0.001246942               0.007461091               0.001262736              -0.001400236               0.002953751               0.001553514               0.000000000               0.000000000               0.000000000               0.000000000              -0.001202219               0.006796859               0.001182126              -0.001300437               0.002699076               0.001398639               0.000000000               0.000000000               0.000000000               0.000000000              -0.001115968               0.006177536               0.001092344              -0.001190677               0.002456050               0.001265373               0.000000000               0.000000000               0.000000000               0.000000000              -0.001004386               0.005597135               0.000999672              -0.001076284               0.002224454               0.001148170               0.000000000               0.000000000               0.000000000               0.000000000              -0.000871057               0.005054449               0.000903012              -0.000958451               0.002004283               0.001045832               0.000000000               0.000000000               0.000000000               0.000000000              -0.000719492               0.004560013               0.000796054              -0.000839809               0.001799925               0.000960116               0.000000000               0.000000000               0.000000000               0.000000000              -0.000553955               0.004113335               0.000677484              -0.000721898               0.001611731               0.000889832               0.000000000               0.000000000               0.000000000               0.000000000              -0.000387032               0.003717872               0.000541509              -0.000609870               0.001442568               0.000832698               0.000000000               0.000000000               0.000000000               0.000000000              -0.000232302               0.003390140               0.000381748              -0.000510880               0.001300328               0.000789449               0.000000000               0.000000000               0.000000000               0.000000000              -0.000106479               0.003152534               0.000198678              -0.000433995               0.001195499               0.000761504               0.000000000               0.000000000               0.000000000               0.000000000              -0.000060836               0.003044009               0.000107534              -0.000403314               0.001149097               0.000745784               0.000000000               0.000000000               0.000000000               0.000000000               0.001877571               0.013053036              -0.003780992              -0.000927541               0.004660148               0.003732607               0.000000000               0.000000000               0.000000000               0.000000000              -0.000019866               0.011452433              -0.001669287              -0.001439001               0.004297106               0.002858105               0.000000000               0.000000000               0.000000000               0.000000000              -0.001360905               0.010645886               0.000273084              -0.001841071               0.004162283               0.002321213               0.000000000               0.000000000               0.000000000               0.000000000              -0.001918531               0.009768579               0.000870806              -0.001940517               0.003902999               0.001962483               0.000000000               0.000000000               0.000000000               0.000000000              -0.002080744               0.008942120               0.001024478              -0.001898039               0.003613357               0.001715317               0.000000000               0.000000000               0.000000000               0.000000000              -0.002039040               0.008187823               0.001017185              -0.001788113               0.003325285               0.001537171               0.000000000               0.000000000               0.000000000               0.000000000              -0.001887659               0.007496916               0.000959119              -0.001644983               0.003047274               0.001402292               0.000000000               0.000000000               0.000000000               0.000000000              -0.001679517               0.006851358               0.000890616              -0.001486235               0.002779175               0.001292940               0.000000000               0.000000000               0.000000000               0.000000000              -0.001452491               0.006249879               0.000815150              -0.001325916               0.002525244               0.001199328               0.000000000               0.000000000               0.000000000               0.000000000              -0.001221375               0.005692345               0.000736036              -0.001169556               0.002287281               0.001117725               0.000000000               0.000000000               0.000000000               0.000000000              -0.000982878               0.005186027               0.000656993              -0.001016830               0.002067602               0.001050771               0.000000000               0.000000000               0.000000000               0.000000000              -0.000747740               0.004742448               0.000567922              -0.000873206               0.001871869               0.000998662               0.000000000               0.000000000               0.000000000               0.000000000              -0.000527159               0.004359572               0.000460795              -0.000742629               0.001700719               0.000958090               0.000000000               0.000000000               0.000000000               0.000000000              -0.000334977               0.004044011               0.000343590              -0.000631116               0.001558362               0.000927246               0.000000000               0.000000000               0.000000000               0.000000000              -0.000178383               0.003812536               0.000221942              -0.000543459               0.001451986               0.000908526               0.000000000               0.000000000               0.000000000               0.000000000              -0.000069007               0.003679938               0.000104865              -0.000485869               0.001388590               0.000902721               0.000000000               0.000000000               0.000000000               0.000000000              -0.000028223               0.003644363               0.000049224              -0.000466128               0.001370151               0.000904024               0.000000000               0.000000000               0.000000000               0.000000000               0.001090853               0.010352280              -0.003294882              -0.000884966               0.003745713               0.002860748               0.000000000               0.000000000               0.000000000               0.000000000              -0.000957899               0.009888774              -0.001570074              -0.001595306               0.003827993               0.002232687               0.000000000               0.000000000               0.000000000               0.000000000              -0.002501240               0.009982553              -0.000001842              -0.002185779               0.004056077               0.001870299               0.000000000               0.000000000               0.000000000               0.000000000              -0.002894844               0.009423719               0.000444473              -0.002263526               0.003895717               0.001632191               0.000000000               0.000000000               0.000000000               0.000000000              -0.002837714               0.008730540               0.000563630              -0.002155455               0.003628636               0.001473181               0.000000000               0.000000000               0.000000000               0.000000000              -0.002587615               0.008046272               0.000569046              -0.001976135               0.003340776               0.001364641               0.000000000               0.000000000               0.000000000               0.000000000              -0.002257317               0.007393634               0.000536469              -0.001770694               0.003054751               0.001284057               0.000000000               0.000000000               0.000000000               0.000000000              -0.001906760               0.006774767               0.000497006              -0.001561877               0.002778859               0.001216982               0.000000000               0.000000000               0.000000000               0.000000000              -0.001558261               0.006203701               0.000454719              -0.001359807               0.002521149               0.001161342               0.000000000               0.000000000               0.000000000               0.000000000              -0.001229678               0.005681408               0.000405852              -0.001171302               0.002284218               0.001112915               0.000000000               0.000000000               0.000000000               0.000000000              -0.000923244               0.005218231               0.000356887              -0.000998493               0.002072224               0.001073731               0.000000000               0.000000000               0.000000000               0.000000000              -0.000642451               0.004824096               0.000298264              -0.000843929               0.001889325               0.001045397               0.000000000               0.000000000               0.000000000               0.000000000              -0.000401378               0.004503508               0.000223023              -0.000713453               0.001738972               0.001025519               0.000000000               0.000000000               0.000000000               0.000000000              -0.000212640               0.004267493               0.000146257              -0.000613175               0.001626875               0.001013700               0.000000000               0.000000000               0.000000000               0.000000000              -0.000084211               0.004123742               0.000077355              -0.000547046               0.001556915               0.001009870               0.000000000               0.000000000               0.000000000               0.000000000              -0.000018859               0.004069862               0.000027188              -0.000515804               0.001528542               0.001012738               0.000000000               0.000000000               0.000000000               0.000000000               0.000001578               0.004075600               0.000005540              -0.000508857               0.001528139               0.001019282               0.000000000               0.000000000               0.000000000               0.000000000              -0.000035189               0.007859660              -0.002547569              -0.000995653               0.002951744               0.001956091               0.000000000               0.000000000               0.000000000               0.000000000              -0.001985658               0.008464680              -0.001434115              -0.001802703               0.003422433               0.001619729               0.000000000               0.000000000               0.000000000               0.000000000              -0.003476299               0.009281321              -0.000398988              -0.002463771               0.003915000               0.001451228               0.000000000               0.000000000               0.000000000               0.000000000              -0.003600069               0.008964825              -0.000085949              -0.002470623               0.003811786               0.001341163               0.000000000               0.000000000               0.000000000               0.000000000              -0.003291712               0.008393869               0.000032247              -0.002283620               0.003559135               0.001275515               0.000000000               0.000000000               0.000000000               0.000000000              -0.002839718               0.007776657               0.000076649              -0.002036971               0.003271184               0.001234212               0.000000000               0.000000000               0.000000000               0.000000000              -0.002350057               0.007163867               0.000091161              -0.001776750               0.002980182               0.001203432               0.000000000               0.000000000               0.000000000               0.000000000              -0.001880597               0.006585322               0.000099620              -0.001528385               0.002704547               0.001176162               0.000000000               0.000000000               0.000000000               0.000000000              -0.001446829               0.006051193               0.000102848              -0.001298957               0.002450030               0.001151073               0.000000000               0.000000000               0.000000000               0.000000000              -0.001056433               0.005572332               0.000093350              -0.001092701               0.002221659               0.001128958               0.000000000               0.000000000               0.000000000               0.000000000              -0.000716327               0.005164482               0.000080758              -0.000914181               0.002026204               0.001112023               0.000000000               0.000000000               0.000000000               0.000000000              -0.000425342               0.004833587               0.000062928              -0.000763700               0.001865746               0.001102047               0.000000000               0.000000000               0.000000000               0.000000000              -0.000196733               0.004592151               0.000034794              -0.000647792               0.001746633               0.001098840               0.000000000               0.000000000               0.000000000               0.000000000              -0.000041861               0.004449646               0.000008863              -0.000571902               0.001673835               0.001101932               0.000000000               0.000000000               0.000000000               0.000000000               0.000035270               0.004400685              -0.000007761              -0.000536858               0.001645833               0.001108975               0.000000000               0.000000000               0.000000000               0.000000000               0.000041293               0.004422094              -0.000012377              -0.000537275               0.001653108               0.001115833               0.000000000               0.000000000               0.000000000               0.000000000               0.000031405               0.004460901              -0.000015140              -0.000545834               0.001668897               0.001123063               0.000000000               0.000000000               0.000000000               0.000000000              -0.001351330               0.005757035              -0.001658595              -0.001226376               0.002327784               0.001101408               0.000000000               0.000000000               0.000000000               0.000000000              -0.002986413               0.007184842              -0.001297945              -0.002018006               0.003067592               0.001049586               0.000000000               0.000000000               0.000000000               0.000000000              -0.004241648               0.008556045              -0.000878596              -0.002660117               0.003738692               0.001078575               0.000000000               0.000000000               0.000000000               0.000000000              -0.004083841               0.008490777              -0.000645125              -0.002592781               0.003694491               0.001101710               0.000000000               0.000000000               0.000000000               0.000000000              -0.003565743               0.008069682              -0.000499655              -0.002345858               0.003471820               0.001125962               0.000000000               0.000000000               0.000000000               0.000000000              -0.002953405               0.007540930              -0.000400513              -0.002050138               0.003196997               0.001146859               0.000000000               0.000000000               0.000000000               0.000000000              -0.002341073               0.006991559              -0.000324296              -0.001751843               0.002914444               0.001162601               0.000000000               0.000000000               0.000000000               0.000000000              -0.001779057               0.006463690              -0.000262944              -0.001475104               0.002646243               0.001171139               0.000000000               0.000000000               0.000000000               0.000000000              -0.001283996               0.005967432              -0.000216138              -0.001227425               0.002398266               0.001170841               0.000000000               0.000000000               0.000000000               0.000000000              -0.000849168               0.005530682              -0.000181806              -0.001009771               0.002180132               0.001170362               0.000000000               0.000000000               0.000000000               0.000000000              -0.000477742               0.005170182              -0.000151556              -0.000825424               0.001998518               0.001173094               0.000000000               0.000000000               0.000000000               0.000000000              -0.000181205               0.004888656              -0.000119683              -0.000679032               0.001855880               0.001176848               0.000000000               0.000000000               0.000000000               0.000000000               0.000026525               0.004703143              -0.000090874              -0.000577945               0.001760347               0.001182402               0.000000000               0.000000000               0.000000000               0.000000000               0.000141944               0.004625247              -0.000063788              -0.000524926               0.001716709               0.001191783               0.000000000               0.000000000               0.000000000               0.000000000               0.000176934               0.004641394              -0.000038797              -0.000513823               0.001718390               0.001204567               0.000000000               0.000000000               0.000000000               0.000000000               0.000153856               0.004717978              -0.000018067              -0.000532050               0.001749993               0.001217944               0.000000000               0.000000000               0.000000000               0.000000000               0.000124534               0.004773026              -0.000008515              -0.000549926               0.001774301               0.001224375               0.000000000               0.000000000               0.000000000               0.000000000              -0.002862518               0.003816015              -0.000735435              -0.001550443               0.001788806               0.000238363               0.000000000               0.000000000               0.000000000               0.000000000              -0.003838002               0.005686059              -0.001150765              -0.002150003               0.002612002               0.000461999               0.000000000               0.000000000               0.000000000               0.000000000              -0.004715461               0.007457640              -0.001378262              -0.002700496               0.003386020               0.000685524               0.000000000               0.000000000               0.000000000               0.000000000              -0.004401782               0.007774984              -0.001228343              -0.002622535               0.003465814               0.000843279               0.000000000               0.000000000               0.000000000               0.000000000              -0.003800440               0.007623156              -0.001053728              -0.002378054               0.003333711               0.000955657               0.000000000               0.000000000               0.000000000               0.000000000              -0.003136033               0.007295525              -0.000897442              -0.002087948               0.003127800               0.001039852               0.000000000               0.000000000               0.000000000               0.000000000              -0.002485596               0.006897869              -0.000759604              -0.001794328               0.002897376               0.001103048               0.000000000               0.000000000               0.000000000               0.000000000              -0.001882920               0.006480974              -0.000647230              -0.001516213               0.002665707               0.001149494               0.000000000               0.000000000               0.000000000               0.000000000              -0.001346114               0.006073382              -0.000555935              -0.001263963               0.002445761               0.001181799               0.000000000               0.000000000               0.000000000               0.000000000              -0.000874267               0.005701592              -0.000478958              -0.001040546               0.002247360               0.001206814               0.000000000               0.000000000               0.000000000               0.000000000              -0.000470131               0.005379222              -0.000404454              -0.000848700               0.002075956               0.001227256               0.000000000               0.000000000               0.000000000               0.000000000              -0.000138392               0.005118157              -0.000324587              -0.000691665               0.001936590               0.001244925               0.000000000               0.000000000               0.000000000               0.000000000               0.000110076               0.004929544              -0.000241329              -0.000574913               0.001834803               0.001259889               0.000000000               0.000000000               0.000000000               0.000000000               0.000266342               0.004829182              -0.000161674              -0.000503768               0.001777634               0.001273866               0.000000000               0.000000000               0.000000000               0.000000000               0.000335108               0.004816488              -0.000092942              -0.000476394               0.001764278               0.001287884               0.000000000               0.000000000               0.000000000               0.000000000               0.000334909               0.004881462              -0.000038323              -0.000484591               0.001788668               0.001304077               0.000000000               0.000000000               0.000000000               0.000000000               0.000301773               0.004921677              -0.000008400              -0.000502044               0.001807890               0.001305847               0.000000000               0.000000000               0.000000000               0.000000000              -0.004751314               0.002067398               0.000147460              -0.002040164               0.001369178              -0.000670986               0.000000000               0.000000000               0.000000000               0.000000000              -0.004793008               0.004164051              -0.000943917              -0.002317880               0.002160628              -0.000157251               0.000000000               0.000000000               0.000000000               0.000000000              -0.005114760               0.006140376              -0.001777752              -0.002685576               0.002941963               0.000256387               0.000000000               0.000000000               0.000000000               0.000000000              -0.004664031               0.006819843              -0.001778735              -0.002601486               0.003140420               0.000538934               0.000000000               0.000000000               0.000000000               0.000000000              -0.004015298               0.006975723              -0.001606940              -0.002377696               0.003117783               0.000740086               0.000000000               0.000000000               0.000000000               0.000000000              -0.003333651               0.006889791              -0.001412954              -0.002111338               0.003000353               0.000889015               0.000000000               0.000000000               0.000000000               0.000000000              -0.002661182               0.006682133              -0.001230007              -0.001833205               0.002838424               0.001005218               0.000000000               0.000000000               0.000000000               0.000000000              -0.002033508               0.006411141              -0.001071141              -0.001563954               0.002658344               0.001094389               0.000000000               0.000000000               0.000000000               0.000000000              -0.001463806               0.006117318              -0.000937004              -0.001313589               0.002476949               0.001163360               0.000000000               0.000000000               0.000000000               0.000000000              -0.000953487               0.005829535              -0.000819167              -0.001086247               0.002305241               0.001218994               0.000000000               0.000000000               0.000000000               0.000000000              -0.000499931               0.005570277              -0.000707034              -0.000883757               0.002151326               0.001267569               0.000000000               0.000000000               0.000000000               0.000000000              -0.000107079               0.005343226              -0.000590656              -0.000708056               0.002017076               0.001309020               0.000000000               0.000000000               0.000000000               0.000000000               0.000210105               0.005154341              -0.000464718              -0.000565502               0.001906597               0.001341095               0.000000000               0.000000000               0.000000000               0.000000000               0.000443651               0.005022183              -0.000334697              -0.000461403               0.001827845               0.001366442               0.000000000               0.000000000               0.000000000               0.000000000               0.000581984               0.004954271              -0.000207375              -0.000401039               0.001785087               0.001384048               0.000000000               0.000000000               0.000000000               0.000000000               0.000623488               0.004954075              -0.000092559              -0.000385451               0.001779825               0.001394375               0.000000000               0.000000000               0.000000000               0.000000000               0.000598450               0.004955813              -0.000032485              -0.000395057               0.001783607               0.001388550               0.000000000               0.000000000               0.000000000               0.000000000              -0.006883739               0.000666283               0.000898292              -0.002664685               0.001110315              -0.001554370               0.000000000               0.000000000               0.000000000               0.000000000              -0.005884687               0.002734953              -0.000671902              -0.002548622               0.001761180              -0.000787443               0.000000000               0.000000000               0.000000000               0.000000000              -0.005454171               0.004634702              -0.001975019              -0.002624646               0.002419766              -0.000204880               0.000000000               0.000000000               0.000000000               0.000000000              -0.004785921               0.005559597              -0.002165527              -0.002489664               0.002683068               0.000193404               0.000000000               0.000000000               0.000000000               0.000000000              -0.004074197               0.005996646              -0.002044930              -0.002277399               0.002757995               0.000480595               0.000000000               0.000000000               0.000000000               0.000000000              -0.003379274               0.006162838              -0.001850479              -0.002037578               0.002733451               0.000695873               0.000000000               0.000000000               0.000000000               0.000000000              -0.002704643               0.006167419              -0.001648916              -0.001785165               0.002650840               0.000865676               0.000000000               0.000000000               0.000000000               0.000000000              -0.002069587               0.006070609              -0.001460245              -0.001534918               0.002535155               0.001000237               0.000000000               0.000000000               0.000000000               0.000000000              -0.001483906               0.005918959              -0.001294401              -0.001296332               0.002405077               0.001108745               0.000000000               0.000000000               0.000000000               0.000000000              -0.000944762               0.005748252              -0.001148591              -0.001072815               0.002273669               0.001200855               0.000000000               0.000000000               0.000000000               0.000000000              -0.000447144               0.005579913              -0.001014069              -0.000865166               0.002148341               0.001283175               0.000000000               0.000000000               0.000000000               0.000000000               0.000005964               0.005422718              -0.000870629              -0.000675602               0.002032755               0.001357153               0.000000000               0.000000000               0.000000000               0.000000000               0.000399582               0.005276281              -0.000713352              -0.000509691               0.001928640               0.001418949               0.000000000               0.000000000               0.000000000               0.000000000               0.000716678               0.005144890              -0.000544999              -0.000374356               0.001839732               0.001465375               0.000000000               0.000000000               0.000000000               0.000000000               0.000942654               0.005052610              -0.000362662              -0.000278080               0.001776880               0.001498799               0.000000000               0.000000000               0.000000000               0.000000000               0.001060310               0.005010660              -0.000176446              -0.000228716               0.001746442               0.001517726               0.000000000               0.000000000               0.000000000               0.000000000               0.001076811               0.004994700              -0.000082273              -0.000220533               0.001738394               0.001517861               0.000000000               0.000000000               0.000000000               0.000000000              -0.009118515              -0.000311742               0.001397941              -0.003380473               0.001022903              -0.002357570               0.000000000               0.000000000               0.000000000               0.000000000              -0.007054318               0.001481468              -0.000385460              -0.002830549               0.001437329              -0.001393220               0.000000000               0.000000000               0.000000000               0.000000000              -0.005757082               0.003076602              -0.001944311              -0.002543477               0.001873346              -0.000670130               0.000000000               0.000000000               0.000000000               0.000000000              -0.004789678               0.004109548              -0.002300848              -0.002309818               0.002139773              -0.000170045               0.000000000               0.000000000               0.000000000               0.000000000              -0.003978643               0.004762099              -0.002261739              -0.002087249               0.002283099               0.000195850               0.000000000               0.000000000               0.000000000               0.000000000              -0.003261380               0.005159824              -0.002100057              -0.001867992               0.002342587               0.000474595               0.000000000               0.000000000               0.000000000               0.000000000              -0.002598709               0.005376050              -0.001906469              -0.001646519               0.002340838               0.000694319               0.000000000               0.000000000               0.000000000               0.000000000              -0.001971624               0.005462020              -0.001713892              -0.001422109               0.002294691               0.000872582               0.000000000               0.000000000               0.000000000               0.000000000              -0.001379097               0.005470361              -0.001538522              -0.001200954               0.002223753               0.001022799               0.000000000               0.000000000               0.000000000               0.000000000              -0.000819991               0.005438301              -0.001383352              -0.000987283               0.002141843               0.001154560               0.000000000               0.000000000               0.000000000               0.000000000              -0.000293184               0.005380628              -0.001240725              -0.000782521               0.002054365               0.001271844               0.000000000               0.000000000               0.000000000               0.000000000               0.000207782               0.005311911              -0.001091998              -0.000586070               0.001965976               0.001379906               0.000000000               0.000000000               0.000000000               0.000000000               0.000679416               0.005237600              -0.000923035              -0.000399918               0.001879155               0.001479237               0.000000000               0.000000000               0.000000000               0.000000000               0.001096818               0.005160521              -0.000729766              -0.000233758               0.001798076               0.001564317               0.000000000               0.000000000               0.000000000               0.000000000               0.001438990               0.005090526              -0.000507224              -0.000096695               0.001729056               0.001632362               0.000000000               0.000000000               0.000000000               0.000000000               0.001685084               0.005038079              -0.000260577               0.000002146               0.001678627               0.001680774               0.000000000               0.000000000               0.000000000               0.000000000               0.001793725               0.005024372              -0.000138371               0.000044600               0.001659907               0.001704507               0.000000000               0.000000000               0.000000000               0.000000000              -0.011250855              -0.000903109               0.001545379              -0.004106179               0.001067682              -0.003038497               0.000000000               0.000000000               0.000000000               0.000000000              -0.008205389               0.000472758              -0.000150726              -0.003136113               0.001202948              -0.001933164               0.000000000               0.000000000               0.000000000               0.000000000              -0.006028300               0.001629928              -0.001689597              -0.002464350               0.001364750              -0.001099601               0.000000000               0.000000000               0.000000000               0.000000000              -0.004713710               0.002646451              -0.002129223              -0.002098444               0.001581620              -0.000516824               0.000000000               0.000000000               0.000000000               0.000000000              -0.003770700               0.003428863              -0.002164457              -0.001842617               0.001757147              -0.000085470               0.000000000               0.000000000               0.000000000               0.000000000              -0.003015884               0.004000898              -0.002053747              -0.001631065               0.001877307               0.000246242               0.000000000               0.000000000               0.000000000               0.000000000              -0.002357650               0.004400120              -0.001894383              -0.001434131               0.001944735               0.000510604               0.000000000               0.000000000               0.000000000               0.000000000              -0.001746287               0.004663587              -0.001726525              -0.001237804               0.001967114               0.000729310               0.000000000               0.000000000               0.000000000               0.000000000              -0.001161131               0.004834879              -0.001567471              -0.001039782               0.001958204               0.000918422               0.000000000               0.000000000               0.000000000               0.000000000              -0.000595733               0.004947384              -0.001424157              -0.000841821               0.001929718               0.001087897               0.000000000               0.000000000               0.000000000               0.000000000              -0.000044220               0.005015364              -0.001295938              -0.000643502               0.001886272               0.001242769               0.000000000               0.000000000               0.000000000               0.000000000               0.000496254               0.005047616              -0.001165442              -0.000444856               0.001830807               0.001385951               0.000000000               0.000000000               0.000000000               0.000000000               0.001026190               0.005060690              -0.001009433              -0.000247765               0.001769468               0.001521703               0.000000000               0.000000000               0.000000000               0.000000000               0.001540880               0.005067484              -0.000818610              -0.000055606               0.001707680               0.001652074               0.000000000               0.000000000               0.000000000               0.000000000               0.002023472               0.005056545              -0.000589358               0.000126732               0.001643254               0.001769987               0.000000000               0.000000000               0.000000000               0.000000000               0.002453452               0.005028999              -0.000315490               0.000291417               0.001579178               0.001870594               0.000000000               0.000000000               0.000000000               0.000000000               0.002708105               0.005036614              -0.000179460               0.000385959               0.001550202               0.001936160               0.000000000               0.000000000               0.000000000               0.000000000              -0.013034925              -0.001194881               0.001310875              -0.004738734               0.001181276              -0.003557458               0.000000000               0.000000000               0.000000000               0.000000000              -0.009195765              -0.000249679              -0.000014806              -0.003417199               0.001055833              -0.002361366               0.000000000               0.000000000               0.000000000               0.000000000              -0.006258102               0.000453104              -0.001248501              -0.002403424               0.000952169              -0.001451255               0.000000000               0.000000000               0.000000000               0.000000000              -0.004611252               0.001374688              -0.001647308              -0.001901053               0.001091905              -0.000809148               0.000000000               0.000000000               0.000000000               0.000000000              -0.003533271               0.002207984              -0.001714995              -0.001600972               0.001269643              -0.000331329               0.000000000               0.000000000               0.000000000               0.000000000              -0.002727632               0.002890983              -0.001654212              -0.001384232               0.001425061               0.000040829               0.000000000               0.000000000               0.000000000               0.000000000              -0.002057132               0.003433934              -0.001546385              -0.001200664               0.001544854               0.000344190               0.000000000               0.000000000               0.000000000               0.000000000              -0.001455212               0.003851093              -0.001423135              -0.001027089               0.001626048               0.000598958               0.000000000               0.000000000               0.000000000               0.000000000              -0.000886814               0.004163731              -0.001301822              -0.000853020               0.001672236               0.000819216               0.000000000               0.000000000               0.000000000               0.000000000              -0.000324955               0.004401955              -0.001194202              -0.000672102               0.001691337               0.001019236               0.000000000               0.000000000               0.000000000               0.000000000               0.000241966               0.004581703              -0.001099564              -0.000481975               0.001687877               0.001205902               0.000000000               0.000000000               0.000000000               0.000000000               0.000812570               0.004715665              -0.000998737              -0.000284744               0.001666787               0.001382043               0.000000000               0.000000000               0.000000000               0.000000000               0.001394533               0.004824808              -0.000877961              -0.000080152               0.001634970               0.001554819               0.000000000               0.000000000               0.000000000               0.000000000               0.002000671               0.004912290              -0.000730044               0.000136214               0.001592009               0.001728223               0.000000000               0.000000000               0.000000000               0.000000000               0.002628650               0.004969520              -0.000544092               0.000364550               0.001534974               0.001899524               0.000000000               0.000000000               0.000000000               0.000000000               0.003270359               0.004994814              -0.000301394               0.000602027               0.001464246               0.002066273               0.000000000               0.000000000               0.000000000               0.000000000               0.003711705               0.005043322              -0.000179642               0.000761466               0.001427268               0.002188735               0.000000000               0.000000000               0.000000000               0.000000000              -0.014225809              -0.001304480               0.000751422              -0.005171615               0.001289036              -0.003882579               0.000000000               0.000000000               0.000000000               0.000000000              -0.009865992              -0.000676811               0.000023532              -0.003615143               0.000979437              -0.002635706               0.000000000               0.000000000               0.000000000               0.000000000              -0.006415997              -0.000315124              -0.000664097              -0.002366607               0.000683823              -0.001682784               0.000000000               0.000000000               0.000000000               0.000000000              -0.004526606               0.000501097              -0.000901054              -0.001760113               0.000753731              -0.001006382               0.000000000               0.000000000               0.000000000               0.000000000              -0.003340977               0.001339843              -0.000952020              -0.001420345               0.000920056              -0.000500289               0.000000000               0.000000000               0.000000000               0.000000000              -0.002491432               0.002086673              -0.000929701              -0.001195119               0.001093923              -0.000101196               0.000000000               0.000000000               0.000000000               0.000000000              -0.001811148               0.002718127              -0.000877908              -0.001018944               0.001245681               0.000226737               0.000000000               0.000000000               0.000000000               0.000000000              -0.001211839               0.003233710              -0.000811763              -0.000858651               0.001364109               0.000505458               0.000000000               0.000000000               0.000000000               0.000000000              -0.000646829               0.003638485              -0.000745191              -0.000697370               0.001445273               0.000747903               0.000000000               0.000000000               0.000000000               0.000000000              -0.000088632               0.003955077              -0.000688588              -0.000527621               0.001494219               0.000966598               0.000000000               0.000000000               0.000000000               0.000000000               0.000476945               0.004214443              -0.000637789              -0.000347951               0.001520784               0.001172833               0.000000000               0.000000000               0.000000000               0.000000000               0.001062744               0.004432092              -0.000580313              -0.000155483               0.001529177               0.001373694               0.000000000               0.000000000               0.000000000               0.000000000               0.001688154               0.004620409              -0.000513977               0.000055506               0.001521619               0.001577125               0.000000000               0.000000000               0.000000000               0.000000000               0.002366797               0.004776425              -0.000434430               0.000290493               0.001495295               0.001785788               0.000000000               0.000000000               0.000000000               0.000000000               0.003109685               0.004892734              -0.000330391               0.000554535               0.001446050               0.002000585               0.000000000               0.000000000               0.000000000               0.000000000               0.003930446               0.004962581              -0.000187212               0.000853586               0.001369648               0.002223235               0.000000000               0.000000000               0.000000000               0.000000000               0.004540180               0.005046880              -0.000116009               0.001071697               0.001325044               0.002396741               0.000000000               0.000000000               0.000000000               0.000000000               0.000000000               0.000000000               0.000000000               0.000000000               0.000000000               0.000000000               0.000000000               0.000000000               0.000000000               0.000000000               0.000000000               0.000000000               0.000000000               0.000000000               0.000000000               0.000000000               0.000000000               0.000000000               0.000000000               0.000000000               0.000000000               0.000000000               0.000000000               0.000000000               0.000000000               0.000000000               0.000000000               0.000000000               0.000000000               0.000000000               0.000000000               0.000000000               0.000000000               0.000000000               0.000000000               0.000000000               0.000000000               0.000000000               0.000000000               0.000000000               0.000000000               0.000000000               0.000000000               0.000000000               0.000000000               0.000000000               0.000000000               0.000000000               0.000000000               0.000000000               0.000000000               0.000000000               0.000000000               0.000000000               0.000000000               0.000000000               0.000000000               0.000000000               0.000000000               0.000000000               0.000000000               0.000000000               0.000000000               0.000000000               0.000000000               0.000000000               0.000000000               0.000000000               0.000000000               0.000000000               0.000000000               0.000000000               0.000000000               0.000000000               0.000000000               0.000000000               0.000000000               0.000000000               0.000000000               0.000000000               0.000000000               0.000000000               0.000000000               0.000000000               0.000000000               0.000000000               0.000000000               0.000000000               0.000000000               0.000000000               0.000000000               0.000000000               0.000000000               0.000000000               0.000000000               0.000000000               0.000000000               0.000000000               0.000000000               0.000000000               0.000000000               0.000000000               0.000000000               0.000000000               0.000000000               0.000000000               0.000000000               0.000000000               0.000000000               0.000000000               0.000000000               0.000000000               0.000000000               0.000000000               0.000000000               0.000000000               0.000000000               0.000000000               0.000000000               0.000000000               0.000000000               0.000000000               0.000000000               0.000000000               0.000000000               0.000000000               0.000000000               0.000000000               0.000000000               0.000000000               0.000000000               0.000000000               0.000000000               0.000000000               0.000000000               0.000000000               0.000000000               0.000000000               0.000000000               0.000000000               0.000000000               0.000000000               0.000000000               0.000000000               0.000000000               0.000000000               0.000000000               0.000000000               0.000000000               0.000000000               0.000000000               0.000000000               0.000000000               0.000000000               0.000000000               0.000000000               0.000000000               0.000000000               0.000000000               0.000000000               0.000000000               0.000000000               0.000000000               0.000000000               0.000000000               0.000000000               0.000000000               0.000000000               0.000000000               0.000000000               0.000000000               0.000000000               0.000000000               0.000000000               0.000000000               0.000000000               0.000000000               0.000000000               0.000000000               0.000000000               0.000000000               0.000000000               0.000000000               0.000000000               0.000000000               0.000000000               0.000000000               0.000000000               0.000000000               0.000000000               0.000000000               0.000000000               0.000000000               0.000000000               0.000000000               0.000000000               0.000000000               0.000000000               0.000000000               0.000000000               0.000000000               0.000000000               0.000000000               0.000000000               0.000000000               0.000000000               0.000000000               0.000000000               0.000000000               0.000000000               0.000000000               0.000000000               0.000000000               0.000000000               0.000000000               0.000000000               0.000000000               0.000000000               0.000000000               0.000000000               0.000000000               0.000000000               0.000000000               0.000000000               0.000000000               0.000000000               0.000000000               0.000000000               0.000000000               0.000000000               0.000000000               0.000000000               0.000000000               0.000000000               0.000000000               0.000000000               0.000000000               0.000000000               0.000000000               0.000000000               0.000000000               0.000000000               0.000000000               0.000000000               0.000000000               0.000000000               0.000000000               0.000000000               0.000000000               0.000000000               0.000000000               0.000000000               0.000000000               0.000000000               0.000000000               0.000000000               0.000000000               0.000000000               0.000000000               0.000000000               0.000000000               0.000000000               0.000000000               0.000000000               0.000000000               0.000000000               0.000000000               0.000000000               0.000000000               0.000000000               0.000000000               0.000000000               0.000000000               0.000000000               0.000000000               0.000000000               0.000000000               0.000000000               0.000000000               0.000000000               0.000000000               0.000000000               0.000000000               0.000000000               0.000000000               0.000000000               0.000000000               0.000000000               0.000000000               0.000000000               0.000000000               0.000000000               0.000000000               0.000000000               0.000000000               0.000000000               0.000000000               0.000000000               0.000000000               0.000000000               0.000000000               0.000000000               0.000000000               0.000000000               0.000000000               0.000000000               0.000000000               0.000000000               0.000000000               0.000000000               0.000000000               0.000000000               0.000000000               0.000000000               0.000000000               0.000000000               0.000000000               0.000000000               0.000000000               0.000000000               0.000000000               0.000000000               0.000000000               0.000000000               0.000000000               0.000000000               0.000000000               0.000000000               0.000000000               0.000000000               0.000000000               0.000000000               0.000000000               0.000000000               0.000000000               0.000000000               0.000000000               0.000000000               0.000000000               0.000000000               0.002182055               0.021835053               0.001465546              -0.001911107               0.007915314               0.006004207               0.000000000               0.000000000               0.000000000               0.000000000               0.001963524               0.016735741               0.000637866              -0.001355643               0.006030405               0.004674763               0.000000000               0.000000000               0.000000000               0.000000000               0.002411058               0.012632708              -0.000179368              -0.000674940               0.004435841               0.003760900               0.000000000               0.000000000               0.000000000               0.000000000               0.002169732               0.010309686              -0.000514692              -0.000475060               0.003594881               0.003119821               0.000000000               0.000000000               0.000000000               0.000000000               0.001760388               0.008831288              -0.000639425              -0.000443764               0.003091655               0.002647890               0.000000000               0.000000000               0.000000000               0.000000000               0.001348531               0.007773779              -0.000668950              -0.000466022               0.002746574               0.002280552               0.000000000               0.000000000               0.000000000               0.000000000               0.000985899               0.006941591              -0.000660062              -0.000497986               0.002479836               0.001981850               0.000000000               0.000000000               0.000000000               0.000000000               0.000684825               0.006238183              -0.000634699              -0.000522962               0.002253694               0.001730732               0.000000000               0.000000000               0.000000000               0.000000000               0.000430681               0.005599753              -0.000602128              -0.000538463               0.002046053               0.001507591               0.000000000               0.000000000               0.000000000               0.000000000               0.000219079               0.004993124              -0.000567454              -0.000541985               0.001845019               0.001303035               0.000000000               0.000000000               0.000000000               0.000000000               0.000052941               0.004393093              -0.000526116              -0.000529283               0.001640777               0.001111495               0.000000000               0.000000000               0.000000000               0.000000000              -0.000064971               0.003783423              -0.000481568              -0.000497291               0.001426892               0.000929601               0.000000000               0.000000000               0.000000000               0.000000000              -0.000135797               0.003159433              -0.000436866              -0.000445852               0.001201751               0.000755899               0.000000000               0.000000000               0.000000000               0.000000000              -0.000165278               0.002510347              -0.000381998              -0.000375772               0.000962031               0.000586259               0.000000000               0.000000000               0.000000000               0.000000000              -0.000153452               0.001819169              -0.000300896              -0.000284940               0.000701363               0.000416423               0.000000000               0.000000000               0.000000000               0.000000000              -0.000091663               0.001069598              -0.000174993              -0.000168073               0.000412553               0.000244480               0.000000000               0.000000000               0.000000000               0.000000000              -0.000107109               0.000509377              -0.000110443              -0.000103838               0.000204403               0.000100565               0.000000000               0.000000000               0.000000000               0.000000000               0.002311027               0.020459705               0.002701111              -0.001690825               0.007383441               0.005692617               0.000000000               0.000000000               0.000000000               0.000000000               0.001751220               0.015880925               0.001164208              -0.001328405               0.005736390               0.004407985               0.000000000               0.000000000               0.000000000               0.000000000               0.001831763               0.012317043              -0.000333426              -0.000852717               0.004389879               0.003537162               0.000000000               0.000000000               0.000000000               0.000000000               0.001462953               0.010263902              -0.000922383              -0.000734379               0.003666059               0.002931680               0.000000000               0.000000000               0.000000000               0.000000000               0.001044072               0.008916307              -0.001130433              -0.000723010               0.003213076               0.002490066               0.000000000               0.000000000               0.000000000               0.000000000               0.000672848               0.007919924              -0.001170604              -0.000737671               0.002885839               0.002148167               0.000000000               0.000000000               0.000000000               0.000000000               0.000372326               0.007114806              -0.001146564              -0.000749727               0.002621487               0.001871760               0.000000000               0.000000000               0.000000000               0.000000000               0.000143219               0.006418885              -0.001095570              -0.000748652               0.002389157               0.001640505               0.000000000               0.000000000               0.000000000               0.000000000              -0.000030320               0.005782851              -0.001032967              -0.000734225               0.002172339               0.001438114               0.000000000               0.000000000               0.000000000               0.000000000              -0.000157388               0.005176171              -0.000965873              -0.000706041               0.001960720               0.001254679               0.000000000               0.000000000               0.000000000               0.000000000              -0.000245272               0.004586010              -0.000888199              -0.000665227               0.001750397               0.001085170               0.000000000               0.000000000               0.000000000               0.000000000              -0.000293810               0.004004224              -0.000806162              -0.000610705               0.001538296               0.000927591               0.000000000               0.000000000               0.000000000               0.000000000              -0.000298901               0.003425612              -0.000721187              -0.000540288               0.001321955               0.000781667               0.000000000               0.000000000               0.000000000               0.000000000              -0.000267448               0.002843342              -0.000615564              -0.000455710               0.001099674               0.000643965               0.000000000               0.000000000               0.000000000               0.000000000              -0.000202955               0.002256506              -0.000470951              -0.000358171               0.000871551               0.000513381               0.000000000               0.000000000               0.000000000               0.000000000              -0.000108033               0.001673316              -0.000266150              -0.000249676               0.000640992               0.000391315               0.000000000               0.000000000               0.000000000               0.000000000              -0.000095859               0.001273164              -0.000161150              -0.000195092               0.000489414               0.000294322               0.000000000               0.000000000               0.000000000               0.000000000               0.002393479               0.018364103               0.003533158              -0.001397957               0.006587291               0.005189335               0.000000000               0.000000000               0.000000000               0.000000000               0.001358879               0.014599856               0.001510733              -0.001315400               0.005305037               0.003989637               0.000000000               0.000000000               0.000000000               0.000000000               0.000933577               0.011843626              -0.000424576              -0.001130359               0.004324622               0.003194263               0.000000000               0.000000000               0.000000000               0.000000000               0.000424695               0.010170898              -0.001136402              -0.001112099               0.003760965               0.002648866               0.000000000               0.000000000               0.000000000               0.000000000               0.000028005               0.008996470              -0.001366010              -0.001114054               0.003370145               0.002256090               0.000000000               0.000000000               0.000000000               0.000000000              -0.000252102               0.008080800              -0.001394063              -0.001104636               0.003061785               0.001957149               0.000000000               0.000000000               0.000000000               0.000000000              -0.000438424               0.007313152              -0.001348937              -0.001078551               0.002797210               0.001718659               0.000000000               0.000000000               0.000000000               0.000000000              -0.000547096               0.006633545              -0.001276617              -0.001034352               0.002555943               0.001521591               0.000000000               0.000000000               0.000000000               0.000000000              -0.000603657               0.006004495              -0.001191552              -0.000976931               0.002327122               0.001350191               0.000000000               0.000000000               0.000000000               0.000000000              -0.000619984               0.005405886              -0.001103146              -0.000908228               0.002104686               0.001196458               0.000000000               0.000000000               0.000000000               0.000000000              -0.000598798               0.004836993              -0.001007058              -0.000829172               0.001888705               0.001059534               0.000000000               0.000000000               0.000000000               0.000000000              -0.000549452               0.004294493              -0.000901556              -0.000742854               0.001679101               0.000936247               0.000000000               0.000000000               0.000000000               0.000000000              -0.000470108               0.003776083              -0.000788551              -0.000648300               0.001474781               0.000826482               0.000000000               0.000000000               0.000000000               0.000000000              -0.000362945               0.003285713              -0.000654802              -0.000546818               0.001277499               0.000730682               0.000000000               0.000000000               0.000000000               0.000000000              -0.000241486               0.002835123              -0.000485041              -0.000444947               0.001093347               0.000648400               0.000000000               0.000000000               0.000000000               0.000000000              -0.000119265               0.002443121              -0.000266035              -0.000350114               0.000931070               0.000580957               0.000000000               0.000000000               0.000000000               0.000000000              -0.000081832               0.002211190              -0.000154743              -0.000307085               0.000839418               0.000532333               0.000000000               0.000000000               0.000000000               0.000000000               0.002287148               0.015802698               0.003888550              -0.001117657               0.005640065               0.004522408               0.000000000               0.000000000               0.000000000               0.000000000               0.000764997               0.013067124               0.001669542              -0.001346514               0.004804502               0.003457988               0.000000000               0.000000000               0.000000000               0.000000000              -0.000173467               0.011272350              -0.000412642              -0.001474090               0.004248776               0.002774686               0.000000000               0.000000000               0.000000000               0.000000000              -0.000764024               0.010011322              -0.001116861              -0.001537921               0.003849714               0.002311793               0.000000000               0.000000000               0.000000000               0.000000000              -0.001081128               0.009021173              -0.001317878              -0.001533066               0.003518049               0.001984983               0.000000000               0.000000000               0.000000000               0.000000000              -0.001218933               0.008191108              -0.001323546              -0.001480985               0.003224004               0.001743019               0.000000000               0.000000000               0.000000000               0.000000000              -0.001246942               0.007461091              -0.001262736              -0.001400236               0.002953751               0.001553514               0.000000000               0.000000000               0.000000000               0.000000000              -0.001202219               0.006796859              -0.001182126              -0.001300437               0.002699076               0.001398639               0.000000000               0.000000000               0.000000000               0.000000000              -0.001115968               0.006177536              -0.001092344              -0.001190677               0.002456050               0.001265373               0.000000000               0.000000000               0.000000000               0.000000000              -0.001004386               0.005597135              -0.000999672              -0.001076284               0.002224454               0.001148170               0.000000000               0.000000000               0.000000000               0.000000000              -0.000871057               0.005054449              -0.000903012              -0.000958451               0.002004283               0.001045832               0.000000000               0.000000000               0.000000000               0.000000000              -0.000719492               0.004560013              -0.000796054              -0.000839809               0.001799925               0.000960116               0.000000000               0.000000000               0.000000000               0.000000000              -0.000553955               0.004113335              -0.000677484              -0.000721898               0.001611731               0.000889832               0.000000000               0.000000000               0.000000000               0.000000000              -0.000387032               0.003717872              -0.000541509              -0.000609870               0.001442568               0.000832698               0.000000000               0.000000000               0.000000000               0.000000000              -0.000232302               0.003390140              -0.000381748              -0.000510880               0.001300328               0.000789449               0.000000000               0.000000000               0.000000000               0.000000000              -0.000106479               0.003152534              -0.000198678              -0.000433995               0.001195499               0.000761504               0.000000000               0.000000000               0.000000000               0.000000000              -0.000060836               0.003044009              -0.000107534              -0.000403314               0.001149097               0.000745784               0.000000000               0.000000000               0.000000000               0.000000000               0.001877571               0.013053036               0.003780992              -0.000927541               0.004660148               0.003732607               0.000000000               0.000000000               0.000000000               0.000000000              -0.000019866               0.011452433               0.001669287              -0.001439001               0.004297106               0.002858105               0.000000000               0.000000000               0.000000000               0.000000000              -0.001360905               0.010645886              -0.000273084              -0.001841071               0.004162283               0.002321213               0.000000000               0.000000000               0.000000000               0.000000000              -0.001918531               0.009768579              -0.000870806              -0.001940517               0.003902999               0.001962483               0.000000000               0.000000000               0.000000000               0.000000000              -0.002080744               0.008942120              -0.001024478              -0.001898039               0.003613357               0.001715317               0.000000000               0.000000000               0.000000000               0.000000000              -0.002039040               0.008187823              -0.001017185              -0.001788113               0.003325285               0.001537171               0.000000000               0.000000000               0.000000000               0.000000000              -0.001887659               0.007496916              -0.000959119              -0.001644983               0.003047274               0.001402292               0.000000000               0.000000000               0.000000000               0.000000000              -0.001679517               0.006851358              -0.000890616              -0.001486235               0.002779175               0.001292940               0.000000000               0.000000000               0.000000000               0.000000000              -0.001452491               0.006249879              -0.000815150              -0.001325916               0.002525244               0.001199328               0.000000000               0.000000000               0.000000000               0.000000000              -0.001221375               0.005692345              -0.000736036              -0.001169556               0.002287281               0.001117725               0.000000000               0.000000000               0.000000000               0.000000000              -0.000982878               0.005186027              -0.000656993              -0.001016830               0.002067602               0.001050771               0.000000000               0.000000000               0.000000000               0.000000000              -0.000747740               0.004742448              -0.000567922              -0.000873206               0.001871869               0.000998662               0.000000000               0.000000000               0.000000000               0.000000000              -0.000527159               0.004359572              -0.000460795              -0.000742629               0.001700719               0.000958090               0.000000000               0.000000000               0.000000000               0.000000000              -0.000334977               0.004044011              -0.000343590              -0.000631116               0.001558362               0.000927246               0.000000000               0.000000000               0.000000000               0.000000000              -0.000178383               0.003812536              -0.000221942              -0.000543459               0.001451986               0.000908526               0.000000000               0.000000000               0.000000000               0.000000000              -0.000069007               0.003679938              -0.000104865              -0.000485869               0.001388590               0.000902721               0.000000000               0.000000000               0.000000000               0.000000000              -0.000028223               0.003644363              -0.000049224              -0.000466128               0.001370151               0.000904024               0.000000000               0.000000000               0.000000000               0.000000000               0.001090853               0.010352280               0.003294882              -0.000884966               0.003745713               0.002860748               0.000000000               0.000000000               0.000000000               0.000000000              -0.000957899               0.009888774               0.001570074              -0.001595306               0.003827993               0.002232687               0.000000000               0.000000000               0.000000000               0.000000000              -0.002501240               0.009982553               0.000001842              -0.002185779               0.004056077               0.001870299               0.000000000               0.000000000               0.000000000               0.000000000              -0.002894844               0.009423719              -0.000444473              -0.002263526               0.003895717               0.001632191               0.000000000               0.000000000               0.000000000               0.000000000              -0.002837714               0.008730540              -0.000563630              -0.002155455               0.003628636               0.001473181               0.000000000               0.000000000               0.000000000               0.000000000              -0.002587615               0.008046272              -0.000569046              -0.001976135               0.003340776               0.001364641               0.000000000               0.000000000               0.000000000               0.000000000              -0.002257317               0.007393634              -0.000536469              -0.001770694               0.003054751               0.001284057               0.000000000               0.000000000               0.000000000               0.000000000              -0.001906760               0.006774767              -0.000497006              -0.001561877               0.002778859               0.001216982               0.000000000               0.000000000               0.000000000               0.000000000              -0.001558261               0.006203701              -0.000454719              -0.001359807               0.002521149               0.001161342               0.000000000               0.000000000               0.000000000               0.000000000              -0.001229678               0.005681408              -0.000405852              -0.001171302               0.002284218               0.001112915               0.000000000               0.000000000               0.000000000               0.000000000              -0.000923244               0.005218231              -0.000356887              -0.000998493               0.002072224               0.001073731               0.000000000               0.000000000               0.000000000               0.000000000              -0.000642451               0.004824096              -0.000298264              -0.000843929               0.001889325               0.001045397               0.000000000               0.000000000               0.000000000               0.000000000              -0.000401378               0.004503508              -0.000223023              -0.000713453               0.001738972               0.001025519               0.000000000               0.000000000               0.000000000               0.000000000              -0.000212640               0.004267493              -0.000146257              -0.000613175               0.001626875               0.001013700               0.000000000               0.000000000               0.000000000               0.000000000              -0.000084211               0.004123742              -0.000077355              -0.000547046               0.001556915               0.001009870               0.000000000               0.000000000               0.000000000               0.000000000              -0.000018859               0.004069862              -0.000027188              -0.000515804               0.001528542               0.001012738               0.000000000               0.000000000               0.000000000               0.000000000               0.000001578               0.004075600              -0.000005540              -0.000508857               0.001528139               0.001019282               0.000000000               0.000000000               0.000000000               0.000000000              -0.000035189               0.007859660               0.002547569              -0.000995653               0.002951744               0.001956091               0.000000000               0.000000000               0.000000000               0.000000000              -0.001985658               0.008464680               0.001434115              -0.001802703               0.003422433               0.001619729               0.000000000               0.000000000               0.000000000               0.000000000              -0.003476299               0.009281321               0.000398988              -0.002463771               0.003915000               0.001451228               0.000000000               0.000000000               0.000000000               0.000000000              -0.003600069               0.008964825               0.000085949              -0.002470623               0.003811786               0.001341163               0.000000000               0.000000000               0.000000000               0.000000000              -0.003291712               0.008393869              -0.000032247              -0.002283620               0.003559135               0.001275515               0.000000000               0.000000000               0.000000000               0.000000000              -0.002839718               0.007776657              -0.000076649              -0.002036971               0.003271184               0.001234212               0.000000000               0.000000000               0.000000000               0.000000000              -0.002350057               0.007163867              -0.000091161              -0.001776750               0.002980182               0.001203432               0.000000000               0.000000000               0.000000000               0.000000000              -0.001880597               0.006585322              -0.000099620              -0.001528385               0.002704547               0.001176162               0.000000000               0.000000000               0.000000000               0.000000000              -0.001446829               0.006051193              -0.000102848              -0.001298957               0.002450030               0.001151073               0.000000000               0.000000000               0.000000000               0.000000000              -0.001056433               0.005572332              -0.000093350              -0.001092701               0.002221659               0.001128958               0.000000000               0.000000000               0.000000000               0.000000000              -0.000716327               0.005164482              -0.000080758              -0.000914181               0.002026204               0.001112023               0.000000000               0.000000000               0.000000000               0.000000000              -0.000425342               0.004833587              -0.000062928              -0.000763700               0.001865746               0.001102047               0.000000000               0.000000000               0.000000000               0.000000000              -0.000196733               0.004592151              -0.000034794              -0.000647792               0.001746633               0.001098840               0.000000000               0.000000000               0.000000000               0.000000000              -0.000041861               0.004449646              -0.000008863              -0.000571902               0.001673835               0.001101932               0.000000000               0.000000000               0.000000000               0.000000000               0.000035270               0.004400685               0.000007761              -0.000536858               0.001645833               0.001108975               0.000000000               0.000000000               0.000000000               0.000000000               0.000041293               0.004422094               0.000012377              -0.000537275               0.001653108               0.001115833               0.000000000               0.000000000               0.000000000               0.000000000               0.000031405               0.004460901               0.000015140              -0.000545834               0.001668897               0.001123063               0.000000000               0.000000000               0.000000000               0.000000000              -0.001351330               0.005757035               0.001658595              -0.001226376               0.002327784               0.001101408               0.000000000               0.000000000               0.000000000               0.000000000              -0.002986413               0.007184842               0.001297945              -0.002018006               0.003067592               0.001049586               0.000000000               0.000000000               0.000000000               0.000000000              -0.004241648               0.008556045               0.000878596              -0.002660117               0.003738692               0.001078575               0.000000000               0.000000000               0.000000000               0.000000000              -0.004083841               0.008490777               0.000645125              -0.002592781               0.003694491               0.001101710               0.000000000               0.000000000               0.000000000               0.000000000              -0.003565743               0.008069682               0.000499655              -0.002345858               0.003471820               0.001125962               0.000000000               0.000000000               0.000000000               0.000000000              -0.002953405               0.007540930               0.000400513              -0.002050138               0.003196997               0.001146859               0.000000000               0.000000000               0.000000000               0.000000000              -0.002341073               0.006991559               0.000324296              -0.001751843               0.002914444               0.001162601               0.000000000               0.000000000               0.000000000               0.000000000              -0.001779057               0.006463690               0.000262944              -0.001475104               0.002646243               0.001171139               0.000000000               0.000000000               0.000000000               0.000000000              -0.001283996               0.005967432               0.000216138              -0.001227425               0.002398266               0.001170841               0.000000000               0.000000000               0.000000000               0.000000000              -0.000849168               0.005530682               0.000181806              -0.001009771               0.002180132               0.001170362               0.000000000               0.000000000               0.000000000               0.000000000              -0.000477742               0.005170182               0.000151556              -0.000825424               0.001998518               0.001173094               0.000000000               0.000000000               0.000000000               0.000000000              -0.000181205               0.004888656               0.000119683              -0.000679032               0.001855880               0.001176848               0.000000000               0.000000000               0.000000000               0.000000000               0.000026525               0.004703143               0.000090874              -0.000577945               0.001760347               0.001182402               0.000000000               0.000000000               0.000000000               0.000000000               0.000141944               0.004625247               0.000063788              -0.000524926               0.001716709               0.001191783               0.000000000               0.000000000               0.000000000               0.000000000               0.000176934               0.004641394               0.000038797              -0.000513823               0.001718390               0.001204567               0.000000000               0.000000000               0.000000000               0.000000000               0.000153856               0.004717978               0.000018067              -0.000532050               0.001749993               0.001217944               0.000000000               0.000000000               0.000000000               0.000000000               0.000124534               0.004773026               0.000008515              -0.000549926               0.001774301               0.001224375               0.000000000               0.000000000               0.000000000               0.000000000              -0.002862518               0.003816015               0.000735435              -0.001550443               0.001788806               0.000238363               0.000000000               0.000000000               0.000000000               0.000000000              -0.003838002               0.005686059               0.001150765              -0.002150003               0.002612002               0.000461999               0.000000000               0.000000000               0.000000000               0.000000000              -0.004715461               0.007457640               0.001378262              -0.002700496               0.003386020               0.000685524               0.000000000               0.000000000               0.000000000               0.000000000              -0.004401782               0.007774984               0.001228343              -0.002622535               0.003465814               0.000843279               0.000000000               0.000000000               0.000000000               0.000000000              -0.003800440               0.007623156               0.001053728              -0.002378054               0.003333711               0.000955657               0.000000000               0.000000000               0.000000000               0.000000000              -0.003136033               0.007295525               0.000897442              -0.002087948               0.003127800               0.001039852               0.000000000               0.000000000               0.000000000               0.000000000              -0.002485596               0.006897869               0.000759604              -0.001794328               0.002897376               0.001103048               0.000000000               0.000000000               0.000000000               0.000000000              -0.001882920               0.006480974               0.000647230              -0.001516213               0.002665707               0.001149494               0.000000000               0.000000000               0.000000000               0.000000000              -0.001346114               0.006073382               0.000555935              -0.001263963               0.002445761               0.001181799               0.000000000               0.000000000               0.000000000               0.000000000              -0.000874267               0.005701592               0.000478958              -0.001040546               0.002247360               0.001206814               0.000000000               0.000000000               0.000000000               0.000000000              -0.000470131               0.005379222               0.000404454              -0.000848700               0.002075956               0.001227256               0.000000000               0.000000000               0.000000000               0.000000000              -0.000138392               0.005118157               0.000324587              -0.000691665               0.001936590               0.001244925               0.000000000               0.000000000               0.000000000               0.000000000               0.000110076               0.004929544               0.000241329              -0.000574913               0.001834803               0.001259889               0.000000000               0.000000000               0.000000000               0.000000000               0.000266342               0.004829182               0.000161674              -0.000503768               0.001777634               0.001273866               0.000000000               0.000000000               0.000000000               0.000000000               0.000335108               0.004816488               0.000092942              -0.000476394               0.001764278               0.001287884               0.000000000               0.000000000               0.000000000               0.000000000               0.000334909               0.004881462               0.000038323              -0.000484591               0.001788668               0.001304077               0.000000000               0.000000000               0.000000000               0.000000000               0.000301773               0.004921677               0.000008400              -0.000502044               0.001807890               0.001305847               0.000000000               0.000000000               0.000000000               0.000000000              -0.004751314               0.002067398              -0.000147460              -0.002040164               0.001369178              -0.000670986               0.000000000               0.000000000               0.000000000               0.000000000              -0.004793008               0.004164051               0.000943917              -0.002317880               0.002160628              -0.000157251               0.000000000               0.000000000               0.000000000               0.000000000              -0.005114760               0.006140376               0.001777752              -0.002685576               0.002941963               0.000256387               0.000000000               0.000000000               0.000000000               0.000000000              -0.004664031               0.006819843               0.001778735              -0.002601486               0.003140420               0.000538934               0.000000000               0.000000000               0.000000000               0.000000000              -0.004015298               0.006975723               0.001606940              -0.002377696               0.003117783               0.000740086               0.000000000               0.000000000               0.000000000               0.000000000              -0.003333651               0.006889791               0.001412954              -0.002111338               0.003000353               0.000889015               0.000000000               0.000000000               0.000000000               0.000000000              -0.002661182               0.006682133               0.001230007              -0.001833205               0.002838424               0.001005218               0.000000000               0.000000000               0.000000000               0.000000000              -0.002033508               0.006411141               0.001071141              -0.001563954               0.002658344               0.001094389               0.000000000               0.000000000               0.000000000               0.000000000              -0.001463806               0.006117318               0.000937004              -0.001313589               0.002476949               0.001163360               0.000000000               0.000000000               0.000000000               0.000000000              -0.000953487               0.005829535               0.000819167              -0.001086247               0.002305241               0.001218994               0.000000000               0.000000000               0.000000000               0.000000000              -0.000499931               0.005570277               0.000707034              -0.000883757               0.002151326               0.001267569               0.000000000               0.000000000               0.000000000               0.000000000              -0.000107079               0.005343226               0.000590656              -0.000708056               0.002017076               0.001309020               0.000000000               0.000000000               0.000000000               0.000000000               0.000210105               0.005154341               0.000464718              -0.000565502               0.001906597               0.001341095               0.000000000               0.000000000               0.000000000               0.000000000               0.000443651               0.005022183               0.000334697              -0.000461403               0.001827845               0.001366442               0.000000000               0.000000000               0.000000000               0.000000000               0.000581984               0.004954271               0.000207375              -0.000401039               0.001785087               0.001384048               0.000000000               0.000000000               0.000000000               0.000000000               0.000623488               0.004954075               0.000092559              -0.000385451               0.001779825               0.001394375               0.000000000               0.000000000               0.000000000               0.000000000               0.000598450               0.004955813               0.000032485              -0.000395057               0.001783607               0.001388550               0.000000000               0.000000000               0.000000000               0.000000000              -0.006883739               0.000666283              -0.000898292              -0.002664685               0.001110315              -0.001554370               0.000000000               0.000000000               0.000000000               0.000000000              -0.005884687               0.002734953               0.000671902              -0.002548622               0.001761180              -0.000787443               0.000000000               0.000000000               0.000000000               0.000000000              -0.005454171               0.004634702               0.001975019              -0.002624646               0.002419766              -0.000204880               0.000000000               0.000000000               0.000000000               0.000000000              -0.004785921               0.005559597               0.002165527              -0.002489664               0.002683068               0.000193404               0.000000000               0.000000000               0.000000000               0.000000000              -0.004074197               0.005996646               0.002044930              -0.002277399               0.002757995               0.000480595               0.000000000               0.000000000               0.000000000               0.000000000              -0.003379274               0.006162838               0.001850479              -0.002037578               0.002733451               0.000695873               0.000000000               0.000000000               0.000000000               0.000000000              -0.002704643               0.006167419               0.001648916              -0.001785165               0.002650840               0.000865676               0.000000000               0.000000000               0.000000000               0.000000000              -0.002069587               0.006070609               0.001460245              -0.001534918               0.002535155               0.001000237               0.000000000               0.000000000               0.000000000               0.000000000              -0.001483906               0.005918959               0.001294401              -0.001296332               0.002405077               0.001108745               0.000000000               0.000000000               0.000000000               0.000000000              -0.000944762               0.005748252               0.001148591              -0.001072815               0.002273669               0.001200855               0.000000000               0.000000000               0.000000000               0.000000000              -0.000447144               0.005579913               0.001014069              -0.000865166               0.002148341               0.001283175               0.000000000               0.000000000               0.000000000               0.000000000               0.000005964               0.005422718               0.000870629              -0.000675602               0.002032755               0.001357153               0.000000000               0.000000000               0.000000000               0.000000000               0.000399582               0.005276281               0.000713352              -0.000509691               0.001928640               0.001418949               0.000000000               0.000000000               0.000000000               0.000000000               0.000716678               0.005144890               0.000544999              -0.000374356               0.001839732               0.001465375               0.000000000               0.000000000               0.000000000               0.000000000               0.000942654               0.005052610               0.000362662              -0.000278080               0.001776880               0.001498799               0.000000000               0.000000000               0.000000000               0.000000000               0.001060310               0.005010660               0.000176446              -0.000228716               0.001746442               0.001517726               0.000000000               0.000000000               0.000000000               0.000000000               0.001076811               0.004994700               0.000082273              -0.000220533               0.001738394               0.001517861               0.000000000               0.000000000               0.000000000               0.000000000              -0.009118515              -0.000311742              -0.001397941              -0.003380473               0.001022903              -0.002357570               0.000000000               0.000000000               0.000000000               0.000000000              -0.007054318               0.001481468               0.000385460              -0.002830549               0.001437329              -0.001393220               0.000000000               0.000000000               0.000000000               0.000000000              -0.005757082               0.003076602               0.001944311              -0.002543477               0.001873346              -0.000670130               0.000000000               0.000000000               0.000000000               0.000000000              -0.004789678               0.004109548               0.002300848              -0.002309818               0.002139773              -0.000170045               0.000000000               0.000000000               0.000000000               0.000000000              -0.003978643               0.004762099               0.002261739              -0.002087249               0.002283099               0.000195850               0.000000000               0.000000000               0.000000000               0.000000000              -0.003261380               0.005159824               0.002100057              -0.001867992               0.002342587               0.000474595               0.000000000               0.000000000               0.000000000               0.000000000              -0.002598709               0.005376050               0.001906469              -0.001646519               0.002340838               0.000694319               0.000000000               0.000000000               0.000000000               0.000000000              -0.001971624               0.005462020               0.001713892              -0.001422109               0.002294691               0.000872582               0.000000000               0.000000000               0.000000000               0.000000000              -0.001379097               0.005470361               0.001538522              -0.001200954               0.002223753               0.001022799               0.000000000               0.000000000               0.000000000               0.000000000              -0.000819991               0.005438301               0.001383352              -0.000987283               0.002141843               0.001154560               0.000000000               0.000000000               0.000000000               0.000000000              -0.000293184               0.005380628               0.001240725              -0.000782521               0.002054365               0.001271844               0.000000000               0.000000000               0.000000000               0.000000000               0.000207782               0.005311911               0.001091998              -0.000586070               0.001965976               0.001379906               0.000000000               0.000000000               0.000000000               0.000000000               0.000679416               0.005237600               0.000923035              -0.000399918               0.001879155               0.001479237               0.000000000               0.000000000               0.000000000               0.000000000               0.001096818               0.005160521               0.000729766              -0.000233758               0.001798076               0.001564317               0.000000000               0.000000000               0.000000000               0.000000000               0.001438990               0.005090526               0.000507224              -0.000096695               0.001729056               0.001632362               0.000000000               0.000000000               0.000000000               0.000000000               0.001685084               0.005038079               0.000260577               0.000002146               0.001678627               0.001680774               0.000000000               0.000000000               0.000000000               0.000000000               0.001793725               0.005024372               0.000138371               0.000044600               0.001659907               0.001704507               0.000000000               0.000000000               0.000000000               0.000000000              -0.011250855              -0.000903109              -0.001545379              -0.004106179               0.001067682              -0.003038497               0.000000000               0.000000000               0.000000000               0.000000000              -0.008205389               0.000472758               0.000150726              -0.003136113               0.001202948              -0.001933164               0.000000000               0.000000000               0.000000000               0.000000000              -0.006028300               0.001629928               0.001689597              -0.002464350               0.001364750              -0.001099601               0.000000000               0.000000000               0.000000000               0.000000000              -0.004713710               0.002646451               0.002129223              -0.002098444               0.001581620              -0.000516824               0.000000000               0.000000000               0.000000000               0.000000000              -0.003770700               0.003428863               0.002164457              -0.001842617               0.001757147              -0.000085470               0.000000000               0.000000000               0.000000000               0.000000000              -0.003015884               0.004000898               0.002053747              -0.001631065               0.001877307               0.000246242               0.000000000               0.000000000               0.000000000               0.000000000              -0.002357650               0.004400120               0.001894383              -0.001434131               0.001944735               0.000510604               0.000000000               0.000000000               0.000000000               0.000000000              -0.001746287               0.004663587               0.001726525              -0.001237804               0.001967114               0.000729310               0.000000000               0.000000000               0.000000000               0.000000000              -0.001161131               0.004834879               0.001567471              -0.001039782               0.001958204               0.000918422               0.000000000               0.000000000               0.000000000               0.000000000              -0.000595733               0.004947384               0.001424157              -0.000841821               0.001929718               0.001087897               0.000000000               0.000000000               0.000000000               0.000000000              -0.000044220               0.005015364               0.001295938              -0.000643502               0.001886272               0.001242769               0.000000000               0.000000000               0.000000000               0.000000000               0.000496254               0.005047616               0.001165442              -0.000444856               0.001830807               0.001385951               0.000000000               0.000000000               0.000000000               0.000000000               0.001026190               0.005060690               0.001009433              -0.000247765               0.001769468               0.001521703               0.000000000               0.000000000               0.000000000               0.000000000               0.001540880               0.005067484               0.000818610              -0.000055606               0.001707680               0.001652074               0.000000000               0.000000000               0.000000000               0.000000000               0.002023472               0.005056545               0.000589358               0.000126732               0.001643254               0.001769987               0.000000000               0.000000000               0.000000000               0.000000000               0.002453452               0.005028999               0.000315490               0.000291417               0.001579178               0.001870594               0.000000000               0.000000000               0.000000000               0.000000000               0.002708105               0.005036614               0.000179460               0.000385959               0.001550202               0.001936160               0.000000000               0.000000000               0.000000000               0.000000000              -0.013034925              -0.001194881              -0.001310875              -0.004738734               0.001181276              -0.003557458               0.000000000               0.000000000               0.000000000               0.000000000              -0.009195765              -0.000249679               0.000014806              -0.003417199               0.001055833              -0.002361366               0.000000000               0.000000000               0.000000000               0.000000000              -0.006258102               0.000453104               0.001248501              -0.002403424               0.000952169              -0.001451255               0.000000000               0.000000000               0.000000000               0.000000000              -0.004611252               0.001374688               0.001647308              -0.001901053               0.001091905              -0.000809148               0.000000000               0.000000000               0.000000000               0.000000000              -0.003533271               0.002207984               0.001714995              -0.001600972               0.001269643              -0.000331329               0.000000000               0.000000000               0.000000000               0.000000000              -0.002727632               0.002890983               0.001654212              -0.001384232               0.001425061               0.000040829               0.000000000               0.000000000               0.000000000               0.000000000              -0.002057132               0.003433934               0.001546385              -0.001200664               0.001544854               0.000344190               0.000000000               0.000000000               0.000000000               0.000000000              -0.001455212               0.003851093               0.001423135              -0.001027089               0.001626048               0.000598958               0.000000000               0.000000000               0.000000000               0.000000000              -0.000886814               0.004163731               0.001301822              -0.000853020               0.001672236               0.000819216               0.000000000               0.000000000               0.000000000               0.000000000              -0.000324955               0.004401955               0.001194202              -0.000672102               0.001691337               0.001019236               0.000000000               0.000000000               0.000000000               0.000000000               0.000241966               0.004581703               0.001099564              -0.000481975               0.001687877               0.001205902               0.000000000               0.000000000               0.000000000               0.000000000               0.000812570               0.004715665               0.000998737              -0.000284744               0.001666787               0.001382043               0.000000000               0.000000000               0.000000000               0.000000000               0.001394533               0.004824808               0.000877961              -0.000080152               0.001634970               0.001554819               0.000000000               0.000000000               0.000000000               0.000000000               0.002000671               0.004912290               0.000730044               0.000136214               0.001592009               0.001728223               0.000000000               0.000000000               0.000000000               0.000000000               0.002628650               0.004969520               0.000544092               0.000364550               0.001534974               0.001899524               0.000000000               0.000000000               0.000000000               0.000000000               0.003270359               0.004994814               0.000301394               0.000602027               0.001464246               0.002066273               0.000000000               0.000000000               0.000000000               0.000000000               0.003711705               0.005043322               0.000179642               0.000761466               0.001427268               0.002188735               0.000000000               0.000000000               0.000000000               0.000000000              -0.014225809              -0.001304480              -0.000751422              -0.005171615               0.001289036              -0.003882579               0.000000000               0.000000000               0.000000000               0.000000000              -0.009865992              -0.000676811              -0.000023532              -0.003615143               0.000979437              -0.002635706               0.000000000               0.000000000               0.000000000               0.000000000              -0.006415997              -0.000315124               0.000664097              -0.002366607               0.000683823              -0.001682784               0.000000000               0.000000000               0.000000000               0.000000000              -0.004526606               0.000501097               0.000901054              -0.001760113               0.000753731              -0.001006382               0.000000000               0.000000000               0.000000000               0.000000000              -0.003340977               0.001339843               0.000952020              -0.001420345               0.000920056              -0.000500289               0.000000000               0.000000000               0.000000000               0.000000000              -0.002491432               0.002086673               0.000929701              -0.001195119               0.001093923              -0.000101196               0.000000000               0.000000000               0.000000000               0.000000000              -0.001811148               0.002718127               0.000877908              -0.001018944               0.001245681               0.000226737               0.000000000               0.000000000               0.000000000               0.000000000              -0.001211839               0.003233710               0.000811763              -0.000858651               0.001364109               0.000505458               0.000000000               0.000000000               0.000000000               0.000000000              -0.000646829               0.003638485               0.000745191              -0.000697370               0.001445273               0.000747903               0.000000000               0.000000000               0.000000000               0.000000000              -0.000088632               0.003955077               0.000688588              -0.000527621               0.001494219               0.000966598               0.000000000               0.000000000               0.000000000               0.000000000               0.000476945               0.004214443               0.000637789              -0.000347951               0.001520784               0.001172833               0.000000000               0.000000000               0.000000000               0.000000000               0.001062744               0.004432092               0.000580313              -0.000155483               0.001529177               0.001373694               0.000000000               0.000000000               0.000000000               0.000000000               0.001688154               0.004620409               0.000513977               0.000055506               0.001521619               0.001577125               0.000000000               0.000000000               0.000000000               0.000000000               0.002366797               0.004776425               0.000434430               0.000290493               0.001495295               0.001785788               0.000000000               0.000000000               0.000000000               0.000000000               0.003109685               0.004892734               0.000330391               0.000554535               0.001446050               0.002000585               0.000000000               0.000000000               0.000000000               0.000000000               0.003930446               0.004962581               0.000187212               0.000853586               0.001369648               0.002223235               0.000000000               0.000000000               0.000000000               0.000000000               0.004540180               0.005046880               0.000116009               0.001071697               0.001325044               0.002396741               0.000000000               0.000000000               0.000000000               0.000000000               0.000000000               0.000000000               0.000000000               0.000000000               0.000000000               0.000000000               0.000000000               0.000000000               0.000000000               0.000000000               0.000000000               0.000000000               0.000000000               0.000000000               0.000000000               0.000000000               0.000000000               0.000000000               0.000000000               0.000000000               0.000000000               0.000000000               0.000000000               0.000000000               0.000000000               0.000000000               0.000000000               0.000000000               0.000000000               0.000000000               0.000000000               0.000000000               0.000000000               0.000000000               0.000000000               0.000000000               0.000000000               0.000000000               0.000000000               0.000000000               0.000000000               0.000000000               0.000000000               0.000000000               0.000000000               0.000000000               0.000000000               0.000000000               0.000000000               0.000000000               0.000000000               0.000000000               0.000000000               0.000000000               0.000000000               0.000000000               0.000000000               0.000000000               0.000000000               0.000000000               0.000000000               0.000000000               0.000000000               0.000000000               0.000000000               0.000000000               0.000000000               0.000000000               0.000000000               0.000000000               0.000000000               0.000000000               0.000000000               0.000000000               0.000000000               0.000000000               0.000000000               0.000000000               0.000000000               0.000000000               0.000000000               0.000000000               0.000000000               0.000000000               0.000000000               0.000000000               0.000000000               0.000000000               0.000000000               0.000000000               0.000000000               0.000000000               0.000000000               0.000000000               0.000000000               0.000000000               0.000000000               0.000000000               0.000000000               0.000000000               0.000000000               0.000000000               0.000000000               0.000000000               0.000000000               0.000000000               0.000000000               0.000000000               0.000000000               0.000000000               0.000000000               0.000000000               0.000000000               0.000000000               0.000000000               0.000000000               0.000000000               0.000000000               0.000000000               0.000000000               0.000000000               0.000000000               0.000000000               0.000000000               0.000000000               0.000000000               0.000000000               0.000000000               0.000000000               0.000000000               0.000000000               0.000000000               0.000000000               0.000000000               0.000000000               0.000000000               0.000000000               0.000000000               0.000000000               0.000000000               0.000000000               0.000000000               0.000000000               0.000000000               0.000000000               0.000000000               0.000000000               0.000000000               0.000000000               0.000000000               0.000000000               0.000000000               0.000000000               0.000000000               0.000000000               0.000000000               0.000000000               0.000000000               0.000000000               0.000000000               0.000000000               0.000000000               0.000000000               0.000000000               0.000000000               0.000000000               0.000000000               0.000000000               0.000000000               0.000000000 </DataArray>
</PointData>
</Piece>
</UnstructuredGrid> </VTKFile>
