<?xml version="1.0"?>
<VTKFile type="UnstructuredGrid" version="0.1">
<UnstructuredGrid>
<Piece NumberOfPoints="      1156" NumberOfCells="      1024">
<Points>
<DataArray type="Float64"                                    Name="coordinates"                                                      NumberOfComponents=" 3" format="ascii">
              0.133000000               0.000000000               0.000000000               0.155937500               0.000000000               0.000000000               0.178875000               0.000000000               0.000000000               0.201812500               0.000000000               0.000000000               0.224750000               0.000000000               0.000000000               0.247687500               0.000000000               0.000000000               0.270625000               0.000000000               0.000000000               0.293562500               0.000000000               0.000000000               0.316500000               0.000000000               0.000000000               0.339437500               0.000000000               0.000000000               0.362375000               0.000000000               0.000000000               0.385312500               0.000000000               0.000000000               0.408250000               0.000000000               0.000000000               0.431187500               0.000000000               0.000000000               0.454125000               0.000000000               0.000000000               0.477062500               0.000000000               0.000000000               0.500000000               0.000000000               0.000000000               0.132359569               0.013036280               0.000000000               0.155337096               0.016127762               0.000000000               0.178314623               0.019219245               0.000000000               0.201292150               0.022310727               0.000000000               0.224269676               0.025402210               0.000000000               0.247247203               0.028493692               0.000000000               0.270224730               0.031585175               0.000000000               0.293202257               0.034676657               0.000000000               0.316179784               0.037768140               0.000000000               0.339157311               0.040859622               0.000000000               0.362134838               0.043951105               0.000000000               0.385112365               0.047042587               0.000000000               0.408089892               0.050134070               0.000000000               0.431067419               0.053225552               0.000000000               0.454044946               0.056317035               0.000000000               0.477022473               0.059408517               0.000000000               0.500000000               0.062500000               0.000000000               0.130444442               0.025947013               0.000000000               0.153541665               0.032137825               0.000000000               0.176638887               0.038328636               0.000000000               0.199736109               0.044519448               0.000000000               0.222833332               0.050710260               0.000000000               0.245930554               0.056901071               0.000000000               0.269027776               0.063091883               0.000000000               0.292124999               0.069282695               0.000000000               0.315222221               0.075473506               0.000000000               0.338319444               0.081664318               0.000000000               0.361416666               0.087855130               0.000000000               0.384513888               0.094045942               0.000000000               0.407611111               0.100236753               0.000000000               0.430708333               0.106427565               0.000000000               0.453805555               0.112618377               0.000000000               0.476902778               0.118809188               0.000000000               0.500000000               0.125000000               0.000000000               0.127273065               0.038607862               0.000000000               0.150568498               0.047913621               0.000000000               0.173863932               0.057219379               0.000000000               0.197159365               0.066525138               0.000000000               0.220454798               0.075830897               0.000000000               0.243750232               0.085136655               0.000000000               0.267045665               0.094442414               0.000000000               0.290341099               0.103748172               0.000000000               0.313636532               0.113053931               0.000000000               0.336931966               0.122359690               0.000000000               0.360227399               0.131665448               0.000000000               0.383522833               0.140971207               0.000000000               0.406818266               0.150276966               0.000000000               0.430113700               0.159582724               0.000000000               0.453409133               0.168888483               0.000000000               0.476704567               0.178194241               0.000000000               0.500000000               0.187500000               0.000000000               0.122875978               0.050896897               0.000000000               0.146446229               0.063340840               0.000000000               0.170016481               0.075784784               0.000000000               0.193586732               0.088228728               0.000000000               0.217156983               0.100672672               0.000000000               0.240727235               0.113116616               0.000000000               0.264297486               0.125560560               0.000000000               0.287867738               0.138004504               0.000000000               0.311437989               0.150448448               0.000000000               0.335008240               0.162892392               0.000000000               0.358578492               0.175336336               0.000000000               0.382148743               0.187780280               0.000000000               0.405718994               0.200224224               0.000000000               0.429289246               0.212668168               0.000000000               0.452859497               0.225112112               0.000000000               0.476429749               0.237556056               0.000000000               0.500000000               0.250000000               0.000000000               0.117295528               0.062695766               0.000000000               0.141214558               0.078308531               0.000000000               0.165133587               0.093921295               0.000000000               0.189052617               0.109534060               0.000000000               0.212971646               0.125146824               0.000000000               0.236890676               0.140759589               0.000000000               0.260809705               0.156372354               0.000000000               0.284728735               0.171985118               0.000000000               0.308647764               0.187597883               0.000000000               0.332566794               0.203210648               0.000000000               0.356485823               0.218823412               0.000000000               0.380404853               0.234436177               0.000000000               0.404323882               0.250048941               0.000000000               0.428242912               0.265661706               0.000000000               0.452161941               0.281274471               0.000000000               0.476080971               0.296887235               0.000000000               0.500000000               0.312500000               0.000000000               0.110585458               0.073890841               0.000000000               0.134923867               0.092710163               0.000000000               0.159262276               0.111529486               0.000000000               0.183600685               0.130348808               0.000000000               0.207939094               0.149168131               0.000000000               0.232277503               0.167987453               0.000000000               0.256615912               0.186806776               0.000000000               0.280954320               0.205626098               0.000000000               0.305292729               0.224445420               0.000000000               0.329631138               0.243264743               0.000000000               0.353969547               0.262084065               0.000000000               0.378307956               0.280903388               0.000000000               0.402646365               0.299722710               0.000000000               0.426984773               0.318542033               0.000000000               0.451323182               0.337361355               0.000000000               0.475661591               0.356180678               0.000000000               0.500000000               0.375000000               0.000000000               0.102810390               0.084374307               0.000000000               0.127634741               0.106444663               0.000000000               0.152459092               0.128515018               0.000000000               0.177283442               0.150585374               0.000000000               0.202107793               0.172655730               0.000000000               0.226932143               0.194726086               0.000000000               0.251756494               0.216796442               0.000000000               0.276580845               0.238866798               0.000000000               0.301405195               0.260937153               0.000000000               0.326229546               0.283007509               0.000000000               0.351053896               0.305077865               0.000000000               0.375878247               0.327148221               0.000000000               0.400702598               0.349218577               0.000000000               0.425526948               0.371288933               0.000000000               0.450351299               0.393359288               0.000000000               0.475175649               0.415429644               0.000000000               0.500000000               0.437500000               0.000000000               0.094045202               0.094045202               0.000000000               0.119417377               0.119417377               0.000000000               0.144789552               0.144789552               0.000000000               0.170161727               0.170161727               0.000000000               0.195533901               0.195533901               0.000000000               0.220906076               0.220906076               0.000000000               0.246278251               0.246278251               0.000000000               0.271650426               0.271650426               0.000000000               0.297022601               0.297022601               0.000000000               0.322394776               0.322394776               0.000000000               0.347766951               0.347766951               0.000000000               0.373139126               0.373139126               0.000000000               0.398511300               0.398511300               0.000000000               0.423883475               0.423883475               0.000000000               0.449255650               0.449255650               0.000000000               0.474627825               0.474627825               0.000000000               0.500000000               0.500000000               0.000000000               0.084374307               0.102810390               0.000000000               0.106444663               0.127634741               0.000000000               0.128515018               0.152459092               0.000000000               0.150585374               0.177283442               0.000000000               0.172655730               0.202107793               0.000000000               0.194726086               0.226932143               0.000000000               0.216796442               0.251756494               0.000000000               0.238866798               0.276580845               0.000000000               0.260937153               0.301405195               0.000000000               0.283007509               0.326229546               0.000000000               0.305077865               0.351053896               0.000000000               0.327148221               0.375878247               0.000000000               0.349218577               0.400702598               0.000000000               0.371288933               0.425526948               0.000000000               0.393359288               0.450351299               0.000000000               0.415429644               0.475175649               0.000000000               0.437500000               0.500000000               0.000000000               0.073890841               0.110585458               0.000000000               0.092710163               0.134923867               0.000000000               0.111529486               0.159262276               0.000000000               0.130348808               0.183600685               0.000000000               0.149168131               0.207939094               0.000000000               0.167987453               0.232277503               0.000000000               0.186806776               0.256615912               0.000000000               0.205626098               0.280954320               0.000000000               0.224445420               0.305292729               0.000000000               0.243264743               0.329631138               0.000000000               0.262084065               0.353969547               0.000000000               0.280903388               0.378307956               0.000000000               0.299722710               0.402646365               0.000000000               0.318542033               0.426984773               0.000000000               0.337361355               0.451323182               0.000000000               0.356180678               0.475661591               0.000000000               0.375000000               0.500000000               0.000000000               0.062695766               0.117295528               0.000000000               0.078308531               0.141214558               0.000000000               0.093921295               0.165133587               0.000000000               0.109534060               0.189052617               0.000000000               0.125146824               0.212971646               0.000000000               0.140759589               0.236890676               0.000000000               0.156372354               0.260809705               0.000000000               0.171985118               0.284728735               0.000000000               0.187597883               0.308647764               0.000000000               0.203210648               0.332566794               0.000000000               0.218823412               0.356485823               0.000000000               0.234436177               0.380404853               0.000000000               0.250048941               0.404323882               0.000000000               0.265661706               0.428242912               0.000000000               0.281274471               0.452161941               0.000000000               0.296887235               0.476080971               0.000000000               0.312500000               0.500000000               0.000000000               0.050896897               0.122875978               0.000000000               0.063340840               0.146446229               0.000000000               0.075784784               0.170016481               0.000000000               0.088228728               0.193586732               0.000000000               0.100672672               0.217156983               0.000000000               0.113116616               0.240727235               0.000000000               0.125560560               0.264297486               0.000000000               0.138004504               0.287867738               0.000000000               0.150448448               0.311437989               0.000000000               0.162892392               0.335008240               0.000000000               0.175336336               0.358578492               0.000000000               0.187780280               0.382148743               0.000000000               0.200224224               0.405718994               0.000000000               0.212668168               0.429289246               0.000000000               0.225112112               0.452859497               0.000000000               0.237556056               0.476429749               0.000000000               0.250000000               0.500000000               0.000000000               0.038607862               0.127273065               0.000000000               0.047913621               0.150568498               0.000000000               0.057219379               0.173863932               0.000000000               0.066525138               0.197159365               0.000000000               0.075830897               0.220454798               0.000000000               0.085136655               0.243750232               0.000000000               0.094442414               0.267045665               0.000000000               0.103748172               0.290341099               0.000000000               0.113053931               0.313636532               0.000000000               0.122359690               0.336931966               0.000000000               0.131665448               0.360227399               0.000000000               0.140971207               0.383522833               0.000000000               0.150276966               0.406818266               0.000000000               0.159582724               0.430113700               0.000000000               0.168888483               0.453409133               0.000000000               0.178194241               0.476704567               0.000000000               0.187500000               0.500000000               0.000000000               0.025947013               0.130444442               0.000000000               0.032137825               0.153541665               0.000000000               0.038328636               0.176638887               0.000000000               0.044519448               0.199736109               0.000000000               0.050710260               0.222833332               0.000000000               0.056901071               0.245930554               0.000000000               0.063091883               0.269027776               0.000000000               0.069282695               0.292124999               0.000000000               0.075473506               0.315222221               0.000000000               0.081664318               0.338319444               0.000000000               0.087855130               0.361416666               0.000000000               0.094045942               0.384513888               0.000000000               0.100236753               0.407611111               0.000000000               0.106427565               0.430708333               0.000000000               0.112618377               0.453805555               0.000000000               0.118809188               0.476902778               0.000000000               0.125000000               0.500000000               0.000000000               0.013036280               0.132359569               0.000000000               0.016127762               0.155337096               0.000000000               0.019219245               0.178314623               0.000000000               0.022310727               0.201292150               0.000000000               0.025402210               0.224269676               0.000000000               0.028493692               0.247247203               0.000000000               0.031585175               0.270224730               0.000000000               0.034676657               0.293202257               0.000000000               0.037768140               0.316179784               0.000000000               0.040859622               0.339157311               0.000000000               0.043951105               0.362134838               0.000000000               0.047042587               0.385112365               0.000000000               0.050134070               0.408089892               0.000000000               0.053225552               0.431067419               0.000000000               0.056317035               0.454044946               0.000000000               0.059408517               0.477022473               0.000000000               0.062500000               0.500000000               0.000000000               0.000000000               0.133000000               0.000000000               0.000000000               0.155937500               0.000000000               0.000000000               0.178875000               0.000000000               0.000000000               0.201812500               0.000000000               0.000000000               0.224750000               0.000000000               0.000000000               0.247687500               0.000000000               0.000000000               0.270625000               0.000000000               0.000000000               0.293562500               0.000000000               0.000000000               0.316500000               0.000000000               0.000000000               0.339437500               0.000000000               0.000000000               0.362375000               0.000000000               0.000000000               0.385312500               0.000000000               0.000000000               0.408250000               0.000000000               0.000000000               0.431187500               0.000000000               0.000000000               0.454125000               0.000000000               0.000000000               0.477062500               0.000000000               0.000000000               0.500000000               0.000000000               0.133000000               0.000000000               0.000000000               0.155937500               0.000000000               0.000000000               0.178875000               0.000000000               0.000000000               0.201812500               0.000000000               0.000000000               0.224750000               0.000000000               0.000000000               0.247687500               0.000000000               0.000000000               0.270625000               0.000000000               0.000000000               0.293562500               0.000000000               0.000000000               0.316500000               0.000000000               0.000000000               0.339437500               0.000000000               0.000000000               0.362375000               0.000000000               0.000000000               0.385312500               0.000000000               0.000000000               0.408250000               0.000000000               0.000000000               0.431187500               0.000000000               0.000000000               0.454125000               0.000000000               0.000000000               0.477062500               0.000000000               0.000000000               0.500000000               0.000000000               0.000000000               0.132359569              -0.013036280               0.000000000               0.155337096              -0.016127762               0.000000000               0.178314623              -0.019219245               0.000000000               0.201292150              -0.022310727               0.000000000               0.224269676              -0.025402210               0.000000000               0.247247203              -0.028493692               0.000000000               0.270224730              -0.031585175               0.000000000               0.293202257              -0.034676657               0.000000000               0.316179784              -0.037768140               0.000000000               0.339157311              -0.040859622               0.000000000               0.362134838              -0.043951105               0.000000000               0.385112365              -0.047042587               0.000000000               0.408089892              -0.050134070               0.000000000               0.431067419              -0.053225552               0.000000000               0.454044946              -0.056317035               0.000000000               0.477022473              -0.059408517               0.000000000               0.500000000              -0.062500000               0.000000000               0.130444442              -0.025947013               0.000000000               0.153541665              -0.032137825               0.000000000               0.176638887              -0.038328636               0.000000000               0.199736109              -0.044519448               0.000000000               0.222833332              -0.050710260               0.000000000               0.245930554              -0.056901071               0.000000000               0.269027776              -0.063091883               0.000000000               0.292124999              -0.069282695               0.000000000               0.315222221              -0.075473506               0.000000000               0.338319444              -0.081664318               0.000000000               0.361416666              -0.087855130               0.000000000               0.384513888              -0.094045942               0.000000000               0.407611111              -0.100236753               0.000000000               0.430708333              -0.106427565               0.000000000               0.453805555              -0.112618377               0.000000000               0.476902778              -0.118809188               0.000000000               0.500000000              -0.125000000               0.000000000               0.127273065              -0.038607862               0.000000000               0.150568498              -0.047913621               0.000000000               0.173863932              -0.057219379               0.000000000               0.197159365              -0.066525138               0.000000000               0.220454798              -0.075830897               0.000000000               0.243750232              -0.085136655               0.000000000               0.267045665              -0.094442414               0.000000000               0.290341099              -0.103748172               0.000000000               0.313636532              -0.113053931               0.000000000               0.336931966              -0.122359690               0.000000000               0.360227399              -0.131665448               0.000000000               0.383522833              -0.140971207               0.000000000               0.406818266              -0.150276966               0.000000000               0.430113700              -0.159582724               0.000000000               0.453409133              -0.168888483               0.000000000               0.476704567              -0.178194241               0.000000000               0.500000000              -0.187500000               0.000000000               0.122875978              -0.050896897               0.000000000               0.146446229              -0.063340840               0.000000000               0.170016481              -0.075784784               0.000000000               0.193586732              -0.088228728               0.000000000               0.217156983              -0.100672672               0.000000000               0.240727235              -0.113116616               0.000000000               0.264297486              -0.125560560               0.000000000               0.287867738              -0.138004504               0.000000000               0.311437989              -0.150448448               0.000000000               0.335008240              -0.162892392               0.000000000               0.358578492              -0.175336336               0.000000000               0.382148743              -0.187780280               0.000000000               0.405718994              -0.200224224               0.000000000               0.429289246              -0.212668168               0.000000000               0.452859497              -0.225112112               0.000000000               0.476429749              -0.237556056               0.000000000               0.500000000              -0.250000000               0.000000000               0.117295528              -0.062695766               0.000000000               0.141214558              -0.078308531               0.000000000               0.165133587              -0.093921295               0.000000000               0.189052617              -0.109534060               0.000000000               0.212971646              -0.125146824               0.000000000               0.236890676              -0.140759589               0.000000000               0.260809705              -0.156372354               0.000000000               0.284728735              -0.171985118               0.000000000               0.308647764              -0.187597883               0.000000000               0.332566794              -0.203210648               0.000000000               0.356485823              -0.218823412               0.000000000               0.380404853              -0.234436177               0.000000000               0.404323882              -0.250048941               0.000000000               0.428242912              -0.265661706               0.000000000               0.452161941              -0.281274471               0.000000000               0.476080971              -0.296887235               0.000000000               0.500000000              -0.312500000               0.000000000               0.110585458              -0.073890841               0.000000000               0.134923867              -0.092710163               0.000000000               0.159262276              -0.111529486               0.000000000               0.183600685              -0.130348808               0.000000000               0.207939094              -0.149168131               0.000000000               0.232277503              -0.167987453               0.000000000               0.256615912              -0.186806776               0.000000000               0.280954320              -0.205626098               0.000000000               0.305292729              -0.224445420               0.000000000               0.329631138              -0.243264743               0.000000000               0.353969547              -0.262084065               0.000000000               0.378307956              -0.280903388               0.000000000               0.402646365              -0.299722710               0.000000000               0.426984773              -0.318542033               0.000000000               0.451323182              -0.337361355               0.000000000               0.475661591              -0.356180678               0.000000000               0.500000000              -0.375000000               0.000000000               0.102810390              -0.084374307               0.000000000               0.127634741              -0.106444663               0.000000000               0.152459092              -0.128515018               0.000000000               0.177283442              -0.150585374               0.000000000               0.202107793              -0.172655730               0.000000000               0.226932143              -0.194726086               0.000000000               0.251756494              -0.216796442               0.000000000               0.276580845              -0.238866798               0.000000000               0.301405195              -0.260937153               0.000000000               0.326229546              -0.283007509               0.000000000               0.351053896              -0.305077865               0.000000000               0.375878247              -0.327148221               0.000000000               0.400702598              -0.349218577               0.000000000               0.425526948              -0.371288933               0.000000000               0.450351299              -0.393359288               0.000000000               0.475175649              -0.415429644               0.000000000               0.500000000              -0.437500000               0.000000000               0.094045202              -0.094045202               0.000000000               0.119417377              -0.119417377               0.000000000               0.144789552              -0.144789552               0.000000000               0.170161727              -0.170161727               0.000000000               0.195533901              -0.195533901               0.000000000               0.220906076              -0.220906076               0.000000000               0.246278251              -0.246278251               0.000000000               0.271650426              -0.271650426               0.000000000               0.297022601              -0.297022601               0.000000000               0.322394776              -0.322394776               0.000000000               0.347766951              -0.347766951               0.000000000               0.373139126              -0.373139126               0.000000000               0.398511300              -0.398511300               0.000000000               0.423883475              -0.423883475               0.000000000               0.449255650              -0.449255650               0.000000000               0.474627825              -0.474627825               0.000000000               0.500000000              -0.500000000               0.000000000               0.084374307              -0.102810390               0.000000000               0.106444663              -0.127634741               0.000000000               0.128515018              -0.152459092               0.000000000               0.150585374              -0.177283442               0.000000000               0.172655730              -0.202107793               0.000000000               0.194726086              -0.226932143               0.000000000               0.216796442              -0.251756494               0.000000000               0.238866798              -0.276580845               0.000000000               0.260937153              -0.301405195               0.000000000               0.283007509              -0.326229546               0.000000000               0.305077865              -0.351053896               0.000000000               0.327148221              -0.375878247               0.000000000               0.349218577              -0.400702598               0.000000000               0.371288933              -0.425526948               0.000000000               0.393359288              -0.450351299               0.000000000               0.415429644              -0.475175649               0.000000000               0.437500000              -0.500000000               0.000000000               0.073890841              -0.110585458               0.000000000               0.092710163              -0.134923867               0.000000000               0.111529486              -0.159262276               0.000000000               0.130348808              -0.183600685               0.000000000               0.149168131              -0.207939094               0.000000000               0.167987453              -0.232277503               0.000000000               0.186806776              -0.256615912               0.000000000               0.205626098              -0.280954320               0.000000000               0.224445420              -0.305292729               0.000000000               0.243264743              -0.329631138               0.000000000               0.262084065              -0.353969547               0.000000000               0.280903388              -0.378307956               0.000000000               0.299722710              -0.402646365               0.000000000               0.318542033              -0.426984773               0.000000000               0.337361355              -0.451323182               0.000000000               0.356180678              -0.475661591               0.000000000               0.375000000              -0.500000000               0.000000000               0.062695766              -0.117295528               0.000000000               0.078308531              -0.141214558               0.000000000               0.093921295              -0.165133587               0.000000000               0.109534060              -0.189052617               0.000000000               0.125146824              -0.212971646               0.000000000               0.140759589              -0.236890676               0.000000000               0.156372354              -0.260809705               0.000000000               0.171985118              -0.284728735               0.000000000               0.187597883              -0.308647764               0.000000000               0.203210648              -0.332566794               0.000000000               0.218823412              -0.356485823               0.000000000               0.234436177              -0.380404853               0.000000000               0.250048941              -0.404323882               0.000000000               0.265661706              -0.428242912               0.000000000               0.281274471              -0.452161941               0.000000000               0.296887235              -0.476080971               0.000000000               0.312500000              -0.500000000               0.000000000               0.050896897              -0.122875978               0.000000000               0.063340840              -0.146446229               0.000000000               0.075784784              -0.170016481               0.000000000               0.088228728              -0.193586732               0.000000000               0.100672672              -0.217156983               0.000000000               0.113116616              -0.240727235               0.000000000               0.125560560              -0.264297486               0.000000000               0.138004504              -0.287867738               0.000000000               0.150448448              -0.311437989               0.000000000               0.162892392              -0.335008240               0.000000000               0.175336336              -0.358578492               0.000000000               0.187780280              -0.382148743               0.000000000               0.200224224              -0.405718994               0.000000000               0.212668168              -0.429289246               0.000000000               0.225112112              -0.452859497               0.000000000               0.237556056              -0.476429749               0.000000000               0.250000000              -0.500000000               0.000000000               0.038607862              -0.127273065               0.000000000               0.047913621              -0.150568498               0.000000000               0.057219379              -0.173863932               0.000000000               0.066525138              -0.197159365               0.000000000               0.075830897              -0.220454798               0.000000000               0.085136655              -0.243750232               0.000000000               0.094442414              -0.267045665               0.000000000               0.103748172              -0.290341099               0.000000000               0.113053931              -0.313636532               0.000000000               0.122359690              -0.336931966               0.000000000               0.131665448              -0.360227399               0.000000000               0.140971207              -0.383522833               0.000000000               0.150276966              -0.406818266               0.000000000               0.159582724              -0.430113700               0.000000000               0.168888483              -0.453409133               0.000000000               0.178194241              -0.476704567               0.000000000               0.187500000              -0.500000000               0.000000000               0.025947013              -0.130444442               0.000000000               0.032137825              -0.153541665               0.000000000               0.038328636              -0.176638887               0.000000000               0.044519448              -0.199736109               0.000000000               0.050710260              -0.222833332               0.000000000               0.056901071              -0.245930554               0.000000000               0.063091883              -0.269027776               0.000000000               0.069282695              -0.292124999               0.000000000               0.075473506              -0.315222221               0.000000000               0.081664318              -0.338319444               0.000000000               0.087855130              -0.361416666               0.000000000               0.094045942              -0.384513888               0.000000000               0.100236753              -0.407611111               0.000000000               0.106427565              -0.430708333               0.000000000               0.112618377              -0.453805555               0.000000000               0.118809188              -0.476902778               0.000000000               0.125000000              -0.500000000               0.000000000               0.013036280              -0.132359569               0.000000000               0.016127762              -0.155337096               0.000000000               0.019219245              -0.178314623               0.000000000               0.022310727              -0.201292150               0.000000000               0.025402210              -0.224269676               0.000000000               0.028493692              -0.247247203               0.000000000               0.031585175              -0.270224730               0.000000000               0.034676657              -0.293202257               0.000000000               0.037768140              -0.316179784               0.000000000               0.040859622              -0.339157311               0.000000000               0.043951105              -0.362134838               0.000000000               0.047042587              -0.385112365               0.000000000               0.050134070              -0.408089892               0.000000000               0.053225552              -0.431067419               0.000000000               0.056317035              -0.454044946               0.000000000               0.059408517              -0.477022473               0.000000000               0.062500000              -0.500000000               0.000000000               0.000000000              -0.133000000               0.000000000               0.000000000              -0.155937500               0.000000000               0.000000000              -0.178875000               0.000000000               0.000000000              -0.201812500               0.000000000               0.000000000              -0.224750000               0.000000000               0.000000000              -0.247687500               0.000000000               0.000000000              -0.270625000               0.000000000               0.000000000              -0.293562500               0.000000000               0.000000000              -0.316500000               0.000000000               0.000000000              -0.339437500               0.000000000               0.000000000              -0.362375000               0.000000000               0.000000000              -0.385312500               0.000000000               0.000000000              -0.408250000               0.000000000               0.000000000              -0.431187500               0.000000000               0.000000000              -0.454125000               0.000000000               0.000000000              -0.477062500               0.000000000               0.000000000              -0.500000000               0.000000000              -0.133000000               0.000000000               0.000000000              -0.155937500               0.000000000               0.000000000              -0.178875000               0.000000000               0.000000000              -0.201812500               0.000000000               0.000000000              -0.224750000               0.000000000               0.000000000              -0.247687500               0.000000000               0.000000000              -0.270625000               0.000000000               0.000000000              -0.293562500               0.000000000               0.000000000              -0.316500000               0.000000000               0.000000000              -0.339437500               0.000000000               0.000000000              -0.362375000               0.000000000               0.000000000              -0.385312500               0.000000000               0.000000000              -0.408250000               0.000000000               0.000000000              -0.431187500               0.000000000               0.000000000              -0.454125000               0.000000000               0.000000000              -0.477062500               0.000000000               0.000000000              -0.500000000               0.000000000               0.000000000              -0.132359569              -0.013036280               0.000000000              -0.155337096              -0.016127762               0.000000000              -0.178314623              -0.019219245               0.000000000              -0.201292150              -0.022310727               0.000000000              -0.224269676              -0.025402210               0.000000000              -0.247247203              -0.028493692               0.000000000              -0.270224730              -0.031585175               0.000000000              -0.293202257              -0.034676657               0.000000000              -0.316179784              -0.037768140               0.000000000              -0.339157311              -0.040859622               0.000000000              -0.362134838              -0.043951105               0.000000000              -0.385112365              -0.047042587               0.000000000              -0.408089892              -0.050134070               0.000000000              -0.431067419              -0.053225552               0.000000000              -0.454044946              -0.056317035               0.000000000              -0.477022473              -0.059408517               0.000000000              -0.500000000              -0.062500000               0.000000000              -0.130444442              -0.025947013               0.000000000              -0.153541665              -0.032137825               0.000000000              -0.176638887              -0.038328636               0.000000000              -0.199736109              -0.044519448               0.000000000              -0.222833332              -0.050710260               0.000000000              -0.245930554              -0.056901071               0.000000000              -0.269027776              -0.063091883               0.000000000              -0.292124999              -0.069282695               0.000000000              -0.315222221              -0.075473506               0.000000000              -0.338319444              -0.081664318               0.000000000              -0.361416666              -0.087855130               0.000000000              -0.384513888              -0.094045942               0.000000000              -0.407611111              -0.100236753               0.000000000              -0.430708333              -0.106427565               0.000000000              -0.453805555              -0.112618377               0.000000000              -0.476902778              -0.118809188               0.000000000              -0.500000000              -0.125000000               0.000000000              -0.127273065              -0.038607862               0.000000000              -0.150568498              -0.047913621               0.000000000              -0.173863932              -0.057219379               0.000000000              -0.197159365              -0.066525138               0.000000000              -0.220454798              -0.075830897               0.000000000              -0.243750232              -0.085136655               0.000000000              -0.267045665              -0.094442414               0.000000000              -0.290341099              -0.103748172               0.000000000              -0.313636532              -0.113053931               0.000000000              -0.336931966              -0.122359690               0.000000000              -0.360227399              -0.131665448               0.000000000              -0.383522833              -0.140971207               0.000000000              -0.406818266              -0.150276966               0.000000000              -0.430113700              -0.159582724               0.000000000              -0.453409133              -0.168888483               0.000000000              -0.476704567              -0.178194241               0.000000000              -0.500000000              -0.187500000               0.000000000              -0.122875978              -0.050896897               0.000000000              -0.146446229              -0.063340840               0.000000000              -0.170016481              -0.075784784               0.000000000              -0.193586732              -0.088228728               0.000000000              -0.217156983              -0.100672672               0.000000000              -0.240727235              -0.113116616               0.000000000              -0.264297486              -0.125560560               0.000000000              -0.287867738              -0.138004504               0.000000000              -0.311437989              -0.150448448               0.000000000              -0.335008240              -0.162892392               0.000000000              -0.358578492              -0.175336336               0.000000000              -0.382148743              -0.187780280               0.000000000              -0.405718994              -0.200224224               0.000000000              -0.429289246              -0.212668168               0.000000000              -0.452859497              -0.225112112               0.000000000              -0.476429749              -0.237556056               0.000000000              -0.500000000              -0.250000000               0.000000000              -0.117295528              -0.062695766               0.000000000              -0.141214558              -0.078308531               0.000000000              -0.165133587              -0.093921295               0.000000000              -0.189052617              -0.109534060               0.000000000              -0.212971646              -0.125146824               0.000000000              -0.236890676              -0.140759589               0.000000000              -0.260809705              -0.156372354               0.000000000              -0.284728735              -0.171985118               0.000000000              -0.308647764              -0.187597883               0.000000000              -0.332566794              -0.203210648               0.000000000              -0.356485823              -0.218823412               0.000000000              -0.380404853              -0.234436177               0.000000000              -0.404323882              -0.250048941               0.000000000              -0.428242912              -0.265661706               0.000000000              -0.452161941              -0.281274471               0.000000000              -0.476080971              -0.296887235               0.000000000              -0.500000000              -0.312500000               0.000000000              -0.110585458              -0.073890841               0.000000000              -0.134923867              -0.092710163               0.000000000              -0.159262276              -0.111529486               0.000000000              -0.183600685              -0.130348808               0.000000000              -0.207939094              -0.149168131               0.000000000              -0.232277503              -0.167987453               0.000000000              -0.256615912              -0.186806776               0.000000000              -0.280954320              -0.205626098               0.000000000              -0.305292729              -0.224445420               0.000000000              -0.329631138              -0.243264743               0.000000000              -0.353969547              -0.262084065               0.000000000              -0.378307956              -0.280903388               0.000000000              -0.402646365              -0.299722710               0.000000000              -0.426984773              -0.318542033               0.000000000              -0.451323182              -0.337361355               0.000000000              -0.475661591              -0.356180678               0.000000000              -0.500000000              -0.375000000               0.000000000              -0.102810390              -0.084374307               0.000000000              -0.127634741              -0.106444663               0.000000000              -0.152459092              -0.128515018               0.000000000              -0.177283442              -0.150585374               0.000000000              -0.202107793              -0.172655730               0.000000000              -0.226932143              -0.194726086               0.000000000              -0.251756494              -0.216796442               0.000000000              -0.276580845              -0.238866798               0.000000000              -0.301405195              -0.260937153               0.000000000              -0.326229546              -0.283007509               0.000000000              -0.351053896              -0.305077865               0.000000000              -0.375878247              -0.327148221               0.000000000              -0.400702598              -0.349218577               0.000000000              -0.425526948              -0.371288933               0.000000000              -0.450351299              -0.393359288               0.000000000              -0.475175649              -0.415429644               0.000000000              -0.500000000              -0.437500000               0.000000000              -0.094045202              -0.094045202               0.000000000              -0.119417377              -0.119417377               0.000000000              -0.144789552              -0.144789552               0.000000000              -0.170161727              -0.170161727               0.000000000              -0.195533901              -0.195533901               0.000000000              -0.220906076              -0.220906076               0.000000000              -0.246278251              -0.246278251               0.000000000              -0.271650426              -0.271650426               0.000000000              -0.297022601              -0.297022601               0.000000000              -0.322394776              -0.322394776               0.000000000              -0.347766951              -0.347766951               0.000000000              -0.373139126              -0.373139126               0.000000000              -0.398511300              -0.398511300               0.000000000              -0.423883475              -0.423883475               0.000000000              -0.449255650              -0.449255650               0.000000000              -0.474627825              -0.474627825               0.000000000              -0.500000000              -0.500000000               0.000000000              -0.084374307              -0.102810390               0.000000000              -0.106444663              -0.127634741               0.000000000              -0.128515018              -0.152459092               0.000000000              -0.150585374              -0.177283442               0.000000000              -0.172655730              -0.202107793               0.000000000              -0.194726086              -0.226932143               0.000000000              -0.216796442              -0.251756494               0.000000000              -0.238866798              -0.276580845               0.000000000              -0.260937153              -0.301405195               0.000000000              -0.283007509              -0.326229546               0.000000000              -0.305077865              -0.351053896               0.000000000              -0.327148221              -0.375878247               0.000000000              -0.349218577              -0.400702598               0.000000000              -0.371288933              -0.425526948               0.000000000              -0.393359288              -0.450351299               0.000000000              -0.415429644              -0.475175649               0.000000000              -0.437500000              -0.500000000               0.000000000              -0.073890841              -0.110585458               0.000000000              -0.092710163              -0.134923867               0.000000000              -0.111529486              -0.159262276               0.000000000              -0.130348808              -0.183600685               0.000000000              -0.149168131              -0.207939094               0.000000000              -0.167987453              -0.232277503               0.000000000              -0.186806776              -0.256615912               0.000000000              -0.205626098              -0.280954320               0.000000000              -0.224445420              -0.305292729               0.000000000              -0.243264743              -0.329631138               0.000000000              -0.262084065              -0.353969547               0.000000000              -0.280903388              -0.378307956               0.000000000              -0.299722710              -0.402646365               0.000000000              -0.318542033              -0.426984773               0.000000000              -0.337361355              -0.451323182               0.000000000              -0.356180678              -0.475661591               0.000000000              -0.375000000              -0.500000000               0.000000000              -0.062695766              -0.117295528               0.000000000              -0.078308531              -0.141214558               0.000000000              -0.093921295              -0.165133587               0.000000000              -0.109534060              -0.189052617               0.000000000              -0.125146824              -0.212971646               0.000000000              -0.140759589              -0.236890676               0.000000000              -0.156372354              -0.260809705               0.000000000              -0.171985118              -0.284728735               0.000000000              -0.187597883              -0.308647764               0.000000000              -0.203210648              -0.332566794               0.000000000              -0.218823412              -0.356485823               0.000000000              -0.234436177              -0.380404853               0.000000000              -0.250048941              -0.404323882               0.000000000              -0.265661706              -0.428242912               0.000000000              -0.281274471              -0.452161941               0.000000000              -0.296887235              -0.476080971               0.000000000              -0.312500000              -0.500000000               0.000000000              -0.050896897              -0.122875978               0.000000000              -0.063340840              -0.146446229               0.000000000              -0.075784784              -0.170016481               0.000000000              -0.088228728              -0.193586732               0.000000000              -0.100672672              -0.217156983               0.000000000              -0.113116616              -0.240727235               0.000000000              -0.125560560              -0.264297486               0.000000000              -0.138004504              -0.287867738               0.000000000              -0.150448448              -0.311437989               0.000000000              -0.162892392              -0.335008240               0.000000000              -0.175336336              -0.358578492               0.000000000              -0.187780280              -0.382148743               0.000000000              -0.200224224              -0.405718994               0.000000000              -0.212668168              -0.429289246               0.000000000              -0.225112112              -0.452859497               0.000000000              -0.237556056              -0.476429749               0.000000000              -0.250000000              -0.500000000               0.000000000              -0.038607862              -0.127273065               0.000000000              -0.047913621              -0.150568498               0.000000000              -0.057219379              -0.173863932               0.000000000              -0.066525138              -0.197159365               0.000000000              -0.075830897              -0.220454798               0.000000000              -0.085136655              -0.243750232               0.000000000              -0.094442414              -0.267045665               0.000000000              -0.103748172              -0.290341099               0.000000000              -0.113053931              -0.313636532               0.000000000              -0.122359690              -0.336931966               0.000000000              -0.131665448              -0.360227399               0.000000000              -0.140971207              -0.383522833               0.000000000              -0.150276966              -0.406818266               0.000000000              -0.159582724              -0.430113700               0.000000000              -0.168888483              -0.453409133               0.000000000              -0.178194241              -0.476704567               0.000000000              -0.187500000              -0.500000000               0.000000000              -0.025947013              -0.130444442               0.000000000              -0.032137825              -0.153541665               0.000000000              -0.038328636              -0.176638887               0.000000000              -0.044519448              -0.199736109               0.000000000              -0.050710260              -0.222833332               0.000000000              -0.056901071              -0.245930554               0.000000000              -0.063091883              -0.269027776               0.000000000              -0.069282695              -0.292124999               0.000000000              -0.075473506              -0.315222221               0.000000000              -0.081664318              -0.338319444               0.000000000              -0.087855130              -0.361416666               0.000000000              -0.094045942              -0.384513888               0.000000000              -0.100236753              -0.407611111               0.000000000              -0.106427565              -0.430708333               0.000000000              -0.112618377              -0.453805555               0.000000000              -0.118809188              -0.476902778               0.000000000              -0.125000000              -0.500000000               0.000000000              -0.013036280              -0.132359569               0.000000000              -0.016127762              -0.155337096               0.000000000              -0.019219245              -0.178314623               0.000000000              -0.022310727              -0.201292150               0.000000000              -0.025402210              -0.224269676               0.000000000              -0.028493692              -0.247247203               0.000000000              -0.031585175              -0.270224730               0.000000000              -0.034676657              -0.293202257               0.000000000              -0.037768140              -0.316179784               0.000000000              -0.040859622              -0.339157311               0.000000000              -0.043951105              -0.362134838               0.000000000              -0.047042587              -0.385112365               0.000000000              -0.050134070              -0.408089892               0.000000000              -0.053225552              -0.431067419               0.000000000              -0.056317035              -0.454044946               0.000000000              -0.059408517              -0.477022473               0.000000000              -0.062500000              -0.500000000               0.000000000               0.000000000              -0.133000000               0.000000000               0.000000000              -0.155937500               0.000000000               0.000000000              -0.178875000               0.000000000               0.000000000              -0.201812500               0.000000000               0.000000000              -0.224750000               0.000000000               0.000000000              -0.247687500               0.000000000               0.000000000              -0.270625000               0.000000000               0.000000000              -0.293562500               0.000000000               0.000000000              -0.316500000               0.000000000               0.000000000              -0.339437500               0.000000000               0.000000000              -0.362375000               0.000000000               0.000000000              -0.385312500               0.000000000               0.000000000              -0.408250000               0.000000000               0.000000000              -0.431187500               0.000000000               0.000000000              -0.454125000               0.000000000               0.000000000              -0.477062500               0.000000000               0.000000000              -0.500000000               0.000000000              -0.133000000               0.000000000               0.000000000              -0.155937500               0.000000000               0.000000000              -0.178875000               0.000000000               0.000000000              -0.201812500               0.000000000               0.000000000              -0.224750000               0.000000000               0.000000000              -0.247687500               0.000000000               0.000000000              -0.270625000               0.000000000               0.000000000              -0.293562500               0.000000000               0.000000000              -0.316500000               0.000000000               0.000000000              -0.339437500               0.000000000               0.000000000              -0.362375000               0.000000000               0.000000000              -0.385312500               0.000000000               0.000000000              -0.408250000               0.000000000               0.000000000              -0.431187500               0.000000000               0.000000000              -0.454125000               0.000000000               0.000000000              -0.477062500               0.000000000               0.000000000              -0.500000000               0.000000000               0.000000000              -0.132359569               0.013036280               0.000000000              -0.155337096               0.016127762               0.000000000              -0.178314623               0.019219245               0.000000000              -0.201292150               0.022310727               0.000000000              -0.224269676               0.025402210               0.000000000              -0.247247203               0.028493692               0.000000000              -0.270224730               0.031585175               0.000000000              -0.293202257               0.034676657               0.000000000              -0.316179784               0.037768140               0.000000000              -0.339157311               0.040859622               0.000000000              -0.362134838               0.043951105               0.000000000              -0.385112365               0.047042587               0.000000000              -0.408089892               0.050134070               0.000000000              -0.431067419               0.053225552               0.000000000              -0.454044946               0.056317035               0.000000000              -0.477022473               0.059408517               0.000000000              -0.500000000               0.062500000               0.000000000              -0.130444442               0.025947013               0.000000000              -0.153541665               0.032137825               0.000000000              -0.176638887               0.038328636               0.000000000              -0.199736109               0.044519448               0.000000000              -0.222833332               0.050710260               0.000000000              -0.245930554               0.056901071               0.000000000              -0.269027776               0.063091883               0.000000000              -0.292124999               0.069282695               0.000000000              -0.315222221               0.075473506               0.000000000              -0.338319444               0.081664318               0.000000000              -0.361416666               0.087855130               0.000000000              -0.384513888               0.094045942               0.000000000              -0.407611111               0.100236753               0.000000000              -0.430708333               0.106427565               0.000000000              -0.453805555               0.112618377               0.000000000              -0.476902778               0.118809188               0.000000000              -0.500000000               0.125000000               0.000000000              -0.127273065               0.038607862               0.000000000              -0.150568498               0.047913621               0.000000000              -0.173863932               0.057219379               0.000000000              -0.197159365               0.066525138               0.000000000              -0.220454798               0.075830897               0.000000000              -0.243750232               0.085136655               0.000000000              -0.267045665               0.094442414               0.000000000              -0.290341099               0.103748172               0.000000000              -0.313636532               0.113053931               0.000000000              -0.336931966               0.122359690               0.000000000              -0.360227399               0.131665448               0.000000000              -0.383522833               0.140971207               0.000000000              -0.406818266               0.150276966               0.000000000              -0.430113700               0.159582724               0.000000000              -0.453409133               0.168888483               0.000000000              -0.476704567               0.178194241               0.000000000              -0.500000000               0.187500000               0.000000000              -0.122875978               0.050896897               0.000000000              -0.146446229               0.063340840               0.000000000              -0.170016481               0.075784784               0.000000000              -0.193586732               0.088228728               0.000000000              -0.217156983               0.100672672               0.000000000              -0.240727235               0.113116616               0.000000000              -0.264297486               0.125560560               0.000000000              -0.287867738               0.138004504               0.000000000              -0.311437989               0.150448448               0.000000000              -0.335008240               0.162892392               0.000000000              -0.358578492               0.175336336               0.000000000              -0.382148743               0.187780280               0.000000000              -0.405718994               0.200224224               0.000000000              -0.429289246               0.212668168               0.000000000              -0.452859497               0.225112112               0.000000000              -0.476429749               0.237556056               0.000000000              -0.500000000               0.250000000               0.000000000              -0.117295528               0.062695766               0.000000000              -0.141214558               0.078308531               0.000000000              -0.165133587               0.093921295               0.000000000              -0.189052617               0.109534060               0.000000000              -0.212971646               0.125146824               0.000000000              -0.236890676               0.140759589               0.000000000              -0.260809705               0.156372354               0.000000000              -0.284728735               0.171985118               0.000000000              -0.308647764               0.187597883               0.000000000              -0.332566794               0.203210648               0.000000000              -0.356485823               0.218823412               0.000000000              -0.380404853               0.234436177               0.000000000              -0.404323882               0.250048941               0.000000000              -0.428242912               0.265661706               0.000000000              -0.452161941               0.281274471               0.000000000              -0.476080971               0.296887235               0.000000000              -0.500000000               0.312500000               0.000000000              -0.110585458               0.073890841               0.000000000              -0.134923867               0.092710163               0.000000000              -0.159262276               0.111529486               0.000000000              -0.183600685               0.130348808               0.000000000              -0.207939094               0.149168131               0.000000000              -0.232277503               0.167987453               0.000000000              -0.256615912               0.186806776               0.000000000              -0.280954320               0.205626098               0.000000000              -0.305292729               0.224445420               0.000000000              -0.329631138               0.243264743               0.000000000              -0.353969547               0.262084065               0.000000000              -0.378307956               0.280903388               0.000000000              -0.402646365               0.299722710               0.000000000              -0.426984773               0.318542033               0.000000000              -0.451323182               0.337361355               0.000000000              -0.475661591               0.356180678               0.000000000              -0.500000000               0.375000000               0.000000000              -0.102810390               0.084374307               0.000000000              -0.127634741               0.106444663               0.000000000              -0.152459092               0.128515018               0.000000000              -0.177283442               0.150585374               0.000000000              -0.202107793               0.172655730               0.000000000              -0.226932143               0.194726086               0.000000000              -0.251756494               0.216796442               0.000000000              -0.276580845               0.238866798               0.000000000              -0.301405195               0.260937153               0.000000000              -0.326229546               0.283007509               0.000000000              -0.351053896               0.305077865               0.000000000              -0.375878247               0.327148221               0.000000000              -0.400702598               0.349218577               0.000000000              -0.425526948               0.371288933               0.000000000              -0.450351299               0.393359288               0.000000000              -0.475175649               0.415429644               0.000000000              -0.500000000               0.437500000               0.000000000              -0.094045202               0.094045202               0.000000000              -0.119417377               0.119417377               0.000000000              -0.144789552               0.144789552               0.000000000              -0.170161727               0.170161727               0.000000000              -0.195533901               0.195533901               0.000000000              -0.220906076               0.220906076               0.000000000              -0.246278251               0.246278251               0.000000000              -0.271650426               0.271650426               0.000000000              -0.297022601               0.297022601               0.000000000              -0.322394776               0.322394776               0.000000000              -0.347766951               0.347766951               0.000000000              -0.373139126               0.373139126               0.000000000              -0.398511300               0.398511300               0.000000000              -0.423883475               0.423883475               0.000000000              -0.449255650               0.449255650               0.000000000              -0.474627825               0.474627825               0.000000000              -0.500000000               0.500000000               0.000000000              -0.084374307               0.102810390               0.000000000              -0.106444663               0.127634741               0.000000000              -0.128515018               0.152459092               0.000000000              -0.150585374               0.177283442               0.000000000              -0.172655730               0.202107793               0.000000000              -0.194726086               0.226932143               0.000000000              -0.216796442               0.251756494               0.000000000              -0.238866798               0.276580845               0.000000000              -0.260937153               0.301405195               0.000000000              -0.283007509               0.326229546               0.000000000              -0.305077865               0.351053896               0.000000000              -0.327148221               0.375878247               0.000000000              -0.349218577               0.400702598               0.000000000              -0.371288933               0.425526948               0.000000000              -0.393359288               0.450351299               0.000000000              -0.415429644               0.475175649               0.000000000              -0.437500000               0.500000000               0.000000000              -0.073890841               0.110585458               0.000000000              -0.092710163               0.134923867               0.000000000              -0.111529486               0.159262276               0.000000000              -0.130348808               0.183600685               0.000000000              -0.149168131               0.207939094               0.000000000              -0.167987453               0.232277503               0.000000000              -0.186806776               0.256615912               0.000000000              -0.205626098               0.280954320               0.000000000              -0.224445420               0.305292729               0.000000000              -0.243264743               0.329631138               0.000000000              -0.262084065               0.353969547               0.000000000              -0.280903388               0.378307956               0.000000000              -0.299722710               0.402646365               0.000000000              -0.318542033               0.426984773               0.000000000              -0.337361355               0.451323182               0.000000000              -0.356180678               0.475661591               0.000000000              -0.375000000               0.500000000               0.000000000              -0.062695766               0.117295528               0.000000000              -0.078308531               0.141214558               0.000000000              -0.093921295               0.165133587               0.000000000              -0.109534060               0.189052617               0.000000000              -0.125146824               0.212971646               0.000000000              -0.140759589               0.236890676               0.000000000              -0.156372354               0.260809705               0.000000000              -0.171985118               0.284728735               0.000000000              -0.187597883               0.308647764               0.000000000              -0.203210648               0.332566794               0.000000000              -0.218823412               0.356485823               0.000000000              -0.234436177               0.380404853               0.000000000              -0.250048941               0.404323882               0.000000000              -0.265661706               0.428242912               0.000000000              -0.281274471               0.452161941               0.000000000              -0.296887235               0.476080971               0.000000000              -0.312500000               0.500000000               0.000000000              -0.050896897               0.122875978               0.000000000              -0.063340840               0.146446229               0.000000000              -0.075784784               0.170016481               0.000000000              -0.088228728               0.193586732               0.000000000              -0.100672672               0.217156983               0.000000000              -0.113116616               0.240727235               0.000000000              -0.125560560               0.264297486               0.000000000              -0.138004504               0.287867738               0.000000000              -0.150448448               0.311437989               0.000000000              -0.162892392               0.335008240               0.000000000              -0.175336336               0.358578492               0.000000000              -0.187780280               0.382148743               0.000000000              -0.200224224               0.405718994               0.000000000              -0.212668168               0.429289246               0.000000000              -0.225112112               0.452859497               0.000000000              -0.237556056               0.476429749               0.000000000              -0.250000000               0.500000000               0.000000000              -0.038607862               0.127273065               0.000000000              -0.047913621               0.150568498               0.000000000              -0.057219379               0.173863932               0.000000000              -0.066525138               0.197159365               0.000000000              -0.075830897               0.220454798               0.000000000              -0.085136655               0.243750232               0.000000000              -0.094442414               0.267045665               0.000000000              -0.103748172               0.290341099               0.000000000              -0.113053931               0.313636532               0.000000000              -0.122359690               0.336931966               0.000000000              -0.131665448               0.360227399               0.000000000              -0.140971207               0.383522833               0.000000000              -0.150276966               0.406818266               0.000000000              -0.159582724               0.430113700               0.000000000              -0.168888483               0.453409133               0.000000000              -0.178194241               0.476704567               0.000000000              -0.187500000               0.500000000               0.000000000              -0.025947013               0.130444442               0.000000000              -0.032137825               0.153541665               0.000000000              -0.038328636               0.176638887               0.000000000              -0.044519448               0.199736109               0.000000000              -0.050710260               0.222833332               0.000000000              -0.056901071               0.245930554               0.000000000              -0.063091883               0.269027776               0.000000000              -0.069282695               0.292124999               0.000000000              -0.075473506               0.315222221               0.000000000              -0.081664318               0.338319444               0.000000000              -0.087855130               0.361416666               0.000000000              -0.094045942               0.384513888               0.000000000              -0.100236753               0.407611111               0.000000000              -0.106427565               0.430708333               0.000000000              -0.112618377               0.453805555               0.000000000              -0.118809188               0.476902778               0.000000000              -0.125000000               0.500000000               0.000000000              -0.013036280               0.132359569               0.000000000              -0.016127762               0.155337096               0.000000000              -0.019219245               0.178314623               0.000000000              -0.022310727               0.201292150               0.000000000              -0.025402210               0.224269676               0.000000000              -0.028493692               0.247247203               0.000000000              -0.031585175               0.270224730               0.000000000              -0.034676657               0.293202257               0.000000000              -0.037768140               0.316179784               0.000000000              -0.040859622               0.339157311               0.000000000              -0.043951105               0.362134838               0.000000000              -0.047042587               0.385112365               0.000000000              -0.050134070               0.408089892               0.000000000              -0.053225552               0.431067419               0.000000000              -0.056317035               0.454044946               0.000000000              -0.059408517               0.477022473               0.000000000              -0.062500000               0.500000000               0.000000000               0.000000000               0.133000000               0.000000000               0.000000000               0.155937500               0.000000000               0.000000000               0.178875000               0.000000000               0.000000000               0.201812500               0.000000000               0.000000000               0.224750000               0.000000000               0.000000000               0.247687500               0.000000000               0.000000000               0.270625000               0.000000000               0.000000000               0.293562500               0.000000000               0.000000000               0.316500000               0.000000000               0.000000000               0.339437500               0.000000000               0.000000000               0.362375000               0.000000000               0.000000000               0.385312500               0.000000000               0.000000000               0.408250000               0.000000000               0.000000000               0.431187500               0.000000000               0.000000000               0.454125000               0.000000000               0.000000000               0.477062500               0.000000000               0.000000000               0.500000000               0.000000000 </DataArray>
</Points>
<Cells>
<DataArray type="Int32"                                    Name="connectivity"                                                      NumberOfComponents=" 1" format="ascii">
         0          1         18         17          1          2         19         18          2          3         20         19          3          4         21         20          4          5         22         21          5          6         23         22          6          7         24         23          7          8         25         24          8          9         26         25          9         10         27         26         10         11         28         27         11         12         29         28         12         13         30         29         13         14         31         30         14         15         32         31         15         16         33         32         17         18         35         34         18         19         36         35         19         20         37         36         20         21         38         37         21         22         39         38         22         23         40         39         23         24         41         40         24         25         42         41         25         26         43         42         26         27         44         43         27         28         45         44         28         29         46         45         29         30         47         46         30         31         48         47         31         32         49         48         32         33         50         49         34         35         52         51         35         36         53         52         36         37         54         53         37         38         55         54         38         39         56         55         39         40         57         56         40         41         58         57         41         42         59         58         42         43         60         59         43         44         61         60         44         45         62         61         45         46         63         62         46         47         64         63         47         48         65         64         48         49         66         65         49         50         67         66         51         52         69         68         52         53         70         69         53         54         71         70         54         55         72         71         55         56         73         72         56         57         74         73         57         58         75         74         58         59         76         75         59         60         77         76         60         61         78         77         61         62         79         78         62         63         80         79         63         64         81         80         64         65         82         81         65         66         83         82         66         67         84         83         68         69         86         85         69         70         87         86         70         71         88         87         71         72         89         88         72         73         90         89         73         74         91         90         74         75         92         91         75         76         93         92         76         77         94         93         77         78         95         94         78         79         96         95         79         80         97         96         80         81         98         97         81         82         99         98         82         83        100         99         83         84        101        100         85         86        103        102         86         87        104        103         87         88        105        104         88         89        106        105         89         90        107        106         90         91        108        107         91         92        109        108         92         93        110        109         93         94        111        110         94         95        112        111         95         96        113        112         96         97        114        113         97         98        115        114         98         99        116        115         99        100        117        116        100        101        118        117        102        103        120        119        103        104        121        120        104        105        122        121        105        106        123        122        106        107        124        123        107        108        125        124        108        109        126        125        109        110        127        126        110        111        128        127        111        112        129        128        112        113        130        129        113        114        131        130        114        115        132        131        115        116        133        132        116        117        134        133        117        118        135        134        119        120        137        136        120        121        138        137        121        122        139        138        122        123        140        139        123        124        141        140        124        125        142        141        125        126        143        142        126        127        144        143        127        128        145        144        128        129        146        145        129        130        147        146        130        131        148        147        131        132        149        148        132        133        150        149        133        134        151        150        134        135        152        151        136        137        154        153        137        138        155        154        138        139        156        155        139        140        157        156        140        141        158        157        141        142        159        158        142        143        160        159        143        144        161        160        144        145        162        161        145        146        163        162        146        147        164        163        147        148        165        164        148        149        166        165        149        150        167        166        150        151        168        167        151        152        169        168        153        154        171        170        154        155        172        171        155        156        173        172        156        157        174        173        157        158        175        174        158        159        176        175        159        160        177        176        160        161        178        177        161        162        179        178        162        163        180        179        163        164        181        180        164        165        182        181        165        166        183        182        166        167        184        183        167        168        185        184        168        169        186        185        170        171        188        187        171        172        189        188        172        173        190        189        173        174        191        190        174        175        192        191        175        176        193        192        176        177        194        193        177        178        195        194        178        179        196        195        179        180        197        196        180        181        198        197        181        182        199        198        182        183        200        199        183        184        201        200        184        185        202        201        185        186        203        202        187        188        205        204        188        189        206        205        189        190        207        206        190        191        208        207        191        192        209        208        192        193        210        209        193        194        211        210        194        195        212        211        195        196        213        212        196        197        214        213        197        198        215        214        198        199        216        215        199        200        217        216        200        201        218        217        201        202        219        218        202        203        220        219        204        205        222        221        205        206        223        222        206        207        224        223        207        208        225        224        208        209        226        225        209        210        227        226        210        211        228        227        211        212        229        228        212        213        230        229        213        214        231        230        214        215        232        231        215        216        233        232        216        217        234        233        217        218        235        234        218        219        236        235        219        220        237        236        221        222        239        238        222        223        240        239        223        224        241        240        224        225        242        241        225        226        243        242        226        227        244        243        227        228        245        244        228        229        246        245        229        230        247        246        230        231        248        247        231        232        249        248        232        233        250        249        233        234        251        250        234        235        252        251        235        236        253        252        236        237        254        253        238        239        256        255        239        240        257        256        240        241        258        257        241        242        259        258        242        243        260        259        243        244        261        260        244        245        262        261        245        246        263        262        246        247        264        263        247        248        265        264        248        249        266        265        249        250        267        266        250        251        268        267        251        252        269        268        252        253        270        269        253        254        271        270        255        256        273        272        256        257        274        273        257        258        275        274        258        259        276        275        259        260        277        276        260        261        278        277        261        262        279        278        262        263        280        279        263        264        281        280        264        265        282        281        265        266        283        282        266        267        284        283        267        268        285        284        268        269        286        285        269        270        287        286        270        271        288        287        306        307          1          0        307        308          2          1        308        309          3          2        309        310          4          3        310        311          5          4        311        312          6          5        312        313          7          6        313        314          8          7        314        315          9          8        315        316         10          9        316        317         11         10        317        318         12         11        318        319         13         12        319        320         14         13        320        321         15         14        321        322         16         15        323        324        307        306        324        325        308        307        325        326        309        308        326        327        310        309        327        328        311        310        328        329        312        311        329        330        313        312        330        331        314        313        331        332        315        314        332        333        316        315        333        334        317        316        334        335        318        317        335        336        319        318        336        337        320        319        337        338        321        320        338        339        322        321        340        341        324        323        341        342        325        324        342        343        326        325        343        344        327        326        344        345        328        327        345        346        329        328        346        347        330        329        347        348        331        330        348        349        332        331        349        350        333        332        350        351        334        333        351        352        335        334        352        353        336        335        353        354        337        336        354        355        338        337        355        356        339        338        357        358        341        340        358        359        342        341        359        360        343        342        360        361        344        343        361        362        345        344        362        363        346        345        363        364        347        346        364        365        348        347        365        366        349        348        366        367        350        349        367        368        351        350        368        369        352        351        369        370        353        352        370        371        354        353        371        372        355        354        372        373        356        355        374        375        358        357        375        376        359        358        376        377        360        359        377        378        361        360        378        379        362        361        379        380        363        362        380        381        364        363        381        382        365        364        382        383        366        365        383        384        367        366        384        385        368        367        385        386        369        368        386        387        370        369        387        388        371        370        388        389        372        371        389        390        373        372        391        392        375        374        392        393        376        375        393        394        377        376        394        395        378        377        395        396        379        378        396        397        380        379        397        398        381        380        398        399        382        381        399        400        383        382        400        401        384        383        401        402        385        384        402        403        386        385        403        404        387        386        404        405        388        387        405        406        389        388        406        407        390        389        408        409        392        391        409        410        393        392        410        411        394        393        411        412        395        394        412        413        396        395        413        414        397        396        414        415        398        397        415        416        399        398        416        417        400        399        417        418        401        400        418        419        402        401        419        420        403        402        420        421        404        403        421        422        405        404        422        423        406        405        423        424        407        406        425        426        409        408        426        427        410        409        427        428        411        410        428        429        412        411        429        430        413        412        430        431        414        413        431        432        415        414        432        433        416        415        433        434        417        416        434        435        418        417        435        436        419        418        436        437        420        419        437        438        421        420        438        439        422        421        439        440        423        422        440        441        424        423        442        443        426        425        443        444        427        426        444        445        428        427        445        446        429        428        446        447        430        429        447        448        431        430        448        449        432        431        449        450        433        432        450        451        434        433        451        452        435        434        452        453        436        435        453        454        437        436        454        455        438        437        455        456        439        438        456        457        440        439        457        458        441        440        459        460        443        442        460        461        444        443        461        462        445        444        462        463        446        445        463        464        447        446        464        465        448        447        465        466        449        448        466        467        450        449        467        468        451        450        468        469        452        451        469        470        453        452        470        471        454        453        471        472        455        454        472        473        456        455        473        474        457        456        474        475        458        457        476        477        460        459        477        478        461        460        478        479        462        461        479        480        463        462        480        481        464        463        481        482        465        464        482        483        466        465        483        484        467        466        484        485        468        467        485        486        469        468        486        487        470        469        487        488        471        470        488        489        472        471        489        490        473        472        490        491        474        473        491        492        475        474        493        494        477        476        494        495        478        477        495        496        479        478        496        497        480        479        497        498        481        480        498        499        482        481        499        500        483        482        500        501        484        483        501        502        485        484        502        503        486        485        503        504        487        486        504        505        488        487        505        506        489        488        506        507        490        489        507        508        491        490        508        509        492        491        510        511        494        493        511        512        495        494        512        513        496        495        513        514        497        496        514        515        498        497        515        516        499        498        516        517        500        499        517        518        501        500        518        519        502        501        519        520        503        502        520        521        504        503        521        522        505        504        522        523        506        505        523        524        507        506        524        525        508        507        525        526        509        508        527        528        511        510        528        529        512        511        529        530        513        512        530        531        514        513        531        532        515        514        532        533        516        515        533        534        517        516        534        535        518        517        535        536        519        518        536        537        520        519        537        538        521        520        538        539        522        521        539        540        523        522        540        541        524        523        541        542        525        524        542        543        526        525        544        545        528        527        545        546        529        528        546        547        530        529        547        548        531        530        548        549        532        531        549        550        533        532        550        551        534        533        551        552        535        534        552        553        536        535        553        554        537        536        554        555        538        537        555        556        539        538        556        557        540        539        557        558        541        540        558        559        542        541        559        560        543        542        561        562        545        544        562        563        546        545        563        564        547        546        564        565        548        547        565        566        549        548        566        567        550        549        567        568        551        550        568        569        552        551        569        570        553        552        570        571        554        553        571        572        555        554        572        573        556        555        573        574        557        556        574        575        558        557        575        576        559        558        576        577        560        559        578        579        596        595        579        580        597        596        580        581        598        597        581        582        599        598        582        583        600        599        583        584        601        600        584        585        602        601        585        586        603        602        586        587        604        603        587        588        605        604        588        589        606        605        589        590        607        606        590        591        608        607        591        592        609        608        592        593        610        609        593        594        611        610        595        596        613        612        596        597        614        613        597        598        615        614        598        599        616        615        599        600        617        616        600        601        618        617        601        602        619        618        602        603        620        619        603        604        621        620        604        605        622        621        605        606        623        622        606        607        624        623        607        608        625        624        608        609        626        625        609        610        627        626        610        611        628        627        612        613        630        629        613        614        631        630        614        615        632        631        615        616        633        632        616        617        634        633        617        618        635        634        618        619        636        635        619        620        637        636        620        621        638        637        621        622        639        638        622        623        640        639        623        624        641        640        624        625        642        641        625        626        643        642        626        627        644        643        627        628        645        644        629        630        647        646        630        631        648        647        631        632        649        648        632        633        650        649        633        634        651        650        634        635        652        651        635        636        653        652        636        637        654        653        637        638        655        654        638        639        656        655        639        640        657        656        640        641        658        657        641        642        659        658        642        643        660        659        643        644        661        660        644        645        662        661        646        647        664        663        647        648        665        664        648        649        666        665        649        650        667        666        650        651        668        667        651        652        669        668        652        653        670        669        653        654        671        670        654        655        672        671        655        656        673        672        656        657        674        673        657        658        675        674        658        659        676        675        659        660        677        676        660        661        678        677        661        662        679        678        663        664        681        680        664        665        682        681        665        666        683        682        666        667        684        683        667        668        685        684        668        669        686        685        669        670        687        686        670        671        688        687        671        672        689        688        672        673        690        689        673        674        691        690        674        675        692        691        675        676        693        692        676        677        694        693        677        678        695        694        678        679        696        695        680        681        698        697        681        682        699        698        682        683        700        699        683        684        701        700        684        685        702        701        685        686        703        702        686        687        704        703        687        688        705        704        688        689        706        705        689        690        707        706        690        691        708        707        691        692        709        708        692        693        710        709        693        694        711        710        694        695        712        711        695        696        713        712        697        698        715        714        698        699        716        715        699        700        717        716        700        701        718        717        701        702        719        718        702        703        720        719        703        704        721        720        704        705        722        721        705        706        723        722        706        707        724        723        707        708        725        724        708        709        726        725        709        710        727        726        710        711        728        727        711        712        729        728        712        713        730        729        714        715        732        731        715        716        733        732        716        717        734        733        717        718        735        734        718        719        736        735        719        720        737        736        720        721        738        737        721        722        739        738        722        723        740        739        723        724        741        740        724        725        742        741        725        726        743        742        726        727        744        743        727        728        745        744        728        729        746        745        729        730        747        746        731        732        749        748        732        733        750        749        733        734        751        750        734        735        752        751        735        736        753        752        736        737        754        753        737        738        755        754        738        739        756        755        739        740        757        756        740        741        758        757        741        742        759        758        742        743        760        759        743        744        761        760        744        745        762        761        745        746        763        762        746        747        764        763        748        749        766        765        749        750        767        766        750        751        768        767        751        752        769        768        752        753        770        769        753        754        771        770        754        755        772        771        755        756        773        772        756        757        774        773        757        758        775        774        758        759        776        775        759        760        777        776        760        761        778        777        761        762        779        778        762        763        780        779        763        764        781        780        765        766        783        782        766        767        784        783        767        768        785        784        768        769        786        785        769        770        787        786        770        771        788        787        771        772        789        788        772        773        790        789        773        774        791        790        774        775        792        791        775        776        793        792        776        777        794        793        777        778        795        794        778        779        796        795        779        780        797        796        780        781        798        797        782        783        800        799        783        784        801        800        784        785        802        801        785        786        803        802        786        787        804        803        787        788        805        804        788        789        806        805        789        790        807        806        790        791        808        807        791        792        809        808        792        793        810        809        793        794        811        810        794        795        812        811        795        796        813        812        796        797        814        813        797        798        815        814        799        800        817        816        800        801        818        817        801        802        819        818        802        803        820        819        803        804        821        820        804        805        822        821        805        806        823        822        806        807        824        823        807        808        825        824        808        809        826        825        809        810        827        826        810        811        828        827        811        812        829        828        812        813        830        829        813        814        831        830        814        815        832        831        816        817        834        833        817        818        835        834        818        819        836        835        819        820        837        836        820        821        838        837        821        822        839        838        822        823        840        839        823        824        841        840        824        825        842        841        825        826        843        842        826        827        844        843        827        828        845        844        828        829        846        845        829        830        847        846        830        831        848        847        831        832        849        848        833        834        562        561        834        835        563        562        835        836        564        563        836        837        565        564        837        838        566        565        838        839        567        566        839        840        568        567        840        841        569        568        841        842        570        569        842        843        571        570        843        844        572        571        844        845        573        572        845        846        574        573        846        847        575        574        847        848        576        575        848        849        577        576        884        885        579        578        885        886        580        579        886        887        581        580        887        888        582        581        888        889        583        582        889        890        584        583        890        891        585        584        891        892        586        585        892        893        587        586        893        894        588        587        894        895        589        588        895        896        590        589        896        897        591        590        897        898        592        591        898        899        593        592        899        900        594        593        901        902        885        884        902        903        886        885        903        904        887        886        904        905        888        887        905        906        889        888        906        907        890        889        907        908        891        890        908        909        892        891        909        910        893        892        910        911        894        893        911        912        895        894        912        913        896        895        913        914        897        896        914        915        898        897        915        916        899        898        916        917        900        899        918        919        902        901        919        920        903        902        920        921        904        903        921        922        905        904        922        923        906        905        923        924        907        906        924        925        908        907        925        926        909        908        926        927        910        909        927        928        911        910        928        929        912        911        929        930        913        912        930        931        914        913        931        932        915        914        932        933        916        915        933        934        917        916        935        936        919        918        936        937        920        919        937        938        921        920        938        939        922        921        939        940        923        922        940        941        924        923        941        942        925        924        942        943        926        925        943        944        927        926        944        945        928        927        945        946        929        928        946        947        930        929        947        948        931        930        948        949        932        931        949        950        933        932        950        951        934        933        952        953        936        935        953        954        937        936        954        955        938        937        955        956        939        938        956        957        940        939        957        958        941        940        958        959        942        941        959        960        943        942        960        961        944        943        961        962        945        944        962        963        946        945        963        964        947        946        964        965        948        947        965        966        949        948        966        967        950        949        967        968        951        950        969        970        953        952        970        971        954        953        971        972        955        954        972        973        956        955        973        974        957        956        974        975        958        957        975        976        959        958        976        977        960        959        977        978        961        960        978        979        962        961        979        980        963        962        980        981        964        963        981        982        965        964        982        983        966        965        983        984        967        966        984        985        968        967        986        987        970        969        987        988        971        970        988        989        972        971        989        990        973        972        990        991        974        973        991        992        975        974        992        993        976        975        993        994        977        976        994        995        978        977        995        996        979        978        996        997        980        979        997        998        981        980        998        999        982        981        999       1000        983        982       1000       1001        984        983       1001       1002        985        984       1003       1004        987        986       1004       1005        988        987       1005       1006        989        988       1006       1007        990        989       1007       1008        991        990       1008       1009        992        991       1009       1010        993        992       1010       1011        994        993       1011       1012        995        994       1012       1013        996        995       1013       1014        997        996       1014       1015        998        997       1015       1016        999        998       1016       1017       1000        999       1017       1018       1001       1000       1018       1019       1002       1001       1020       1021       1004       1003       1021       1022       1005       1004       1022       1023       1006       1005       1023       1024       1007       1006       1024       1025       1008       1007       1025       1026       1009       1008       1026       1027       1010       1009       1027       1028       1011       1010       1028       1029       1012       1011       1029       1030       1013       1012       1030       1031       1014       1013       1031       1032       1015       1014       1032       1033       1016       1015       1033       1034       1017       1016       1034       1035       1018       1017       1035       1036       1019       1018       1037       1038       1021       1020       1038       1039       1022       1021       1039       1040       1023       1022       1040       1041       1024       1023       1041       1042       1025       1024       1042       1043       1026       1025       1043       1044       1027       1026       1044       1045       1028       1027       1045       1046       1029       1028       1046       1047       1030       1029       1047       1048       1031       1030       1048       1049       1032       1031       1049       1050       1033       1032       1050       1051       1034       1033       1051       1052       1035       1034       1052       1053       1036       1035       1054       1055       1038       1037       1055       1056       1039       1038       1056       1057       1040       1039       1057       1058       1041       1040       1058       1059       1042       1041       1059       1060       1043       1042       1060       1061       1044       1043       1061       1062       1045       1044       1062       1063       1046       1045       1063       1064       1047       1046       1064       1065       1048       1047       1065       1066       1049       1048       1066       1067       1050       1049       1067       1068       1051       1050       1068       1069       1052       1051       1069       1070       1053       1052       1071       1072       1055       1054       1072       1073       1056       1055       1073       1074       1057       1056       1074       1075       1058       1057       1075       1076       1059       1058       1076       1077       1060       1059       1077       1078       1061       1060       1078       1079       1062       1061       1079       1080       1063       1062       1080       1081       1064       1063       1081       1082       1065       1064       1082       1083       1066       1065       1083       1084       1067       1066       1084       1085       1068       1067       1085       1086       1069       1068       1086       1087       1070       1069       1088       1089       1072       1071       1089       1090       1073       1072       1090       1091       1074       1073       1091       1092       1075       1074       1092       1093       1076       1075       1093       1094       1077       1076       1094       1095       1078       1077       1095       1096       1079       1078       1096       1097       1080       1079       1097       1098       1081       1080       1098       1099       1082       1081       1099       1100       1083       1082       1100       1101       1084       1083       1101       1102       1085       1084       1102       1103       1086       1085       1103       1104       1087       1086       1105       1106       1089       1088       1106       1107       1090       1089       1107       1108       1091       1090       1108       1109       1092       1091       1109       1110       1093       1092       1110       1111       1094       1093       1111       1112       1095       1094       1112       1113       1096       1095       1113       1114       1097       1096       1114       1115       1098       1097       1115       1116       1099       1098       1116       1117       1100       1099       1117       1118       1101       1100       1118       1119       1102       1101       1119       1120       1103       1102       1120       1121       1104       1103       1122       1123       1106       1105       1123       1124       1107       1106       1124       1125       1108       1107       1125       1126       1109       1108       1126       1127       1110       1109       1127       1128       1111       1110       1128       1129       1112       1111       1129       1130       1113       1112       1130       1131       1114       1113       1131       1132       1115       1114       1132       1133       1116       1115       1133       1134       1117       1116       1134       1135       1118       1117       1135       1136       1119       1118       1136       1137       1120       1119       1137       1138       1121       1120        272        273       1123       1122        273        274       1124       1123        274        275       1125       1124        275        276       1126       1125        276        277       1127       1126        277        278       1128       1127        278        279       1129       1128        279        280       1130       1129        280        281       1131       1130        281        282       1132       1131        282        283       1133       1132        283        284       1134       1133        284        285       1135       1134        285        286       1136       1135        286        287       1137       1136        287        288       1138       1137 </DataArray>
<DataArray type="Int32"                                    Name="offsets"                                                      NumberOfComponents=" 1" format="ascii">
         4          8         12         16         20         24         28         32         36         40         44         48         52         56         60         64         68         72         76         80         84         88         92         96        100        104        108        112        116        120        124        128        132        136        140        144        148        152        156        160        164        168        172        176        180        184        188        192        196        200        204        208        212        216        220        224        228        232        236        240        244        248        252        256        260        264        268        272        276        280        284        288        292        296        300        304        308        312        316        320        324        328        332        336        340        344        348        352        356        360        364        368        372        376        380        384        388        392        396        400        404        408        412        416        420        424        428        432        436        440        444        448        452        456        460        464        468        472        476        480        484        488        492        496        500        504        508        512        516        520        524        528        532        536        540        544        548        552        556        560        564        568        572        576        580        584        588        592        596        600        604        608        612        616        620        624        628        632        636        640        644        648        652        656        660        664        668        672        676        680        684        688        692        696        700        704        708        712        716        720        724        728        732        736        740        744        748        752        756        760        764        768        772        776        780        784        788        792        796        800        804        808        812        816        820        824        828        832        836        840        844        848        852        856        860        864        868        872        876        880        884        888        892        896        900        904        908        912        916        920        924        928        932        936        940        944        948        952        956        960        964        968        972        976        980        984        988        992        996       1000       1004       1008       1012       1016       1020       1024       1028       1032       1036       1040       1044       1048       1052       1056       1060       1064       1068       1072       1076       1080       1084       1088       1092       1096       1100       1104       1108       1112       1116       1120       1124       1128       1132       1136       1140       1144       1148       1152       1156       1160       1164       1168       1172       1176       1180       1184       1188       1192       1196       1200       1204       1208       1212       1216       1220       1224       1228       1232       1236       1240       1244       1248       1252       1256       1260       1264       1268       1272       1276       1280       1284       1288       1292       1296       1300       1304       1308       1312       1316       1320       1324       1328       1332       1336       1340       1344       1348       1352       1356       1360       1364       1368       1372       1376       1380       1384       1388       1392       1396       1400       1404       1408       1412       1416       1420       1424       1428       1432       1436       1440       1444       1448       1452       1456       1460       1464       1468       1472       1476       1480       1484       1488       1492       1496       1500       1504       1508       1512       1516       1520       1524       1528       1532       1536       1540       1544       1548       1552       1556       1560       1564       1568       1572       1576       1580       1584       1588       1592       1596       1600       1604       1608       1612       1616       1620       1624       1628       1632       1636       1640       1644       1648       1652       1656       1660       1664       1668       1672       1676       1680       1684       1688       1692       1696       1700       1704       1708       1712       1716       1720       1724       1728       1732       1736       1740       1744       1748       1752       1756       1760       1764       1768       1772       1776       1780       1784       1788       1792       1796       1800       1804       1808       1812       1816       1820       1824       1828       1832       1836       1840       1844       1848       1852       1856       1860       1864       1868       1872       1876       1880       1884       1888       1892       1896       1900       1904       1908       1912       1916       1920       1924       1928       1932       1936       1940       1944       1948       1952       1956       1960       1964       1968       1972       1976       1980       1984       1988       1992       1996       2000       2004       2008       2012       2016       2020       2024       2028       2032       2036       2040       2044       2048       2052       2056       2060       2064       2068       2072       2076       2080       2084       2088       2092       2096       2100       2104       2108       2112       2116       2120       2124       2128       2132       2136       2140       2144       2148       2152       2156       2160       2164       2168       2172       2176       2180       2184       2188       2192       2196       2200       2204       2208       2212       2216       2220       2224       2228       2232       2236       2240       2244       2248       2252       2256       2260       2264       2268       2272       2276       2280       2284       2288       2292       2296       2300       2304       2308       2312       2316       2320       2324       2328       2332       2336       2340       2344       2348       2352       2356       2360       2364       2368       2372       2376       2380       2384       2388       2392       2396       2400       2404       2408       2412       2416       2420       2424       2428       2432       2436       2440       2444       2448       2452       2456       2460       2464       2468       2472       2476       2480       2484       2488       2492       2496       2500       2504       2508       2512       2516       2520       2524       2528       2532       2536       2540       2544       2548       2552       2556       2560       2564       2568       2572       2576       2580       2584       2588       2592       2596       2600       2604       2608       2612       2616       2620       2624       2628       2632       2636       2640       2644       2648       2652       2656       2660       2664       2668       2672       2676       2680       2684       2688       2692       2696       2700       2704       2708       2712       2716       2720       2724       2728       2732       2736       2740       2744       2748       2752       2756       2760       2764       2768       2772       2776       2780       2784       2788       2792       2796       2800       2804       2808       2812       2816       2820       2824       2828       2832       2836       2840       2844       2848       2852       2856       2860       2864       2868       2872       2876       2880       2884       2888       2892       2896       2900       2904       2908       2912       2916       2920       2924       2928       2932       2936       2940       2944       2948       2952       2956       2960       2964       2968       2972       2976       2980       2984       2988       2992       2996       3000       3004       3008       3012       3016       3020       3024       3028       3032       3036       3040       3044       3048       3052       3056       3060       3064       3068       3072       3076       3080       3084       3088       3092       3096       3100       3104       3108       3112       3116       3120       3124       3128       3132       3136       3140       3144       3148       3152       3156       3160       3164       3168       3172       3176       3180       3184       3188       3192       3196       3200       3204       3208       3212       3216       3220       3224       3228       3232       3236       3240       3244       3248       3252       3256       3260       3264       3268       3272       3276       3280       3284       3288       3292       3296       3300       3304       3308       3312       3316       3320       3324       3328       3332       3336       3340       3344       3348       3352       3356       3360       3364       3368       3372       3376       3380       3384       3388       3392       3396       3400       3404       3408       3412       3416       3420       3424       3428       3432       3436       3440       3444       3448       3452       3456       3460       3464       3468       3472       3476       3480       3484       3488       3492       3496       3500       3504       3508       3512       3516       3520       3524       3528       3532       3536       3540       3544       3548       3552       3556       3560       3564       3568       3572       3576       3580       3584       3588       3592       3596       3600       3604       3608       3612       3616       3620       3624       3628       3632       3636       3640       3644       3648       3652       3656       3660       3664       3668       3672       3676       3680       3684       3688       3692       3696       3700       3704       3708       3712       3716       3720       3724       3728       3732       3736       3740       3744       3748       3752       3756       3760       3764       3768       3772       3776       3780       3784       3788       3792       3796       3800       3804       3808       3812       3816       3820       3824       3828       3832       3836       3840       3844       3848       3852       3856       3860       3864       3868       3872       3876       3880       3884       3888       3892       3896       3900       3904       3908       3912       3916       3920       3924       3928       3932       3936       3940       3944       3948       3952       3956       3960       3964       3968       3972       3976       3980       3984       3988       3992       3996       4000       4004       4008       4012       4016       4020       4024       4028       4032       4036       4040       4044       4048       4052       4056       4060       4064       4068       4072       4076       4080       4084       4088       4092       4096 </DataArray>
<DataArray type="UInt8"                                    Name="types"                                                      NumberOfComponents=" 1" format="ascii">
         9          9          9          9          9          9          9          9          9          9          9          9          9          9          9          9          9          9          9          9          9          9          9          9          9          9          9          9          9          9          9          9          9          9          9          9          9          9          9          9          9          9          9          9          9          9          9          9          9          9          9          9          9          9          9          9          9          9          9          9          9          9          9          9          9          9          9          9          9          9          9          9          9          9          9          9          9          9          9          9          9          9          9          9          9          9          9          9          9          9          9          9          9          9          9          9          9          9          9          9          9          9          9          9          9          9          9          9          9          9          9          9          9          9          9          9          9          9          9          9          9          9          9          9          9          9          9          9          9          9          9          9          9          9          9          9          9          9          9          9          9          9          9          9          9          9          9          9          9          9          9          9          9          9          9          9          9          9          9          9          9          9          9          9          9          9          9          9          9          9          9          9          9          9          9          9          9          9          9          9          9          9          9          9          9          9          9          9          9          9          9          9          9          9          9          9          9          9          9          9          9          9          9          9          9          9          9          9          9          9          9          9          9          9          9          9          9          9          9          9          9          9          9          9          9          9          9          9          9          9          9          9          9          9          9          9          9          9          9          9          9          9          9          9          9          9          9          9          9          9          9          9          9          9          9          9          9          9          9          9          9          9          9          9          9          9          9          9          9          9          9          9          9          9          9          9          9          9          9          9          9          9          9          9          9          9          9          9          9          9          9          9          9          9          9          9          9          9          9          9          9          9          9          9          9          9          9          9          9          9          9          9          9          9          9          9          9          9          9          9          9          9          9          9          9          9          9          9          9          9          9          9          9          9          9          9          9          9          9          9          9          9          9          9          9          9          9          9          9          9          9          9          9          9          9          9          9          9          9          9          9          9          9          9          9          9          9          9          9          9          9          9          9          9          9          9          9          9          9          9          9          9          9          9          9          9          9          9          9          9          9          9          9          9          9          9          9          9          9          9          9          9          9          9          9          9          9          9          9          9          9          9          9          9          9          9          9          9          9          9          9          9          9          9          9          9          9          9          9          9          9          9          9          9          9          9          9          9          9          9          9          9          9          9          9          9          9          9          9          9          9          9          9          9          9          9          9          9          9          9          9          9          9          9          9          9          9          9          9          9          9          9          9          9          9          9          9          9          9          9          9          9          9          9          9          9          9          9          9          9          9          9          9          9          9          9          9          9          9          9          9          9          9          9          9          9          9          9          9          9          9          9          9          9          9          9          9          9          9          9          9          9          9          9          9          9          9          9          9          9          9          9          9          9          9          9          9          9          9          9          9          9          9          9          9          9          9          9          9          9          9          9          9          9          9          9          9          9          9          9          9          9          9          9          9          9          9          9          9          9          9          9          9          9          9          9          9          9          9          9          9          9          9          9          9          9          9          9          9          9          9          9          9          9          9          9          9          9          9          9          9          9          9          9          9          9          9          9          9          9          9          9          9          9          9          9          9          9          9          9          9          9          9          9          9          9          9          9          9          9          9          9          9          9          9          9          9          9          9          9          9          9          9          9          9          9          9          9          9          9          9          9          9          9          9          9          9          9          9          9          9          9          9          9          9          9          9          9          9          9          9          9          9          9          9          9          9          9          9          9          9          9          9          9          9          9          9          9          9          9          9          9          9          9          9          9          9          9          9          9          9          9          9          9          9          9          9          9          9          9          9          9          9          9          9          9          9          9          9          9          9          9          9          9          9          9          9          9          9          9          9          9          9          9          9          9          9          9          9          9          9          9          9          9          9          9          9          9          9          9          9          9          9          9          9          9          9          9          9          9          9          9          9          9          9          9          9          9          9          9          9          9          9          9          9          9          9          9          9          9          9          9          9          9          9          9          9          9          9          9          9          9          9          9          9          9          9          9          9          9          9          9          9          9          9          9          9          9          9          9          9          9          9          9          9          9          9          9          9          9          9          9          9          9          9          9          9          9          9          9          9          9          9          9          9          9          9          9          9          9          9          9          9          9          9          9          9          9          9          9          9          9          9          9          9          9          9          9          9          9          9          9          9          9          9          9          9          9          9          9          9          9          9          9          9          9          9          9          9          9          9          9          9          9          9          9          9          9          9          9          9          9          9          9          9          9          9          9          9          9          9          9          9          9          9          9          9          9          9          9          9          9          9          9          9          9          9          9          9          9          9          9          9          9          9          9          9          9          9          9          9          9          9          9          9          9          9          9          9          9          9          9          9          9          9          9          9          9          9          9          9          9          9          9          9          9          9          9          9          9          9          9          9          9          9          9          9          9          9          9          9          9          9          9          9          9          9          9          9          9          9          9          9          9          9          9          9          9          9          9          9          9          9          9          9          9          9          9          9          9          9          9          9          9          9          9          9          9          9          9          9          9          9          9          9          9          9          9          9          9          9          9          9          9 </DataArray>
</Cells>
<CellData>
<DataArray type="Int32"                                    Name="material"                                                      NumberOfComponents=" 1" format="ascii">
         1          1          1          1          1          1          1          1          1          1          1          1          1          1          1          1          1          1          1          1          1          1          1          1          1          1          1          1          1          1          1          1          1          1          1          1          1          1          1          1          1          1          1          1          1          1          1          1          1          1          1          1          1          1          1          1          1          1          1          1          1          1          1          1          1          1          1          1          1          1          1          1          1          1          1          1          1          1          1          1          1          1          1          1          1          1          1          1          1          1          1          1          1          1          1          1          1          1          1          1          1          1          1          1          1          1          1          1          1          1          1          1          1          1          1          1          1          1          1          1          1          1          1          1          1          1          1          1          1          1          1          1          1          1          1          1          1          1          1          1          1          1          1          1          1          1          1          1          1          1          1          1          1          1          1          1          1          1          1          1          1          1          1          1          1          1          1          1          1          1          1          1          1          1          1          1          1          1          1          1          1          1          1          1          1          1          1          1          1          1          1          1          1          1          1          1          1          1          1          1          1          1          1          1          1          1          1          1          1          1          1          1          1          1          1          1          1          1          1          1          1          1          1          1          1          1          1          1          1          1          1          1          1          1          1          1          1          1          1          1          1          1          1          1          1          1          1          1          1          1          1          1          1          1          1          1          1          1          1          1          1          1          1          1          1          1          1          1          1          1          1          1          1          1          1          1          1          1          1          1          1          1          1          1          1          1          1          1          1          1          1          1          1          1          1          1          1          1          1          1          1          1          1          1          1          1          1          1          1          1          1          1          1          1          1          1          1          1          1          1          1          1          1          1          1          1          1          1          1          1          1          1          1          1          1          1          1          1          1          1          1          1          1          1          1          1          1          1          1          1          1          1          1          1          1          1          1          1          1          1          1          1          1          1          1          1          1          1          1          1          1          1          1          1          1          1          1          1          1          1          1          1          1          1          1          1          1          1          1          1          1          1          1          1          1          1          1          1          1          1          1          1          1          1          1          1          1          1          1          1          1          1          1          1          1          1          1          1          1          1          1          1          1          1          1          1          1          1          1          1          1          1          1          1          1          1          1          1          1          1          1          1          1          1          1          1          1          1          1          1          1          1          1          1          1          1          1          1          1          1          1          1          1          1          1          1          1          1          1          1          1          1          1          1          1          1          1          1          1          1          1          1          1          1          1          1          1          1          1          1          1          1          1          1          1          1          1          1          1          1          1          1          1          1          1          1          1          1          1          1          1          1          1          1          1          1          1          1          1          1          1          1          1          1          1          1          1          1          1          1          1          1          1          1          1          1          1          1          1          1          1          1          1          1          1          1          1          1          1          1          1          1          1          1          1          1          1          1          1          1          1          1          1          1          1          1          1          1          1          1          1          1          1          1          1          1          1          1          1          1          1          1          1          1          1          1          1          1          1          1          1          1          1          1          1          1          1          1          1          1          1          1          1          1          1          1          1          1          1          1          1          1          1          1          1          1          1          1          1          1          1          1          1          1          1          1          1          1          1          1          1          1          1          1          1          1          1          1          1          1          1          1          1          1          1          1          1          1          1          1          1          1          1          1          1          1          1          1          1          1          1          1          1          1          1          1          1          1          1          1          1          1          1          1          1          1          1          1          1          1          1          1          1          1          1          1          1          1          1          1          1          1          1          1          1          1          1          1          1          1          1          1          1          1          1          1          1          1          1          1          1          1          1          1          1          1          1          1          1          1          1          1          1          1          1          1          1          1          1          1          1          1          1          1          1          1          1          1          1          1          1          1          1          1          1          1          1          1          1          1          1          1          1          1          1          1          1          1          1          1          1          1          1          1          1          1          1          1          1          1          1          1          1          1          1          1          1          1          1          1          1          1          1          1          1          1          1          1          1          1          1          1          1          1          1          1          1          1          1          1          1          1          1          1          1          1          1          1          1          1          1          1          1          1          1          1          1          1          1          1          1          1          1          1          1          1          1          1          1          1          1          1          1          1          1          1          1          1          1          1          1          1          1          1          1          1          1          1          1          1          1          1          1          1          1          1          1          1          1          1          1          1          1          1          1          1          1          1          1          1          1          1          1          1          1          1          1          1          1          1          1          1          1          1          1          1          1          1          1          1          1          1          1          1          1          1          1          1          1          1          1          1          1          1          1          1          1          1          1          1          1          1          1          1          1          1          1          1          1          1          1          1          1          1          1          1          1          1          1          1          1          1          1          1          1          1          1          1          1          1          1          1          1          1          1          1          1          1          1          1          1          1          1          1          1          1          1          1          1          1          1          1          1          1          1          1          1          1          1          1          1          1          1          1          1          1          1          1          1          1          1          1          1          1          1          1          1          1          1          1          1          1          1          1          1          1          1          1          1          1          1          1          1          1          1          1          1          1          1          1          1          1          1          1          1          1          1          1          1          1          1          1          1          1 </DataArray>
</CellData>
<PointData>
<DataArray type="Float64"                                    Name="u"                                                      NumberOfComponents=" 3" format="ascii">
             -0.000132537               0.000000000               0.999999992              -0.000158951               0.000000000               0.999999992              -0.000171208               0.000000000               0.999999992              -0.000178198               0.000000000               0.999999992              -0.000183570              -0.000000000               0.999999992              -0.000188821               0.000000000               0.999999992              -0.000194455               0.000000000               0.999999992              -0.000200801               0.000000000               0.999999992              -0.000208044               0.000000000               0.999999992              -0.000216261               0.000000000               0.999999992              -0.000225420              -0.000000000               0.999999992              -0.000235496               0.000000000               0.999999992              -0.000246453               0.000000000               0.999999992              -0.000258372               0.000000000               0.999999992              -0.000271272               0.000000000               0.999999992              -0.000284954               0.000000000               0.999999992              -0.000299197               0.000000000               0.999999992              -0.000131713               0.000066589               0.999999992              -0.000156775               0.000057569               0.999999992              -0.000168251               0.000054702               0.999999992              -0.000174852               0.000055216               0.999999992              -0.000180076               0.000057691               0.999999992              -0.000185227               0.000061326               0.999999992              -0.000190823               0.000065591               0.999999992              -0.000197192               0.000070429               0.999999992              -0.000204449               0.000075644               0.999999992              -0.000212657               0.000081048               0.999999992              -0.000221807               0.000086606               0.999999992              -0.000231857               0.000092267               0.999999992              -0.000242798               0.000097998               0.999999992              -0.000254640               0.000103704               0.999999992              -0.000267313               0.000109171               0.999999992              -0.000280728               0.000114094               0.999999992              -0.000294700               0.000117825               0.999999992              -0.000129239               0.000132384               0.999999992              -0.000150333               0.000114600               0.999999992              -0.000159651               0.000109240               0.999999992              -0.000165209               0.000110580               0.999999992              -0.000170017               0.000115690               0.999999992              -0.000175064               0.000122927               0.999999992              -0.000180755               0.000131456               0.999999992              -0.000187343               0.000141037               0.999999992              -0.000194854               0.000151405               0.999999992              -0.000203302               0.000162279               0.999999992              -0.000212720               0.000173344               0.999999992              -0.000223036               0.000184590               0.999999992              -0.000234170               0.000195993               0.999999992              -0.000246068               0.000207269               0.999999992              -0.000258574               0.000218066               0.999999992              -0.000271573               0.000228001               0.999999992              -0.000284966               0.000236481               0.999999992              -0.000125363               0.000196656               0.999999992              -0.000140244               0.000170538               0.999999992              -0.000146448               0.000163377               0.999999992              -0.000150726               0.000165968               0.999999992              -0.000155141               0.000173949               0.999999992              -0.000160319               0.000184919               0.999999992              -0.000166425               0.000197810               0.999999992              -0.000173558               0.000212195               0.999999992              -0.000181700               0.000227667               0.999999992              -0.000190778               0.000243729               0.999999992              -0.000200703               0.000260157               0.999999992              -0.000211406               0.000276941               0.999999992              -0.000222769               0.000293875               0.999999992              -0.000234701               0.000310591               0.999999992              -0.000247062               0.000326780               0.999999992              -0.000259660               0.000341990               0.999999992              -0.000272439               0.000355700               0.999999992              -0.000120270               0.000258798               0.999999992              -0.000127194               0.000224935               0.999999992              -0.000129977               0.000216811               0.999999992              -0.000133137               0.000221213               0.999999992              -0.000137526               0.000232302               0.999999992              -0.000143243               0.000247210               0.999999992              -0.000150130               0.000264628               0.999999992              -0.000158207               0.000283821               0.999999992              -0.000167308               0.000304197               0.999999992              -0.000177211               0.000325291               0.999999992              -0.000187800               0.000346933               0.999999992              -0.000198987               0.000369072               0.999999992              -0.000210588               0.000391410               0.999999992              -0.000222502               0.000413502               0.999999992              -0.000234605               0.000435025               0.999999992              -0.000246804               0.000455685               0.999999992              -0.000259168               0.000475191               0.999999992              -0.000113983               0.000318195               0.999999992              -0.000111717               0.000277618               0.999999992              -0.000111386               0.000269414               0.999999992              -0.000113995               0.000276149               0.999999992              -0.000118922               0.000290614               0.999999992              -0.000125677               0.000309557               0.999999992              -0.000133929               0.000331433               0.999999992              -0.000143335               0.000355168               0.999999992              -0.000153615               0.000380189               0.999999992              -0.000164502               0.000406223               0.999999992              -0.000175906               0.000432900               0.999999992              -0.000187689               0.000460114               0.999999992              -0.000199634               0.000487559               0.999999992              -0.000211676               0.000514598               0.999999992              -0.000223764               0.000541166               0.999999992              -0.000235892               0.000567022               0.999999992              -0.000248048               0.000592223               0.999999992              -0.000106521               0.000374217               0.999999992              -0.000094712               0.000328441               0.999999992              -0.000092106               0.000320872               0.999999992              -0.000095042               0.000330172               0.999999992              -0.000101281               0.000348095               0.999999992              -0.000109616               0.000370974               0.999999992              -0.000119466               0.000397124               0.999999992              -0.000130326               0.000425286               0.999999992              -0.000141875               0.000454918               0.999999992              -0.000153880               0.000485484               0.999999992              -0.000166177               0.000516889               0.999999992              -0.000178580               0.000548854               0.999999992              -0.000190969               0.000580833               0.999999992              -0.000203237               0.000612370               0.999999992              -0.000215409               0.000643485               0.999999992              -0.000227380               0.000674025               0.999999992              -0.000239071               0.000703846               0.999999992              -0.000098045               0.000426268               0.999999992              -0.000077224               0.000377239               0.999999992              -0.000073489               0.000370731               0.999999992              -0.000077687               0.000382604               0.999999992              -0.000085660               0.000403868               0.999999992              -0.000095795               0.000430598               0.999999992              -0.000107365               0.000460991               0.999999992              -0.000119790               0.000493408               0.999999992              -0.000132610               0.000527239               0.999999992              -0.000145602               0.000562247               0.999999992              -0.000158596               0.000598087               0.999999992              -0.000171474               0.000634270               0.999999992              -0.000184062               0.000670348               0.999999992              -0.000196326               0.000705982               0.999999992              -0.000208253               0.000741159               0.999999992              -0.000219776               0.000775850               0.999999992              -0.000230858               0.000809654               0.999999992              -0.000089168               0.000473393               0.999999992              -0.000059942               0.000423926               0.999999992              -0.000056629               0.000418535               0.999999992              -0.000062617               0.000432806               0.999999992              -0.000072615               0.000457251               0.999999992              -0.000084707               0.000487748               0.999999992              -0.000098039               0.000522102               0.999999992              -0.000111765               0.000558706               0.999999992              -0.000125496               0.000596792               0.999999992              -0.000139167               0.000635991               0.999999992              -0.000152558               0.000675875               0.999999992              -0.000165516               0.000715908               0.999999992              -0.000177998               0.000755641               0.999999992              -0.000189942               0.000795007               0.999999992              -0.000201555               0.000833947               0.999999992              -0.000212849               0.000872219               0.999999992              -0.000223934               0.000909757               0.999999992              -0.000080710               0.000517224               0.999999992              -0.000046661               0.000473218               0.999999992              -0.000040819               0.000464138               0.999999992              -0.000045347               0.000473636               0.999999992              -0.000054367               0.000493487               0.999999992              -0.000065267               0.000519794               0.999999992              -0.000077424               0.000550351               0.999999992              -0.000090061               0.000583647               0.999999992              -0.000102401               0.000618623               0.999999992              -0.000114659               0.000654803               0.999999992              -0.000126607               0.000691877               0.999999992              -0.000138217               0.000729396               0.999999992              -0.000149303               0.000766993               0.999999992              -0.000159819               0.000804525               0.999999992              -0.000169878               0.000841837               0.999999992              -0.000179774               0.000878915               0.999999992              -0.000189735               0.000915408               0.999999992              -0.000071180               0.000556744               0.999999992              -0.000035333               0.000520165               0.999999992              -0.000027065               0.000510128               0.999999992              -0.000029720               0.000516083               0.999999992              -0.000037221               0.000532079               0.999999992              -0.000046804               0.000554524               0.999999992              -0.000057506               0.000581480               0.999999992              -0.000068766               0.000611563               0.999999992              -0.000079836               0.000643588               0.999999992              -0.000090498               0.000677010               0.999999992              -0.000100959               0.000711369               0.999999992              -0.000111147               0.000746327               0.999999992              -0.000120716               0.000781582               0.999999992              -0.000129603               0.000816920               0.999999992              -0.000137789               0.000852233               0.999999992              -0.000145581               0.000887574               0.999999992              -0.000153290               0.000922847               0.999999992              -0.000060832               0.000591219               0.999999992              -0.000025884               0.000563638               0.999999992              -0.000015954               0.000554604               0.999999992              -0.000016633               0.000558668               0.999999992              -0.000022341               0.000571697               0.999999992              -0.000030250               0.000591060               0.999999992              -0.000039253               0.000614912               0.999999992              -0.000048826               0.000642069               0.999999992              -0.000058346               0.000671505               0.999999992              -0.000067554               0.000702408               0.999999992              -0.000076532               0.000734330               0.999999992              -0.000085203               0.000766990               0.999999992              -0.000093178               0.000800168               0.999999992              -0.000100167               0.000833617               0.999999992              -0.000106144               0.000867125               0.999999992              -0.000111066               0.000900677               0.999999992              -0.000115325               0.000934374               0.999999992              -0.000049706               0.000620164               0.999999992              -0.000018270               0.000602102               0.999999992              -0.000007783               0.000595503               0.999999992              -0.000006900               0.000599006               0.999999992              -0.000010727               0.000610228               0.999999992              -0.000016798               0.000627274               0.999999992              -0.000023848               0.000648793               0.999999992              -0.000031471               0.000673619               0.999999992              -0.000039313               0.000700866               0.999999992              -0.000046970               0.000729756               0.999999992              -0.000054384               0.000759824               0.999999992              -0.000061390               0.000790756               0.999999992              -0.000067627               0.000822349               0.999999992              -0.000072748               0.000854436               0.999999992              -0.000076516               0.000886677               0.999999992              -0.000078559               0.000918985               0.999999992              -0.000078876               0.000951381               0.999999992              -0.000037864               0.000643120               0.999999992              -0.000012279               0.000633979               0.999999992              -0.000002614               0.000630590               0.999999992              -0.000000836               0.000634544               0.999999992              -0.000003055               0.000644969               0.999999992              -0.000007208               0.000660570               0.999999992              -0.000012247               0.000680433               0.999999992              -0.000017915               0.000703594               0.999999992              -0.000023848               0.000729273               0.999999992              -0.000029736               0.000756790               0.999999992              -0.000035426               0.000785680               0.999999992              -0.000040689               0.000815536               0.999999992              -0.000045272               0.000846182               0.999999992              -0.000048761               0.000877483               0.999999992              -0.000050682               0.000909042               0.999999992              -0.000050587               0.000940710               0.999999992              -0.000047800               0.000972500               0.999999992              -0.000025508               0.000659593               0.999999992              -0.000007552               0.000657750               0.999999992              -0.000000106               0.000657672               0.999999992               0.000001787               0.000662644               0.999999992               0.000000741               0.000672892               0.999999992              -0.000001734               0.000687758               0.999999992              -0.000004975               0.000706541               0.999999992              -0.000008589               0.000728550               0.999999992              -0.000012542               0.000753213               0.999999992              -0.000016571               0.000779810               0.999999992              -0.000020539               0.000807954               0.999999992              -0.000024164               0.000837285               0.999999992              -0.000027158               0.000867549               0.999999992              -0.000029196               0.000898627               0.999999992              -0.000029882               0.000930266               0.999999992              -0.000028628               0.000962111               0.999999992              -0.000024682               0.000993975               0.999999992              -0.000012828               0.000669460               0.999999992              -0.000003602               0.000672350               0.999999992               0.000000447               0.000674763               0.999999992               0.000001676               0.000680757               0.999999992               0.000001284               0.000691176               0.999999992               0.000000179               0.000705759               0.999999992              -0.000001348               0.000723968               0.999999992              -0.000003105               0.000745253               0.999999992              -0.000005136               0.000769113               0.999999992              -0.000007179               0.000795094               0.999999992              -0.000009237               0.000822861               0.999999992              -0.000011160               0.000852016               0.999999992              -0.000012658               0.000882416               0.999999992              -0.000013519               0.000913782               0.999999992              -0.000013536               0.000945792               0.999999992              -0.000012383               0.000978172               0.999999992              -0.000009596               0.001010510               0.999999992               0.000000000               0.000672747               0.999999992              -0.000000000               0.000677273               0.999999992               0.000000000               0.000680623               0.999999992               0.000000000               0.000686997               0.999999992               0.000000000               0.000697488               0.999999992               0.000000000               0.000712017               0.999999992               0.000000000               0.000730047               0.999999992               0.000000000               0.000751074               0.999999992              -0.000000000               0.000774661               0.999999992              -0.000000000               0.000800437               0.999999992              -0.000000000               0.000828042               0.999999992              -0.000000000               0.000857201               0.999999992               0.000000000               0.000887676               0.999999992              -0.000000000               0.000919224               0.999999992              -0.000000000               0.000951487               0.999999992              -0.000000000               0.000984065               0.999999992              -0.000000000               0.001016607               0.999999992              -0.000132537               0.000000000               0.999999992              -0.000158951               0.000000000               0.999999992              -0.000171208               0.000000000               0.999999992              -0.000178198               0.000000000               0.999999992              -0.000183570              -0.000000000               0.999999992              -0.000188821               0.000000000               0.999999992              -0.000194455               0.000000000               0.999999992              -0.000200801               0.000000000               0.999999992              -0.000208044               0.000000000               0.999999992              -0.000216261               0.000000000               0.999999992              -0.000225420              -0.000000000               0.999999992              -0.000235496               0.000000000               0.999999992              -0.000246453               0.000000000               0.999999992              -0.000258372               0.000000000               0.999999992              -0.000271272               0.000000000               0.999999992              -0.000284954               0.000000000               0.999999992              -0.000299197               0.000000000               0.999999992              -0.000131713              -0.000066589               0.999999992              -0.000156775              -0.000057569               0.999999992              -0.000168251              -0.000054702               0.999999992              -0.000174852              -0.000055216               0.999999992              -0.000180076              -0.000057691               0.999999992              -0.000185227              -0.000061326               0.999999992              -0.000190823              -0.000065591               0.999999992              -0.000197192              -0.000070429               0.999999992              -0.000204449              -0.000075644               0.999999992              -0.000212657              -0.000081048               0.999999992              -0.000221807              -0.000086606               0.999999992              -0.000231857              -0.000092267               0.999999992              -0.000242798              -0.000097998               0.999999992              -0.000254640              -0.000103704               0.999999992              -0.000267313              -0.000109171               0.999999992              -0.000280728              -0.000114094               0.999999992              -0.000294700              -0.000117825               0.999999992              -0.000129239              -0.000132384               0.999999992              -0.000150333              -0.000114600               0.999999992              -0.000159651              -0.000109240               0.999999992              -0.000165209              -0.000110580               0.999999992              -0.000170017              -0.000115690               0.999999992              -0.000175064              -0.000122927               0.999999992              -0.000180755              -0.000131456               0.999999992              -0.000187343              -0.000141037               0.999999992              -0.000194854              -0.000151405               0.999999992              -0.000203302              -0.000162279               0.999999992              -0.000212720              -0.000173344               0.999999992              -0.000223036              -0.000184590               0.999999992              -0.000234170              -0.000195993               0.999999992              -0.000246068              -0.000207269               0.999999992              -0.000258574              -0.000218066               0.999999992              -0.000271573              -0.000228001               0.999999992              -0.000284966              -0.000236481               0.999999992              -0.000125363              -0.000196656               0.999999992              -0.000140244              -0.000170538               0.999999992              -0.000146448              -0.000163377               0.999999992              -0.000150726              -0.000165968               0.999999992              -0.000155141              -0.000173949               0.999999992              -0.000160319              -0.000184919               0.999999992              -0.000166425              -0.000197810               0.999999992              -0.000173558              -0.000212195               0.999999992              -0.000181700              -0.000227667               0.999999992              -0.000190778              -0.000243729               0.999999992              -0.000200703              -0.000260157               0.999999992              -0.000211406              -0.000276941               0.999999992              -0.000222769              -0.000293875               0.999999992              -0.000234701              -0.000310591               0.999999992              -0.000247062              -0.000326780               0.999999992              -0.000259660              -0.000341990               0.999999992              -0.000272439              -0.000355700               0.999999992              -0.000120270              -0.000258798               0.999999992              -0.000127194              -0.000224935               0.999999992              -0.000129977              -0.000216811               0.999999992              -0.000133137              -0.000221213               0.999999992              -0.000137526              -0.000232302               0.999999992              -0.000143243              -0.000247210               0.999999992              -0.000150130              -0.000264628               0.999999992              -0.000158207              -0.000283821               0.999999992              -0.000167308              -0.000304197               0.999999992              -0.000177211              -0.000325291               0.999999992              -0.000187800              -0.000346933               0.999999992              -0.000198987              -0.000369072               0.999999992              -0.000210588              -0.000391410               0.999999992              -0.000222502              -0.000413502               0.999999992              -0.000234605              -0.000435025               0.999999992              -0.000246804              -0.000455685               0.999999992              -0.000259168              -0.000475191               0.999999992              -0.000113983              -0.000318195               0.999999992              -0.000111717              -0.000277618               0.999999992              -0.000111386              -0.000269414               0.999999992              -0.000113995              -0.000276149               0.999999992              -0.000118922              -0.000290614               0.999999992              -0.000125677              -0.000309557               0.999999992              -0.000133929              -0.000331433               0.999999992              -0.000143335              -0.000355168               0.999999992              -0.000153615              -0.000380189               0.999999992              -0.000164502              -0.000406223               0.999999992              -0.000175906              -0.000432900               0.999999992              -0.000187689              -0.000460114               0.999999992              -0.000199634              -0.000487559               0.999999992              -0.000211676              -0.000514598               0.999999992              -0.000223764              -0.000541166               0.999999992              -0.000235892              -0.000567022               0.999999992              -0.000248048              -0.000592223               0.999999992              -0.000106521              -0.000374217               0.999999992              -0.000094712              -0.000328441               0.999999992              -0.000092106              -0.000320872               0.999999992              -0.000095042              -0.000330172               0.999999992              -0.000101281              -0.000348095               0.999999992              -0.000109616              -0.000370974               0.999999992              -0.000119466              -0.000397124               0.999999992              -0.000130326              -0.000425286               0.999999992              -0.000141875              -0.000454918               0.999999992              -0.000153880              -0.000485484               0.999999992              -0.000166177              -0.000516889               0.999999992              -0.000178580              -0.000548854               0.999999992              -0.000190969              -0.000580833               0.999999992              -0.000203237              -0.000612370               0.999999992              -0.000215409              -0.000643485               0.999999992              -0.000227380              -0.000674025               0.999999992              -0.000239071              -0.000703846               0.999999992              -0.000098045              -0.000426268               0.999999992              -0.000077224              -0.000377239               0.999999992              -0.000073489              -0.000370731               0.999999992              -0.000077687              -0.000382604               0.999999992              -0.000085660              -0.000403868               0.999999992              -0.000095795              -0.000430598               0.999999992              -0.000107365              -0.000460991               0.999999992              -0.000119790              -0.000493408               0.999999992              -0.000132610              -0.000527239               0.999999992              -0.000145602              -0.000562247               0.999999992              -0.000158596              -0.000598087               0.999999992              -0.000171474              -0.000634270               0.999999992              -0.000184062              -0.000670348               0.999999992              -0.000196326              -0.000705982               0.999999992              -0.000208253              -0.000741159               0.999999992              -0.000219776              -0.000775850               0.999999992              -0.000230858              -0.000809654               0.999999992              -0.000089168              -0.000473393               0.999999992              -0.000059942              -0.000423926               0.999999992              -0.000056629              -0.000418535               0.999999992              -0.000062617              -0.000432806               0.999999992              -0.000072615              -0.000457251               0.999999992              -0.000084707              -0.000487748               0.999999992              -0.000098039              -0.000522102               0.999999992              -0.000111765              -0.000558706               0.999999992              -0.000125496              -0.000596792               0.999999992              -0.000139167              -0.000635991               0.999999992              -0.000152558              -0.000675875               0.999999992              -0.000165516              -0.000715908               0.999999992              -0.000177998              -0.000755641               0.999999992              -0.000189942              -0.000795007               0.999999992              -0.000201555              -0.000833947               0.999999992              -0.000212849              -0.000872219               0.999999992              -0.000223934              -0.000909757               0.999999992              -0.000080710              -0.000517224               0.999999992              -0.000046661              -0.000473218               0.999999992              -0.000040819              -0.000464138               0.999999992              -0.000045347              -0.000473636               0.999999992              -0.000054367              -0.000493487               0.999999992              -0.000065267              -0.000519794               0.999999992              -0.000077424              -0.000550351               0.999999992              -0.000090061              -0.000583647               0.999999992              -0.000102401              -0.000618623               0.999999992              -0.000114659              -0.000654803               0.999999992              -0.000126607              -0.000691877               0.999999992              -0.000138217              -0.000729396               0.999999992              -0.000149303              -0.000766993               0.999999992              -0.000159819              -0.000804525               0.999999992              -0.000169878              -0.000841837               0.999999992              -0.000179774              -0.000878915               0.999999992              -0.000189735              -0.000915408               0.999999992              -0.000071180              -0.000556744               0.999999992              -0.000035333              -0.000520165               0.999999992              -0.000027065              -0.000510128               0.999999992              -0.000029720              -0.000516083               0.999999992              -0.000037221              -0.000532079               0.999999992              -0.000046804              -0.000554524               0.999999992              -0.000057506              -0.000581480               0.999999992              -0.000068766              -0.000611563               0.999999992              -0.000079836              -0.000643588               0.999999992              -0.000090498              -0.000677010               0.999999992              -0.000100959              -0.000711369               0.999999992              -0.000111147              -0.000746327               0.999999992              -0.000120716              -0.000781582               0.999999992              -0.000129603              -0.000816920               0.999999992              -0.000137789              -0.000852233               0.999999992              -0.000145581              -0.000887574               0.999999992              -0.000153290              -0.000922847               0.999999992              -0.000060832              -0.000591219               0.999999992              -0.000025884              -0.000563638               0.999999992              -0.000015954              -0.000554604               0.999999992              -0.000016633              -0.000558668               0.999999992              -0.000022341              -0.000571697               0.999999992              -0.000030250              -0.000591060               0.999999992              -0.000039253              -0.000614912               0.999999992              -0.000048826              -0.000642069               0.999999992              -0.000058346              -0.000671505               0.999999992              -0.000067554              -0.000702408               0.999999992              -0.000076532              -0.000734330               0.999999992              -0.000085203              -0.000766990               0.999999992              -0.000093178              -0.000800168               0.999999992              -0.000100167              -0.000833617               0.999999992              -0.000106144              -0.000867125               0.999999992              -0.000111066              -0.000900677               0.999999992              -0.000115325              -0.000934374               0.999999992              -0.000049706              -0.000620164               0.999999992              -0.000018270              -0.000602102               0.999999992              -0.000007783              -0.000595503               0.999999992              -0.000006900              -0.000599006               0.999999992              -0.000010727              -0.000610228               0.999999992              -0.000016798              -0.000627274               0.999999992              -0.000023848              -0.000648793               0.999999992              -0.000031471              -0.000673619               0.999999992              -0.000039313              -0.000700866               0.999999992              -0.000046970              -0.000729756               0.999999992              -0.000054384              -0.000759824               0.999999992              -0.000061390              -0.000790756               0.999999992              -0.000067627              -0.000822349               0.999999992              -0.000072748              -0.000854436               0.999999992              -0.000076516              -0.000886677               0.999999992              -0.000078559              -0.000918985               0.999999992              -0.000078876              -0.000951381               0.999999992              -0.000037864              -0.000643120               0.999999992              -0.000012279              -0.000633979               0.999999992              -0.000002614              -0.000630590               0.999999992              -0.000000836              -0.000634544               0.999999992              -0.000003055              -0.000644969               0.999999992              -0.000007208              -0.000660570               0.999999992              -0.000012247              -0.000680433               0.999999992              -0.000017915              -0.000703594               0.999999992              -0.000023848              -0.000729273               0.999999992              -0.000029736              -0.000756790               0.999999992              -0.000035426              -0.000785680               0.999999992              -0.000040689              -0.000815536               0.999999992              -0.000045272              -0.000846182               0.999999992              -0.000048761              -0.000877483               0.999999992              -0.000050682              -0.000909042               0.999999992              -0.000050587              -0.000940710               0.999999992              -0.000047800              -0.000972500               0.999999992              -0.000025508              -0.000659593               0.999999992              -0.000007552              -0.000657750               0.999999992              -0.000000106              -0.000657672               0.999999992               0.000001787              -0.000662644               0.999999992               0.000000741              -0.000672892               0.999999992              -0.000001734              -0.000687758               0.999999992              -0.000004975              -0.000706541               0.999999992              -0.000008589              -0.000728550               0.999999992              -0.000012542              -0.000753213               0.999999992              -0.000016571              -0.000779810               0.999999992              -0.000020539              -0.000807954               0.999999992              -0.000024164              -0.000837285               0.999999992              -0.000027158              -0.000867549               0.999999992              -0.000029196              -0.000898627               0.999999992              -0.000029882              -0.000930266               0.999999992              -0.000028628              -0.000962111               0.999999992              -0.000024682              -0.000993975               0.999999992              -0.000012828              -0.000669460               0.999999992              -0.000003602              -0.000672350               0.999999992               0.000000447              -0.000674763               0.999999992               0.000001676              -0.000680757               0.999999992               0.000001284              -0.000691176               0.999999992               0.000000179              -0.000705759               0.999999992              -0.000001348              -0.000723968               0.999999992              -0.000003105              -0.000745253               0.999999992              -0.000005136              -0.000769113               0.999999992              -0.000007179              -0.000795094               0.999999992              -0.000009237              -0.000822861               0.999999992              -0.000011160              -0.000852016               0.999999992              -0.000012658              -0.000882416               0.999999992              -0.000013519              -0.000913782               0.999999992              -0.000013536              -0.000945792               0.999999992              -0.000012383              -0.000978172               0.999999992              -0.000009596              -0.001010510               0.999999992               0.000000000              -0.000672747               0.999999992              -0.000000000              -0.000677273               0.999999992              -0.000000000              -0.000680623               0.999999992               0.000000000              -0.000686997               0.999999992               0.000000000              -0.000697488               0.999999992              -0.000000000              -0.000712017               0.999999992              -0.000000000              -0.000730047               0.999999992              -0.000000000              -0.000751074               0.999999992              -0.000000000              -0.000774661               0.999999992               0.000000000              -0.000800437               0.999999992              -0.000000000              -0.000828042               0.999999992              -0.000000000              -0.000857201               0.999999992               0.000000000              -0.000887676               0.999999992               0.000000000              -0.000919224               0.999999992              -0.000000000              -0.000951487               0.999999992              -0.000000000              -0.000984065               0.999999992               0.000000000              -0.001016607               0.999999992               0.000132537               0.000000000               0.999999992               0.000158951               0.000000000               0.999999992               0.000171208              -0.000000000               0.999999992               0.000178198               0.000000000               0.999999992               0.000183570               0.000000000               0.999999992               0.000188821              -0.000000000               0.999999992               0.000194455               0.000000000               0.999999992               0.000200801              -0.000000000               0.999999992               0.000208044               0.000000000               0.999999992               0.000216261               0.000000000               0.999999992               0.000225420              -0.000000000               0.999999992               0.000235496               0.000000000               0.999999992               0.000246453               0.000000000               0.999999992               0.000258372               0.000000000               0.999999992               0.000271272               0.000000000               0.999999992               0.000284954               0.000000000               0.999999992               0.000299197               0.000000000               0.999999992               0.000131713              -0.000066589               0.999999992               0.000156775              -0.000057569               0.999999992               0.000168251              -0.000054702               0.999999992               0.000174852              -0.000055216               0.999999992               0.000180076              -0.000057691               0.999999992               0.000185227              -0.000061326               0.999999992               0.000190823              -0.000065591               0.999999992               0.000197192              -0.000070429               0.999999992               0.000204449              -0.000075644               0.999999992               0.000212657              -0.000081048               0.999999992               0.000221807              -0.000086606               0.999999992               0.000231857              -0.000092267               0.999999992               0.000242798              -0.000097998               0.999999992               0.000254640              -0.000103704               0.999999992               0.000267313              -0.000109171               0.999999992               0.000280728              -0.000114094               0.999999992               0.000294700              -0.000117825               0.999999992               0.000129239              -0.000132384               0.999999992               0.000150333              -0.000114600               0.999999992               0.000159651              -0.000109240               0.999999992               0.000165209              -0.000110580               0.999999992               0.000170017              -0.000115690               0.999999992               0.000175064              -0.000122927               0.999999992               0.000180755              -0.000131456               0.999999992               0.000187343              -0.000141037               0.999999992               0.000194854              -0.000151405               0.999999992               0.000203302              -0.000162279               0.999999992               0.000212720              -0.000173344               0.999999992               0.000223036              -0.000184590               0.999999992               0.000234170              -0.000195993               0.999999992               0.000246068              -0.000207269               0.999999992               0.000258574              -0.000218066               0.999999992               0.000271573              -0.000228001               0.999999992               0.000284966              -0.000236481               0.999999992               0.000125363              -0.000196656               0.999999992               0.000140244              -0.000170538               0.999999992               0.000146448              -0.000163377               0.999999992               0.000150726              -0.000165968               0.999999992               0.000155141              -0.000173949               0.999999992               0.000160319              -0.000184919               0.999999992               0.000166425              -0.000197810               0.999999992               0.000173558              -0.000212195               0.999999992               0.000181700              -0.000227667               0.999999992               0.000190778              -0.000243729               0.999999992               0.000200703              -0.000260157               0.999999992               0.000211406              -0.000276941               0.999999992               0.000222769              -0.000293875               0.999999992               0.000234701              -0.000310591               0.999999992               0.000247062              -0.000326780               0.999999992               0.000259660              -0.000341990               0.999999992               0.000272439              -0.000355700               0.999999992               0.000120270              -0.000258798               0.999999992               0.000127194              -0.000224935               0.999999992               0.000129977              -0.000216811               0.999999992               0.000133137              -0.000221213               0.999999992               0.000137526              -0.000232302               0.999999992               0.000143243              -0.000247210               0.999999992               0.000150130              -0.000264628               0.999999992               0.000158207              -0.000283821               0.999999992               0.000167308              -0.000304197               0.999999992               0.000177211              -0.000325291               0.999999992               0.000187800              -0.000346933               0.999999992               0.000198987              -0.000369072               0.999999992               0.000210588              -0.000391410               0.999999992               0.000222502              -0.000413502               0.999999992               0.000234605              -0.000435025               0.999999992               0.000246804              -0.000455685               0.999999992               0.000259168              -0.000475191               0.999999992               0.000113983              -0.000318195               0.999999992               0.000111717              -0.000277618               0.999999992               0.000111386              -0.000269414               0.999999992               0.000113995              -0.000276149               0.999999992               0.000118922              -0.000290614               0.999999992               0.000125677              -0.000309557               0.999999992               0.000133929              -0.000331433               0.999999992               0.000143335              -0.000355168               0.999999992               0.000153615              -0.000380189               0.999999992               0.000164502              -0.000406223               0.999999992               0.000175906              -0.000432900               0.999999992               0.000187689              -0.000460114               0.999999992               0.000199634              -0.000487559               0.999999992               0.000211676              -0.000514598               0.999999992               0.000223764              -0.000541166               0.999999992               0.000235892              -0.000567022               0.999999992               0.000248048              -0.000592223               0.999999992               0.000106521              -0.000374217               0.999999992               0.000094712              -0.000328441               0.999999992               0.000092106              -0.000320872               0.999999992               0.000095042              -0.000330172               0.999999992               0.000101281              -0.000348095               0.999999992               0.000109616              -0.000370974               0.999999992               0.000119466              -0.000397124               0.999999992               0.000130326              -0.000425286               0.999999992               0.000141875              -0.000454918               0.999999992               0.000153880              -0.000485484               0.999999992               0.000166177              -0.000516889               0.999999992               0.000178580              -0.000548854               0.999999992               0.000190969              -0.000580833               0.999999992               0.000203237              -0.000612370               0.999999992               0.000215409              -0.000643485               0.999999992               0.000227380              -0.000674025               0.999999992               0.000239071              -0.000703846               0.999999992               0.000098045              -0.000426268               0.999999992               0.000077224              -0.000377239               0.999999992               0.000073489              -0.000370731               0.999999992               0.000077687              -0.000382604               0.999999992               0.000085660              -0.000403868               0.999999992               0.000095795              -0.000430598               0.999999992               0.000107365              -0.000460991               0.999999992               0.000119790              -0.000493408               0.999999992               0.000132610              -0.000527239               0.999999992               0.000145602              -0.000562247               0.999999992               0.000158596              -0.000598087               0.999999992               0.000171474              -0.000634270               0.999999992               0.000184062              -0.000670348               0.999999992               0.000196326              -0.000705982               0.999999992               0.000208253              -0.000741159               0.999999992               0.000219776              -0.000775850               0.999999992               0.000230858              -0.000809654               0.999999992               0.000089168              -0.000473393               0.999999992               0.000059942              -0.000423926               0.999999992               0.000056629              -0.000418535               0.999999992               0.000062617              -0.000432806               0.999999992               0.000072615              -0.000457251               0.999999992               0.000084707              -0.000487748               0.999999992               0.000098039              -0.000522102               0.999999992               0.000111765              -0.000558706               0.999999992               0.000125496              -0.000596792               0.999999992               0.000139167              -0.000635991               0.999999992               0.000152558              -0.000675875               0.999999992               0.000165516              -0.000715908               0.999999992               0.000177998              -0.000755641               0.999999992               0.000189942              -0.000795007               0.999999992               0.000201555              -0.000833947               0.999999992               0.000212849              -0.000872219               0.999999992               0.000223934              -0.000909757               0.999999992               0.000080710              -0.000517224               0.999999992               0.000046661              -0.000473218               0.999999992               0.000040819              -0.000464138               0.999999992               0.000045347              -0.000473636               0.999999992               0.000054367              -0.000493487               0.999999992               0.000065267              -0.000519794               0.999999992               0.000077424              -0.000550351               0.999999992               0.000090061              -0.000583647               0.999999992               0.000102401              -0.000618623               0.999999992               0.000114659              -0.000654803               0.999999992               0.000126607              -0.000691877               0.999999992               0.000138217              -0.000729396               0.999999992               0.000149303              -0.000766993               0.999999992               0.000159819              -0.000804525               0.999999992               0.000169878              -0.000841837               0.999999992               0.000179774              -0.000878915               0.999999992               0.000189735              -0.000915408               0.999999992               0.000071180              -0.000556744               0.999999992               0.000035333              -0.000520165               0.999999992               0.000027065              -0.000510128               0.999999992               0.000029720              -0.000516083               0.999999992               0.000037221              -0.000532079               0.999999992               0.000046804              -0.000554524               0.999999992               0.000057506              -0.000581480               0.999999992               0.000068766              -0.000611563               0.999999992               0.000079836              -0.000643588               0.999999992               0.000090498              -0.000677010               0.999999992               0.000100959              -0.000711369               0.999999992               0.000111147              -0.000746327               0.999999992               0.000120716              -0.000781582               0.999999992               0.000129603              -0.000816920               0.999999992               0.000137789              -0.000852233               0.999999992               0.000145581              -0.000887574               0.999999992               0.000153290              -0.000922847               0.999999992               0.000060832              -0.000591219               0.999999992               0.000025884              -0.000563638               0.999999992               0.000015954              -0.000554604               0.999999992               0.000016633              -0.000558668               0.999999992               0.000022341              -0.000571697               0.999999992               0.000030250              -0.000591060               0.999999992               0.000039253              -0.000614912               0.999999992               0.000048826              -0.000642069               0.999999992               0.000058346              -0.000671505               0.999999992               0.000067554              -0.000702408               0.999999992               0.000076532              -0.000734330               0.999999992               0.000085203              -0.000766990               0.999999992               0.000093178              -0.000800168               0.999999992               0.000100167              -0.000833617               0.999999992               0.000106144              -0.000867125               0.999999992               0.000111066              -0.000900677               0.999999992               0.000115325              -0.000934374               0.999999992               0.000049706              -0.000620164               0.999999992               0.000018270              -0.000602102               0.999999992               0.000007783              -0.000595503               0.999999992               0.000006900              -0.000599006               0.999999992               0.000010727              -0.000610228               0.999999992               0.000016798              -0.000627274               0.999999992               0.000023848              -0.000648793               0.999999992               0.000031471              -0.000673619               0.999999992               0.000039313              -0.000700866               0.999999992               0.000046970              -0.000729756               0.999999992               0.000054384              -0.000759824               0.999999992               0.000061390              -0.000790756               0.999999992               0.000067627              -0.000822349               0.999999992               0.000072748              -0.000854436               0.999999992               0.000076516              -0.000886677               0.999999992               0.000078559              -0.000918985               0.999999992               0.000078876              -0.000951381               0.999999992               0.000037864              -0.000643120               0.999999992               0.000012279              -0.000633979               0.999999992               0.000002614              -0.000630590               0.999999992               0.000000836              -0.000634544               0.999999992               0.000003055              -0.000644969               0.999999992               0.000007208              -0.000660570               0.999999992               0.000012247              -0.000680433               0.999999992               0.000017915              -0.000703594               0.999999992               0.000023848              -0.000729273               0.999999992               0.000029736              -0.000756790               0.999999992               0.000035426              -0.000785680               0.999999992               0.000040689              -0.000815536               0.999999992               0.000045272              -0.000846182               0.999999992               0.000048761              -0.000877483               0.999999992               0.000050682              -0.000909042               0.999999992               0.000050587              -0.000940710               0.999999992               0.000047800              -0.000972500               0.999999992               0.000025508              -0.000659593               0.999999992               0.000007552              -0.000657750               0.999999992               0.000000106              -0.000657672               0.999999992              -0.000001787              -0.000662644               0.999999992              -0.000000741              -0.000672892               0.999999992               0.000001734              -0.000687758               0.999999992               0.000004975              -0.000706541               0.999999992               0.000008589              -0.000728550               0.999999992               0.000012542              -0.000753213               0.999999992               0.000016571              -0.000779810               0.999999992               0.000020539              -0.000807954               0.999999992               0.000024164              -0.000837285               0.999999992               0.000027158              -0.000867549               0.999999992               0.000029196              -0.000898627               0.999999992               0.000029882              -0.000930266               0.999999992               0.000028628              -0.000962111               0.999999992               0.000024682              -0.000993975               0.999999992               0.000012828              -0.000669460               0.999999992               0.000003602              -0.000672350               0.999999992              -0.000000447              -0.000674763               0.999999992              -0.000001676              -0.000680757               0.999999992              -0.000001284              -0.000691176               0.999999992              -0.000000179              -0.000705759               0.999999992               0.000001348              -0.000723968               0.999999992               0.000003105              -0.000745253               0.999999992               0.000005136              -0.000769113               0.999999992               0.000007179              -0.000795094               0.999999992               0.000009237              -0.000822861               0.999999992               0.000011160              -0.000852016               0.999999992               0.000012658              -0.000882416               0.999999992               0.000013519              -0.000913782               0.999999992               0.000013536              -0.000945792               0.999999992               0.000012383              -0.000978172               0.999999992               0.000009596              -0.001010510               0.999999992               0.000000000              -0.000672747               0.999999992              -0.000000000              -0.000677273               0.999999992              -0.000000000              -0.000680623               0.999999992               0.000000000              -0.000686997               0.999999992               0.000000000              -0.000697488               0.999999992              -0.000000000              -0.000712017               0.999999992              -0.000000000              -0.000730047               0.999999992              -0.000000000              -0.000751074               0.999999992              -0.000000000              -0.000774661               0.999999992               0.000000000              -0.000800437               0.999999992              -0.000000000              -0.000828042               0.999999992              -0.000000000              -0.000857201               0.999999992               0.000000000              -0.000887676               0.999999992               0.000000000              -0.000919224               0.999999992              -0.000000000              -0.000951487               0.999999992              -0.000000000              -0.000984065               0.999999992               0.000000000              -0.001016607               0.999999992               0.000132537               0.000000000               0.999999992               0.000158951               0.000000000               0.999999992               0.000171208              -0.000000000               0.999999992               0.000178198               0.000000000               0.999999992               0.000183570               0.000000000               0.999999992               0.000188821              -0.000000000               0.999999992               0.000194455               0.000000000               0.999999992               0.000200801              -0.000000000               0.999999992               0.000208044               0.000000000               0.999999992               0.000216261               0.000000000               0.999999992               0.000225420              -0.000000000               0.999999992               0.000235496               0.000000000               0.999999992               0.000246453               0.000000000               0.999999992               0.000258372               0.000000000               0.999999992               0.000271272               0.000000000               0.999999992               0.000284954               0.000000000               0.999999992               0.000299197               0.000000000               0.999999992               0.000131713               0.000066589               0.999999992               0.000156775               0.000057569               0.999999992               0.000168251               0.000054702               0.999999992               0.000174852               0.000055216               0.999999992               0.000180076               0.000057691               0.999999992               0.000185227               0.000061326               0.999999992               0.000190823               0.000065591               0.999999992               0.000197192               0.000070429               0.999999992               0.000204449               0.000075644               0.999999992               0.000212657               0.000081048               0.999999992               0.000221807               0.000086606               0.999999992               0.000231857               0.000092267               0.999999992               0.000242798               0.000097998               0.999999992               0.000254640               0.000103704               0.999999992               0.000267313               0.000109171               0.999999992               0.000280728               0.000114094               0.999999992               0.000294700               0.000117825               0.999999992               0.000129239               0.000132384               0.999999992               0.000150333               0.000114600               0.999999992               0.000159651               0.000109240               0.999999992               0.000165209               0.000110580               0.999999992               0.000170017               0.000115690               0.999999992               0.000175064               0.000122927               0.999999992               0.000180755               0.000131456               0.999999992               0.000187343               0.000141037               0.999999992               0.000194854               0.000151405               0.999999992               0.000203302               0.000162279               0.999999992               0.000212720               0.000173344               0.999999992               0.000223036               0.000184590               0.999999992               0.000234170               0.000195993               0.999999992               0.000246068               0.000207269               0.999999992               0.000258574               0.000218066               0.999999992               0.000271573               0.000228001               0.999999992               0.000284966               0.000236481               0.999999992               0.000125363               0.000196656               0.999999992               0.000140244               0.000170538               0.999999992               0.000146448               0.000163377               0.999999992               0.000150726               0.000165968               0.999999992               0.000155141               0.000173949               0.999999992               0.000160319               0.000184919               0.999999992               0.000166425               0.000197810               0.999999992               0.000173558               0.000212195               0.999999992               0.000181700               0.000227667               0.999999992               0.000190778               0.000243729               0.999999992               0.000200703               0.000260157               0.999999992               0.000211406               0.000276941               0.999999992               0.000222769               0.000293875               0.999999992               0.000234701               0.000310591               0.999999992               0.000247062               0.000326780               0.999999992               0.000259660               0.000341990               0.999999992               0.000272439               0.000355700               0.999999992               0.000120270               0.000258798               0.999999992               0.000127194               0.000224935               0.999999992               0.000129977               0.000216811               0.999999992               0.000133137               0.000221213               0.999999992               0.000137526               0.000232302               0.999999992               0.000143243               0.000247210               0.999999992               0.000150130               0.000264628               0.999999992               0.000158207               0.000283821               0.999999992               0.000167308               0.000304197               0.999999992               0.000177211               0.000325291               0.999999992               0.000187800               0.000346933               0.999999992               0.000198987               0.000369072               0.999999992               0.000210588               0.000391410               0.999999992               0.000222502               0.000413502               0.999999992               0.000234605               0.000435025               0.999999992               0.000246804               0.000455685               0.999999992               0.000259168               0.000475191               0.999999992               0.000113983               0.000318195               0.999999992               0.000111717               0.000277618               0.999999992               0.000111386               0.000269414               0.999999992               0.000113995               0.000276149               0.999999992               0.000118922               0.000290614               0.999999992               0.000125677               0.000309557               0.999999992               0.000133929               0.000331433               0.999999992               0.000143335               0.000355168               0.999999992               0.000153615               0.000380189               0.999999992               0.000164502               0.000406223               0.999999992               0.000175906               0.000432900               0.999999992               0.000187689               0.000460114               0.999999992               0.000199634               0.000487559               0.999999992               0.000211676               0.000514598               0.999999992               0.000223764               0.000541166               0.999999992               0.000235892               0.000567022               0.999999992               0.000248048               0.000592223               0.999999992               0.000106521               0.000374217               0.999999992               0.000094712               0.000328441               0.999999992               0.000092106               0.000320872               0.999999992               0.000095042               0.000330172               0.999999992               0.000101281               0.000348095               0.999999992               0.000109616               0.000370974               0.999999992               0.000119466               0.000397124               0.999999992               0.000130326               0.000425286               0.999999992               0.000141875               0.000454918               0.999999992               0.000153880               0.000485484               0.999999992               0.000166177               0.000516889               0.999999992               0.000178580               0.000548854               0.999999992               0.000190969               0.000580833               0.999999992               0.000203237               0.000612370               0.999999992               0.000215409               0.000643485               0.999999992               0.000227380               0.000674025               0.999999992               0.000239071               0.000703846               0.999999992               0.000098045               0.000426268               0.999999992               0.000077224               0.000377239               0.999999992               0.000073489               0.000370731               0.999999992               0.000077687               0.000382604               0.999999992               0.000085660               0.000403868               0.999999992               0.000095795               0.000430598               0.999999992               0.000107365               0.000460991               0.999999992               0.000119790               0.000493408               0.999999992               0.000132610               0.000527239               0.999999992               0.000145602               0.000562247               0.999999992               0.000158596               0.000598087               0.999999992               0.000171474               0.000634270               0.999999992               0.000184062               0.000670348               0.999999992               0.000196326               0.000705982               0.999999992               0.000208253               0.000741159               0.999999992               0.000219776               0.000775850               0.999999992               0.000230858               0.000809654               0.999999992               0.000089168               0.000473393               0.999999992               0.000059942               0.000423926               0.999999992               0.000056629               0.000418535               0.999999992               0.000062617               0.000432806               0.999999992               0.000072615               0.000457251               0.999999992               0.000084707               0.000487748               0.999999992               0.000098039               0.000522102               0.999999992               0.000111765               0.000558706               0.999999992               0.000125496               0.000596792               0.999999992               0.000139167               0.000635991               0.999999992               0.000152558               0.000675875               0.999999992               0.000165516               0.000715908               0.999999992               0.000177998               0.000755641               0.999999992               0.000189942               0.000795007               0.999999992               0.000201555               0.000833947               0.999999992               0.000212849               0.000872219               0.999999992               0.000223934               0.000909757               0.999999992               0.000080710               0.000517224               0.999999992               0.000046661               0.000473218               0.999999992               0.000040819               0.000464138               0.999999992               0.000045347               0.000473636               0.999999992               0.000054367               0.000493487               0.999999992               0.000065267               0.000519794               0.999999992               0.000077424               0.000550351               0.999999992               0.000090061               0.000583647               0.999999992               0.000102401               0.000618623               0.999999992               0.000114659               0.000654803               0.999999992               0.000126607               0.000691877               0.999999992               0.000138217               0.000729396               0.999999992               0.000149303               0.000766993               0.999999992               0.000159819               0.000804525               0.999999992               0.000169878               0.000841837               0.999999992               0.000179774               0.000878915               0.999999992               0.000189735               0.000915408               0.999999992               0.000071180               0.000556744               0.999999992               0.000035333               0.000520165               0.999999992               0.000027065               0.000510128               0.999999992               0.000029720               0.000516083               0.999999992               0.000037221               0.000532079               0.999999992               0.000046804               0.000554524               0.999999992               0.000057506               0.000581480               0.999999992               0.000068766               0.000611563               0.999999992               0.000079836               0.000643588               0.999999992               0.000090498               0.000677010               0.999999992               0.000100959               0.000711369               0.999999992               0.000111147               0.000746327               0.999999992               0.000120716               0.000781582               0.999999992               0.000129603               0.000816920               0.999999992               0.000137789               0.000852233               0.999999992               0.000145581               0.000887574               0.999999992               0.000153290               0.000922847               0.999999992               0.000060832               0.000591219               0.999999992               0.000025884               0.000563638               0.999999992               0.000015954               0.000554604               0.999999992               0.000016633               0.000558668               0.999999992               0.000022341               0.000571697               0.999999992               0.000030250               0.000591060               0.999999992               0.000039253               0.000614912               0.999999992               0.000048826               0.000642069               0.999999992               0.000058346               0.000671505               0.999999992               0.000067554               0.000702408               0.999999992               0.000076532               0.000734330               0.999999992               0.000085203               0.000766990               0.999999992               0.000093178               0.000800168               0.999999992               0.000100167               0.000833617               0.999999992               0.000106144               0.000867125               0.999999992               0.000111066               0.000900677               0.999999992               0.000115325               0.000934374               0.999999992               0.000049706               0.000620164               0.999999992               0.000018270               0.000602102               0.999999992               0.000007783               0.000595503               0.999999992               0.000006900               0.000599006               0.999999992               0.000010727               0.000610228               0.999999992               0.000016798               0.000627274               0.999999992               0.000023848               0.000648793               0.999999992               0.000031471               0.000673619               0.999999992               0.000039313               0.000700866               0.999999992               0.000046970               0.000729756               0.999999992               0.000054384               0.000759824               0.999999992               0.000061390               0.000790756               0.999999992               0.000067627               0.000822349               0.999999992               0.000072748               0.000854436               0.999999992               0.000076516               0.000886677               0.999999992               0.000078559               0.000918985               0.999999992               0.000078876               0.000951381               0.999999992               0.000037864               0.000643120               0.999999992               0.000012279               0.000633979               0.999999992               0.000002614               0.000630590               0.999999992               0.000000836               0.000634544               0.999999992               0.000003055               0.000644969               0.999999992               0.000007208               0.000660570               0.999999992               0.000012247               0.000680433               0.999999992               0.000017915               0.000703594               0.999999992               0.000023848               0.000729273               0.999999992               0.000029736               0.000756790               0.999999992               0.000035426               0.000785680               0.999999992               0.000040689               0.000815536               0.999999992               0.000045272               0.000846182               0.999999992               0.000048761               0.000877483               0.999999992               0.000050682               0.000909042               0.999999992               0.000050587               0.000940710               0.999999992               0.000047800               0.000972500               0.999999992               0.000025508               0.000659593               0.999999992               0.000007552               0.000657750               0.999999992               0.000000106               0.000657672               0.999999992              -0.000001787               0.000662644               0.999999992              -0.000000741               0.000672892               0.999999992               0.000001734               0.000687758               0.999999992               0.000004975               0.000706541               0.999999992               0.000008589               0.000728550               0.999999992               0.000012542               0.000753213               0.999999992               0.000016571               0.000779810               0.999999992               0.000020539               0.000807954               0.999999992               0.000024164               0.000837285               0.999999992               0.000027158               0.000867549               0.999999992               0.000029196               0.000898627               0.999999992               0.000029882               0.000930266               0.999999992               0.000028628               0.000962111               0.999999992               0.000024682               0.000993975               0.999999992               0.000012828               0.000669460               0.999999992               0.000003602               0.000672350               0.999999992              -0.000000447               0.000674763               0.999999992              -0.000001676               0.000680757               0.999999992              -0.000001284               0.000691176               0.999999992              -0.000000179               0.000705759               0.999999992               0.000001348               0.000723968               0.999999992               0.000003105               0.000745253               0.999999992               0.000005136               0.000769113               0.999999992               0.000007179               0.000795094               0.999999992               0.000009237               0.000822861               0.999999992               0.000011160               0.000852016               0.999999992               0.000012658               0.000882416               0.999999992               0.000013519               0.000913782               0.999999992               0.000013536               0.000945792               0.999999992               0.000012383               0.000978172               0.999999992               0.000009596               0.001010510               0.999999992               0.000000000               0.000672747               0.999999992              -0.000000000               0.000677273               0.999999992               0.000000000               0.000680623               0.999999992               0.000000000               0.000686997               0.999999992               0.000000000               0.000697488               0.999999992               0.000000000               0.000712017               0.999999992               0.000000000               0.000730047               0.999999992               0.000000000               0.000751074               0.999999992              -0.000000000               0.000774661               0.999999992              -0.000000000               0.000800437               0.999999992              -0.000000000               0.000828042               0.999999992              -0.000000000               0.000857201               0.999999992               0.000000000               0.000887676               0.999999992              -0.000000000               0.000919224               0.999999992              -0.000000000               0.000951487               0.999999992              -0.000000000               0.000984065               0.999999992              -0.000000000               0.001016607               0.999999992 </DataArray>
<DataArray type="Float64"                                    Name="defo"                                                      NumberOfComponents=" 3" format="ascii">
             -0.000132537               0.000000000               0.999999992              -0.000158951               0.000000000               0.999999992              -0.000171208               0.000000000               0.999999992              -0.000178198               0.000000000               0.999999992              -0.000183570              -0.000000000               0.999999992              -0.000188821               0.000000000               0.999999992              -0.000194455               0.000000000               0.999999992              -0.000200801               0.000000000               0.999999992              -0.000208044               0.000000000               0.999999992              -0.000216261               0.000000000               0.999999992              -0.000225420              -0.000000000               0.999999992              -0.000235496               0.000000000               0.999999992              -0.000246453               0.000000000               0.999999992              -0.000258372               0.000000000               0.999999992              -0.000271272               0.000000000               0.999999992              -0.000284954               0.000000000               0.999999992              -0.000299197               0.000000000               0.999999992              -0.000131713               0.000066589               0.999999992              -0.000156775               0.000057569               0.999999992              -0.000168251               0.000054702               0.999999992              -0.000174852               0.000055216               0.999999992              -0.000180076               0.000057691               0.999999992              -0.000185227               0.000061326               0.999999992              -0.000190823               0.000065591               0.999999992              -0.000197192               0.000070429               0.999999992              -0.000204449               0.000075644               0.999999992              -0.000212657               0.000081048               0.999999992              -0.000221807               0.000086606               0.999999992              -0.000231857               0.000092267               0.999999992              -0.000242798               0.000097998               0.999999992              -0.000254640               0.000103704               0.999999992              -0.000267313               0.000109171               0.999999992              -0.000280728               0.000114094               0.999999992              -0.000294700               0.000117825               0.999999992              -0.000129239               0.000132384               0.999999992              -0.000150333               0.000114600               0.999999992              -0.000159651               0.000109240               0.999999992              -0.000165209               0.000110580               0.999999992              -0.000170017               0.000115690               0.999999992              -0.000175064               0.000122927               0.999999992              -0.000180755               0.000131456               0.999999992              -0.000187343               0.000141037               0.999999992              -0.000194854               0.000151405               0.999999992              -0.000203302               0.000162279               0.999999992              -0.000212720               0.000173344               0.999999992              -0.000223036               0.000184590               0.999999992              -0.000234170               0.000195993               0.999999992              -0.000246068               0.000207269               0.999999992              -0.000258574               0.000218066               0.999999992              -0.000271573               0.000228001               0.999999992              -0.000284966               0.000236481               0.999999992              -0.000125363               0.000196656               0.999999992              -0.000140244               0.000170538               0.999999992              -0.000146448               0.000163377               0.999999992              -0.000150726               0.000165968               0.999999992              -0.000155141               0.000173949               0.999999992              -0.000160319               0.000184919               0.999999992              -0.000166425               0.000197810               0.999999992              -0.000173558               0.000212195               0.999999992              -0.000181700               0.000227667               0.999999992              -0.000190778               0.000243729               0.999999992              -0.000200703               0.000260157               0.999999992              -0.000211406               0.000276941               0.999999992              -0.000222769               0.000293875               0.999999992              -0.000234701               0.000310591               0.999999992              -0.000247062               0.000326780               0.999999992              -0.000259660               0.000341990               0.999999992              -0.000272439               0.000355700               0.999999992              -0.000120270               0.000258798               0.999999992              -0.000127194               0.000224935               0.999999992              -0.000129977               0.000216811               0.999999992              -0.000133137               0.000221213               0.999999992              -0.000137526               0.000232302               0.999999992              -0.000143243               0.000247210               0.999999992              -0.000150130               0.000264628               0.999999992              -0.000158207               0.000283821               0.999999992              -0.000167308               0.000304197               0.999999992              -0.000177211               0.000325291               0.999999992              -0.000187800               0.000346933               0.999999992              -0.000198987               0.000369072               0.999999992              -0.000210588               0.000391410               0.999999992              -0.000222502               0.000413502               0.999999992              -0.000234605               0.000435025               0.999999992              -0.000246804               0.000455685               0.999999992              -0.000259168               0.000475191               0.999999992              -0.000113983               0.000318195               0.999999992              -0.000111717               0.000277618               0.999999992              -0.000111386               0.000269414               0.999999992              -0.000113995               0.000276149               0.999999992              -0.000118922               0.000290614               0.999999992              -0.000125677               0.000309557               0.999999992              -0.000133929               0.000331433               0.999999992              -0.000143335               0.000355168               0.999999992              -0.000153615               0.000380189               0.999999992              -0.000164502               0.000406223               0.999999992              -0.000175906               0.000432900               0.999999992              -0.000187689               0.000460114               0.999999992              -0.000199634               0.000487559               0.999999992              -0.000211676               0.000514598               0.999999992              -0.000223764               0.000541166               0.999999992              -0.000235892               0.000567022               0.999999992              -0.000248048               0.000592223               0.999999992              -0.000106521               0.000374217               0.999999992              -0.000094712               0.000328441               0.999999992              -0.000092106               0.000320872               0.999999992              -0.000095042               0.000330172               0.999999992              -0.000101281               0.000348095               0.999999992              -0.000109616               0.000370974               0.999999992              -0.000119466               0.000397124               0.999999992              -0.000130326               0.000425286               0.999999992              -0.000141875               0.000454918               0.999999992              -0.000153880               0.000485484               0.999999992              -0.000166177               0.000516889               0.999999992              -0.000178580               0.000548854               0.999999992              -0.000190969               0.000580833               0.999999992              -0.000203237               0.000612370               0.999999992              -0.000215409               0.000643485               0.999999992              -0.000227380               0.000674025               0.999999992              -0.000239071               0.000703846               0.999999992              -0.000098045               0.000426268               0.999999992              -0.000077224               0.000377239               0.999999992              -0.000073489               0.000370731               0.999999992              -0.000077687               0.000382604               0.999999992              -0.000085660               0.000403868               0.999999992              -0.000095795               0.000430598               0.999999992              -0.000107365               0.000460991               0.999999992              -0.000119790               0.000493408               0.999999992              -0.000132610               0.000527239               0.999999992              -0.000145602               0.000562247               0.999999992              -0.000158596               0.000598087               0.999999992              -0.000171474               0.000634270               0.999999992              -0.000184062               0.000670348               0.999999992              -0.000196326               0.000705982               0.999999992              -0.000208253               0.000741159               0.999999992              -0.000219776               0.000775850               0.999999992              -0.000230858               0.000809654               0.999999992              -0.000089168               0.000473393               0.999999992              -0.000059942               0.000423926               0.999999992              -0.000056629               0.000418535               0.999999992              -0.000062617               0.000432806               0.999999992              -0.000072615               0.000457251               0.999999992              -0.000084707               0.000487748               0.999999992              -0.000098039               0.000522102               0.999999992              -0.000111765               0.000558706               0.999999992              -0.000125496               0.000596792               0.999999992              -0.000139167               0.000635991               0.999999992              -0.000152558               0.000675875               0.999999992              -0.000165516               0.000715908               0.999999992              -0.000177998               0.000755641               0.999999992              -0.000189942               0.000795007               0.999999992              -0.000201555               0.000833947               0.999999992              -0.000212849               0.000872219               0.999999992              -0.000223934               0.000909757               0.999999992              -0.000080710               0.000517224               0.999999992              -0.000046661               0.000473218               0.999999992              -0.000040819               0.000464138               0.999999992              -0.000045347               0.000473636               0.999999992              -0.000054367               0.000493487               0.999999992              -0.000065267               0.000519794               0.999999992              -0.000077424               0.000550351               0.999999992              -0.000090061               0.000583647               0.999999992              -0.000102401               0.000618623               0.999999992              -0.000114659               0.000654803               0.999999992              -0.000126607               0.000691877               0.999999992              -0.000138217               0.000729396               0.999999992              -0.000149303               0.000766993               0.999999992              -0.000159819               0.000804525               0.999999992              -0.000169878               0.000841837               0.999999992              -0.000179774               0.000878915               0.999999992              -0.000189735               0.000915408               0.999999992              -0.000071180               0.000556744               0.999999992              -0.000035333               0.000520165               0.999999992              -0.000027065               0.000510128               0.999999992              -0.000029720               0.000516083               0.999999992              -0.000037221               0.000532079               0.999999992              -0.000046804               0.000554524               0.999999992              -0.000057506               0.000581480               0.999999992              -0.000068766               0.000611563               0.999999992              -0.000079836               0.000643588               0.999999992              -0.000090498               0.000677010               0.999999992              -0.000100959               0.000711369               0.999999992              -0.000111147               0.000746327               0.999999992              -0.000120716               0.000781582               0.999999992              -0.000129603               0.000816920               0.999999992              -0.000137789               0.000852233               0.999999992              -0.000145581               0.000887574               0.999999992              -0.000153290               0.000922847               0.999999992              -0.000060832               0.000591219               0.999999992              -0.000025884               0.000563638               0.999999992              -0.000015954               0.000554604               0.999999992              -0.000016633               0.000558668               0.999999992              -0.000022341               0.000571697               0.999999992              -0.000030250               0.000591060               0.999999992              -0.000039253               0.000614912               0.999999992              -0.000048826               0.000642069               0.999999992              -0.000058346               0.000671505               0.999999992              -0.000067554               0.000702408               0.999999992              -0.000076532               0.000734330               0.999999992              -0.000085203               0.000766990               0.999999992              -0.000093178               0.000800168               0.999999992              -0.000100167               0.000833617               0.999999992              -0.000106144               0.000867125               0.999999992              -0.000111066               0.000900677               0.999999992              -0.000115325               0.000934374               0.999999992              -0.000049706               0.000620164               0.999999992              -0.000018270               0.000602102               0.999999992              -0.000007783               0.000595503               0.999999992              -0.000006900               0.000599006               0.999999992              -0.000010727               0.000610228               0.999999992              -0.000016798               0.000627274               0.999999992              -0.000023848               0.000648793               0.999999992              -0.000031471               0.000673619               0.999999992              -0.000039313               0.000700866               0.999999992              -0.000046970               0.000729756               0.999999992              -0.000054384               0.000759824               0.999999992              -0.000061390               0.000790756               0.999999992              -0.000067627               0.000822349               0.999999992              -0.000072748               0.000854436               0.999999992              -0.000076516               0.000886677               0.999999992              -0.000078559               0.000918985               0.999999992              -0.000078876               0.000951381               0.999999992              -0.000037864               0.000643120               0.999999992              -0.000012279               0.000633979               0.999999992              -0.000002614               0.000630590               0.999999992              -0.000000836               0.000634544               0.999999992              -0.000003055               0.000644969               0.999999992              -0.000007208               0.000660570               0.999999992              -0.000012247               0.000680433               0.999999992              -0.000017915               0.000703594               0.999999992              -0.000023848               0.000729273               0.999999992              -0.000029736               0.000756790               0.999999992              -0.000035426               0.000785680               0.999999992              -0.000040689               0.000815536               0.999999992              -0.000045272               0.000846182               0.999999992              -0.000048761               0.000877483               0.999999992              -0.000050682               0.000909042               0.999999992              -0.000050587               0.000940710               0.999999992              -0.000047800               0.000972500               0.999999992              -0.000025508               0.000659593               0.999999992              -0.000007552               0.000657750               0.999999992              -0.000000106               0.000657672               0.999999992               0.000001787               0.000662644               0.999999992               0.000000741               0.000672892               0.999999992              -0.000001734               0.000687758               0.999999992              -0.000004975               0.000706541               0.999999992              -0.000008589               0.000728550               0.999999992              -0.000012542               0.000753213               0.999999992              -0.000016571               0.000779810               0.999999992              -0.000020539               0.000807954               0.999999992              -0.000024164               0.000837285               0.999999992              -0.000027158               0.000867549               0.999999992              -0.000029196               0.000898627               0.999999992              -0.000029882               0.000930266               0.999999992              -0.000028628               0.000962111               0.999999992              -0.000024682               0.000993975               0.999999992              -0.000012828               0.000669460               0.999999992              -0.000003602               0.000672350               0.999999992               0.000000447               0.000674763               0.999999992               0.000001676               0.000680757               0.999999992               0.000001284               0.000691176               0.999999992               0.000000179               0.000705759               0.999999992              -0.000001348               0.000723968               0.999999992              -0.000003105               0.000745253               0.999999992              -0.000005136               0.000769113               0.999999992              -0.000007179               0.000795094               0.999999992              -0.000009237               0.000822861               0.999999992              -0.000011160               0.000852016               0.999999992              -0.000012658               0.000882416               0.999999992              -0.000013519               0.000913782               0.999999992              -0.000013536               0.000945792               0.999999992              -0.000012383               0.000978172               0.999999992              -0.000009596               0.001010510               0.999999992               0.000000000               0.000672747               0.999999992              -0.000000000               0.000677273               0.999999992               0.000000000               0.000680623               0.999999992               0.000000000               0.000686997               0.999999992               0.000000000               0.000697488               0.999999992               0.000000000               0.000712017               0.999999992               0.000000000               0.000730047               0.999999992               0.000000000               0.000751074               0.999999992              -0.000000000               0.000774661               0.999999992              -0.000000000               0.000800437               0.999999992              -0.000000000               0.000828042               0.999999992              -0.000000000               0.000857201               0.999999992               0.000000000               0.000887676               0.999999992              -0.000000000               0.000919224               0.999999992              -0.000000000               0.000951487               0.999999992              -0.000000000               0.000984065               0.999999992              -0.000000000               0.001016607               0.999999992              -0.000132537               0.000000000               0.999999992              -0.000158951               0.000000000               0.999999992              -0.000171208               0.000000000               0.999999992              -0.000178198               0.000000000               0.999999992              -0.000183570              -0.000000000               0.999999992              -0.000188821               0.000000000               0.999999992              -0.000194455               0.000000000               0.999999992              -0.000200801               0.000000000               0.999999992              -0.000208044               0.000000000               0.999999992              -0.000216261               0.000000000               0.999999992              -0.000225420              -0.000000000               0.999999992              -0.000235496               0.000000000               0.999999992              -0.000246453               0.000000000               0.999999992              -0.000258372               0.000000000               0.999999992              -0.000271272               0.000000000               0.999999992              -0.000284954               0.000000000               0.999999992              -0.000299197               0.000000000               0.999999992              -0.000131713              -0.000066589               0.999999992              -0.000156775              -0.000057569               0.999999992              -0.000168251              -0.000054702               0.999999992              -0.000174852              -0.000055216               0.999999992              -0.000180076              -0.000057691               0.999999992              -0.000185227              -0.000061326               0.999999992              -0.000190823              -0.000065591               0.999999992              -0.000197192              -0.000070429               0.999999992              -0.000204449              -0.000075644               0.999999992              -0.000212657              -0.000081048               0.999999992              -0.000221807              -0.000086606               0.999999992              -0.000231857              -0.000092267               0.999999992              -0.000242798              -0.000097998               0.999999992              -0.000254640              -0.000103704               0.999999992              -0.000267313              -0.000109171               0.999999992              -0.000280728              -0.000114094               0.999999992              -0.000294700              -0.000117825               0.999999992              -0.000129239              -0.000132384               0.999999992              -0.000150333              -0.000114600               0.999999992              -0.000159651              -0.000109240               0.999999992              -0.000165209              -0.000110580               0.999999992              -0.000170017              -0.000115690               0.999999992              -0.000175064              -0.000122927               0.999999992              -0.000180755              -0.000131456               0.999999992              -0.000187343              -0.000141037               0.999999992              -0.000194854              -0.000151405               0.999999992              -0.000203302              -0.000162279               0.999999992              -0.000212720              -0.000173344               0.999999992              -0.000223036              -0.000184590               0.999999992              -0.000234170              -0.000195993               0.999999992              -0.000246068              -0.000207269               0.999999992              -0.000258574              -0.000218066               0.999999992              -0.000271573              -0.000228001               0.999999992              -0.000284966              -0.000236481               0.999999992              -0.000125363              -0.000196656               0.999999992              -0.000140244              -0.000170538               0.999999992              -0.000146448              -0.000163377               0.999999992              -0.000150726              -0.000165968               0.999999992              -0.000155141              -0.000173949               0.999999992              -0.000160319              -0.000184919               0.999999992              -0.000166425              -0.000197810               0.999999992              -0.000173558              -0.000212195               0.999999992              -0.000181700              -0.000227667               0.999999992              -0.000190778              -0.000243729               0.999999992              -0.000200703              -0.000260157               0.999999992              -0.000211406              -0.000276941               0.999999992              -0.000222769              -0.000293875               0.999999992              -0.000234701              -0.000310591               0.999999992              -0.000247062              -0.000326780               0.999999992              -0.000259660              -0.000341990               0.999999992              -0.000272439              -0.000355700               0.999999992              -0.000120270              -0.000258798               0.999999992              -0.000127194              -0.000224935               0.999999992              -0.000129977              -0.000216811               0.999999992              -0.000133137              -0.000221213               0.999999992              -0.000137526              -0.000232302               0.999999992              -0.000143243              -0.000247210               0.999999992              -0.000150130              -0.000264628               0.999999992              -0.000158207              -0.000283821               0.999999992              -0.000167308              -0.000304197               0.999999992              -0.000177211              -0.000325291               0.999999992              -0.000187800              -0.000346933               0.999999992              -0.000198987              -0.000369072               0.999999992              -0.000210588              -0.000391410               0.999999992              -0.000222502              -0.000413502               0.999999992              -0.000234605              -0.000435025               0.999999992              -0.000246804              -0.000455685               0.999999992              -0.000259168              -0.000475191               0.999999992              -0.000113983              -0.000318195               0.999999992              -0.000111717              -0.000277618               0.999999992              -0.000111386              -0.000269414               0.999999992              -0.000113995              -0.000276149               0.999999992              -0.000118922              -0.000290614               0.999999992              -0.000125677              -0.000309557               0.999999992              -0.000133929              -0.000331433               0.999999992              -0.000143335              -0.000355168               0.999999992              -0.000153615              -0.000380189               0.999999992              -0.000164502              -0.000406223               0.999999992              -0.000175906              -0.000432900               0.999999992              -0.000187689              -0.000460114               0.999999992              -0.000199634              -0.000487559               0.999999992              -0.000211676              -0.000514598               0.999999992              -0.000223764              -0.000541166               0.999999992              -0.000235892              -0.000567022               0.999999992              -0.000248048              -0.000592223               0.999999992              -0.000106521              -0.000374217               0.999999992              -0.000094712              -0.000328441               0.999999992              -0.000092106              -0.000320872               0.999999992              -0.000095042              -0.000330172               0.999999992              -0.000101281              -0.000348095               0.999999992              -0.000109616              -0.000370974               0.999999992              -0.000119466              -0.000397124               0.999999992              -0.000130326              -0.000425286               0.999999992              -0.000141875              -0.000454918               0.999999992              -0.000153880              -0.000485484               0.999999992              -0.000166177              -0.000516889               0.999999992              -0.000178580              -0.000548854               0.999999992              -0.000190969              -0.000580833               0.999999992              -0.000203237              -0.000612370               0.999999992              -0.000215409              -0.000643485               0.999999992              -0.000227380              -0.000674025               0.999999992              -0.000239071              -0.000703846               0.999999992              -0.000098045              -0.000426268               0.999999992              -0.000077224              -0.000377239               0.999999992              -0.000073489              -0.000370731               0.999999992              -0.000077687              -0.000382604               0.999999992              -0.000085660              -0.000403868               0.999999992              -0.000095795              -0.000430598               0.999999992              -0.000107365              -0.000460991               0.999999992              -0.000119790              -0.000493408               0.999999992              -0.000132610              -0.000527239               0.999999992              -0.000145602              -0.000562247               0.999999992              -0.000158596              -0.000598087               0.999999992              -0.000171474              -0.000634270               0.999999992              -0.000184062              -0.000670348               0.999999992              -0.000196326              -0.000705982               0.999999992              -0.000208253              -0.000741159               0.999999992              -0.000219776              -0.000775850               0.999999992              -0.000230858              -0.000809654               0.999999992              -0.000089168              -0.000473393               0.999999992              -0.000059942              -0.000423926               0.999999992              -0.000056629              -0.000418535               0.999999992              -0.000062617              -0.000432806               0.999999992              -0.000072615              -0.000457251               0.999999992              -0.000084707              -0.000487748               0.999999992              -0.000098039              -0.000522102               0.999999992              -0.000111765              -0.000558706               0.999999992              -0.000125496              -0.000596792               0.999999992              -0.000139167              -0.000635991               0.999999992              -0.000152558              -0.000675875               0.999999992              -0.000165516              -0.000715908               0.999999992              -0.000177998              -0.000755641               0.999999992              -0.000189942              -0.000795007               0.999999992              -0.000201555              -0.000833947               0.999999992              -0.000212849              -0.000872219               0.999999992              -0.000223934              -0.000909757               0.999999992              -0.000080710              -0.000517224               0.999999992              -0.000046661              -0.000473218               0.999999992              -0.000040819              -0.000464138               0.999999992              -0.000045347              -0.000473636               0.999999992              -0.000054367              -0.000493487               0.999999992              -0.000065267              -0.000519794               0.999999992              -0.000077424              -0.000550351               0.999999992              -0.000090061              -0.000583647               0.999999992              -0.000102401              -0.000618623               0.999999992              -0.000114659              -0.000654803               0.999999992              -0.000126607              -0.000691877               0.999999992              -0.000138217              -0.000729396               0.999999992              -0.000149303              -0.000766993               0.999999992              -0.000159819              -0.000804525               0.999999992              -0.000169878              -0.000841837               0.999999992              -0.000179774              -0.000878915               0.999999992              -0.000189735              -0.000915408               0.999999992              -0.000071180              -0.000556744               0.999999992              -0.000035333              -0.000520165               0.999999992              -0.000027065              -0.000510128               0.999999992              -0.000029720              -0.000516083               0.999999992              -0.000037221              -0.000532079               0.999999992              -0.000046804              -0.000554524               0.999999992              -0.000057506              -0.000581480               0.999999992              -0.000068766              -0.000611563               0.999999992              -0.000079836              -0.000643588               0.999999992              -0.000090498              -0.000677010               0.999999992              -0.000100959              -0.000711369               0.999999992              -0.000111147              -0.000746327               0.999999992              -0.000120716              -0.000781582               0.999999992              -0.000129603              -0.000816920               0.999999992              -0.000137789              -0.000852233               0.999999992              -0.000145581              -0.000887574               0.999999992              -0.000153290              -0.000922847               0.999999992              -0.000060832              -0.000591219               0.999999992              -0.000025884              -0.000563638               0.999999992              -0.000015954              -0.000554604               0.999999992              -0.000016633              -0.000558668               0.999999992              -0.000022341              -0.000571697               0.999999992              -0.000030250              -0.000591060               0.999999992              -0.000039253              -0.000614912               0.999999992              -0.000048826              -0.000642069               0.999999992              -0.000058346              -0.000671505               0.999999992              -0.000067554              -0.000702408               0.999999992              -0.000076532              -0.000734330               0.999999992              -0.000085203              -0.000766990               0.999999992              -0.000093178              -0.000800168               0.999999992              -0.000100167              -0.000833617               0.999999992              -0.000106144              -0.000867125               0.999999992              -0.000111066              -0.000900677               0.999999992              -0.000115325              -0.000934374               0.999999992              -0.000049706              -0.000620164               0.999999992              -0.000018270              -0.000602102               0.999999992              -0.000007783              -0.000595503               0.999999992              -0.000006900              -0.000599006               0.999999992              -0.000010727              -0.000610228               0.999999992              -0.000016798              -0.000627274               0.999999992              -0.000023848              -0.000648793               0.999999992              -0.000031471              -0.000673619               0.999999992              -0.000039313              -0.000700866               0.999999992              -0.000046970              -0.000729756               0.999999992              -0.000054384              -0.000759824               0.999999992              -0.000061390              -0.000790756               0.999999992              -0.000067627              -0.000822349               0.999999992              -0.000072748              -0.000854436               0.999999992              -0.000076516              -0.000886677               0.999999992              -0.000078559              -0.000918985               0.999999992              -0.000078876              -0.000951381               0.999999992              -0.000037864              -0.000643120               0.999999992              -0.000012279              -0.000633979               0.999999992              -0.000002614              -0.000630590               0.999999992              -0.000000836              -0.000634544               0.999999992              -0.000003055              -0.000644969               0.999999992              -0.000007208              -0.000660570               0.999999992              -0.000012247              -0.000680433               0.999999992              -0.000017915              -0.000703594               0.999999992              -0.000023848              -0.000729273               0.999999992              -0.000029736              -0.000756790               0.999999992              -0.000035426              -0.000785680               0.999999992              -0.000040689              -0.000815536               0.999999992              -0.000045272              -0.000846182               0.999999992              -0.000048761              -0.000877483               0.999999992              -0.000050682              -0.000909042               0.999999992              -0.000050587              -0.000940710               0.999999992              -0.000047800              -0.000972500               0.999999992              -0.000025508              -0.000659593               0.999999992              -0.000007552              -0.000657750               0.999999992              -0.000000106              -0.000657672               0.999999992               0.000001787              -0.000662644               0.999999992               0.000000741              -0.000672892               0.999999992              -0.000001734              -0.000687758               0.999999992              -0.000004975              -0.000706541               0.999999992              -0.000008589              -0.000728550               0.999999992              -0.000012542              -0.000753213               0.999999992              -0.000016571              -0.000779810               0.999999992              -0.000020539              -0.000807954               0.999999992              -0.000024164              -0.000837285               0.999999992              -0.000027158              -0.000867549               0.999999992              -0.000029196              -0.000898627               0.999999992              -0.000029882              -0.000930266               0.999999992              -0.000028628              -0.000962111               0.999999992              -0.000024682              -0.000993975               0.999999992              -0.000012828              -0.000669460               0.999999992              -0.000003602              -0.000672350               0.999999992               0.000000447              -0.000674763               0.999999992               0.000001676              -0.000680757               0.999999992               0.000001284              -0.000691176               0.999999992               0.000000179              -0.000705759               0.999999992              -0.000001348              -0.000723968               0.999999992              -0.000003105              -0.000745253               0.999999992              -0.000005136              -0.000769113               0.999999992              -0.000007179              -0.000795094               0.999999992              -0.000009237              -0.000822861               0.999999992              -0.000011160              -0.000852016               0.999999992              -0.000012658              -0.000882416               0.999999992              -0.000013519              -0.000913782               0.999999992              -0.000013536              -0.000945792               0.999999992              -0.000012383              -0.000978172               0.999999992              -0.000009596              -0.001010510               0.999999992               0.000000000              -0.000672747               0.999999992              -0.000000000              -0.000677273               0.999999992              -0.000000000              -0.000680623               0.999999992               0.000000000              -0.000686997               0.999999992               0.000000000              -0.000697488               0.999999992              -0.000000000              -0.000712017               0.999999992              -0.000000000              -0.000730047               0.999999992              -0.000000000              -0.000751074               0.999999992              -0.000000000              -0.000774661               0.999999992               0.000000000              -0.000800437               0.999999992              -0.000000000              -0.000828042               0.999999992              -0.000000000              -0.000857201               0.999999992               0.000000000              -0.000887676               0.999999992               0.000000000              -0.000919224               0.999999992              -0.000000000              -0.000951487               0.999999992              -0.000000000              -0.000984065               0.999999992               0.000000000              -0.001016607               0.999999992               0.000132537               0.000000000               0.999999992               0.000158951               0.000000000               0.999999992               0.000171208              -0.000000000               0.999999992               0.000178198               0.000000000               0.999999992               0.000183570               0.000000000               0.999999992               0.000188821              -0.000000000               0.999999992               0.000194455               0.000000000               0.999999992               0.000200801              -0.000000000               0.999999992               0.000208044               0.000000000               0.999999992               0.000216261               0.000000000               0.999999992               0.000225420              -0.000000000               0.999999992               0.000235496               0.000000000               0.999999992               0.000246453               0.000000000               0.999999992               0.000258372               0.000000000               0.999999992               0.000271272               0.000000000               0.999999992               0.000284954               0.000000000               0.999999992               0.000299197               0.000000000               0.999999992               0.000131713              -0.000066589               0.999999992               0.000156775              -0.000057569               0.999999992               0.000168251              -0.000054702               0.999999992               0.000174852              -0.000055216               0.999999992               0.000180076              -0.000057691               0.999999992               0.000185227              -0.000061326               0.999999992               0.000190823              -0.000065591               0.999999992               0.000197192              -0.000070429               0.999999992               0.000204449              -0.000075644               0.999999992               0.000212657              -0.000081048               0.999999992               0.000221807              -0.000086606               0.999999992               0.000231857              -0.000092267               0.999999992               0.000242798              -0.000097998               0.999999992               0.000254640              -0.000103704               0.999999992               0.000267313              -0.000109171               0.999999992               0.000280728              -0.000114094               0.999999992               0.000294700              -0.000117825               0.999999992               0.000129239              -0.000132384               0.999999992               0.000150333              -0.000114600               0.999999992               0.000159651              -0.000109240               0.999999992               0.000165209              -0.000110580               0.999999992               0.000170017              -0.000115690               0.999999992               0.000175064              -0.000122927               0.999999992               0.000180755              -0.000131456               0.999999992               0.000187343              -0.000141037               0.999999992               0.000194854              -0.000151405               0.999999992               0.000203302              -0.000162279               0.999999992               0.000212720              -0.000173344               0.999999992               0.000223036              -0.000184590               0.999999992               0.000234170              -0.000195993               0.999999992               0.000246068              -0.000207269               0.999999992               0.000258574              -0.000218066               0.999999992               0.000271573              -0.000228001               0.999999992               0.000284966              -0.000236481               0.999999992               0.000125363              -0.000196656               0.999999992               0.000140244              -0.000170538               0.999999992               0.000146448              -0.000163377               0.999999992               0.000150726              -0.000165968               0.999999992               0.000155141              -0.000173949               0.999999992               0.000160319              -0.000184919               0.999999992               0.000166425              -0.000197810               0.999999992               0.000173558              -0.000212195               0.999999992               0.000181700              -0.000227667               0.999999992               0.000190778              -0.000243729               0.999999992               0.000200703              -0.000260157               0.999999992               0.000211406              -0.000276941               0.999999992               0.000222769              -0.000293875               0.999999992               0.000234701              -0.000310591               0.999999992               0.000247062              -0.000326780               0.999999992               0.000259660              -0.000341990               0.999999992               0.000272439              -0.000355700               0.999999992               0.000120270              -0.000258798               0.999999992               0.000127194              -0.000224935               0.999999992               0.000129977              -0.000216811               0.999999992               0.000133137              -0.000221213               0.999999992               0.000137526              -0.000232302               0.999999992               0.000143243              -0.000247210               0.999999992               0.000150130              -0.000264628               0.999999992               0.000158207              -0.000283821               0.999999992               0.000167308              -0.000304197               0.999999992               0.000177211              -0.000325291               0.999999992               0.000187800              -0.000346933               0.999999992               0.000198987              -0.000369072               0.999999992               0.000210588              -0.000391410               0.999999992               0.000222502              -0.000413502               0.999999992               0.000234605              -0.000435025               0.999999992               0.000246804              -0.000455685               0.999999992               0.000259168              -0.000475191               0.999999992               0.000113983              -0.000318195               0.999999992               0.000111717              -0.000277618               0.999999992               0.000111386              -0.000269414               0.999999992               0.000113995              -0.000276149               0.999999992               0.000118922              -0.000290614               0.999999992               0.000125677              -0.000309557               0.999999992               0.000133929              -0.000331433               0.999999992               0.000143335              -0.000355168               0.999999992               0.000153615              -0.000380189               0.999999992               0.000164502              -0.000406223               0.999999992               0.000175906              -0.000432900               0.999999992               0.000187689              -0.000460114               0.999999992               0.000199634              -0.000487559               0.999999992               0.000211676              -0.000514598               0.999999992               0.000223764              -0.000541166               0.999999992               0.000235892              -0.000567022               0.999999992               0.000248048              -0.000592223               0.999999992               0.000106521              -0.000374217               0.999999992               0.000094712              -0.000328441               0.999999992               0.000092106              -0.000320872               0.999999992               0.000095042              -0.000330172               0.999999992               0.000101281              -0.000348095               0.999999992               0.000109616              -0.000370974               0.999999992               0.000119466              -0.000397124               0.999999992               0.000130326              -0.000425286               0.999999992               0.000141875              -0.000454918               0.999999992               0.000153880              -0.000485484               0.999999992               0.000166177              -0.000516889               0.999999992               0.000178580              -0.000548854               0.999999992               0.000190969              -0.000580833               0.999999992               0.000203237              -0.000612370               0.999999992               0.000215409              -0.000643485               0.999999992               0.000227380              -0.000674025               0.999999992               0.000239071              -0.000703846               0.999999992               0.000098045              -0.000426268               0.999999992               0.000077224              -0.000377239               0.999999992               0.000073489              -0.000370731               0.999999992               0.000077687              -0.000382604               0.999999992               0.000085660              -0.000403868               0.999999992               0.000095795              -0.000430598               0.999999992               0.000107365              -0.000460991               0.999999992               0.000119790              -0.000493408               0.999999992               0.000132610              -0.000527239               0.999999992               0.000145602              -0.000562247               0.999999992               0.000158596              -0.000598087               0.999999992               0.000171474              -0.000634270               0.999999992               0.000184062              -0.000670348               0.999999992               0.000196326              -0.000705982               0.999999992               0.000208253              -0.000741159               0.999999992               0.000219776              -0.000775850               0.999999992               0.000230858              -0.000809654               0.999999992               0.000089168              -0.000473393               0.999999992               0.000059942              -0.000423926               0.999999992               0.000056629              -0.000418535               0.999999992               0.000062617              -0.000432806               0.999999992               0.000072615              -0.000457251               0.999999992               0.000084707              -0.000487748               0.999999992               0.000098039              -0.000522102               0.999999992               0.000111765              -0.000558706               0.999999992               0.000125496              -0.000596792               0.999999992               0.000139167              -0.000635991               0.999999992               0.000152558              -0.000675875               0.999999992               0.000165516              -0.000715908               0.999999992               0.000177998              -0.000755641               0.999999992               0.000189942              -0.000795007               0.999999992               0.000201555              -0.000833947               0.999999992               0.000212849              -0.000872219               0.999999992               0.000223934              -0.000909757               0.999999992               0.000080710              -0.000517224               0.999999992               0.000046661              -0.000473218               0.999999992               0.000040819              -0.000464138               0.999999992               0.000045347              -0.000473636               0.999999992               0.000054367              -0.000493487               0.999999992               0.000065267              -0.000519794               0.999999992               0.000077424              -0.000550351               0.999999992               0.000090061              -0.000583647               0.999999992               0.000102401              -0.000618623               0.999999992               0.000114659              -0.000654803               0.999999992               0.000126607              -0.000691877               0.999999992               0.000138217              -0.000729396               0.999999992               0.000149303              -0.000766993               0.999999992               0.000159819              -0.000804525               0.999999992               0.000169878              -0.000841837               0.999999992               0.000179774              -0.000878915               0.999999992               0.000189735              -0.000915408               0.999999992               0.000071180              -0.000556744               0.999999992               0.000035333              -0.000520165               0.999999992               0.000027065              -0.000510128               0.999999992               0.000029720              -0.000516083               0.999999992               0.000037221              -0.000532079               0.999999992               0.000046804              -0.000554524               0.999999992               0.000057506              -0.000581480               0.999999992               0.000068766              -0.000611563               0.999999992               0.000079836              -0.000643588               0.999999992               0.000090498              -0.000677010               0.999999992               0.000100959              -0.000711369               0.999999992               0.000111147              -0.000746327               0.999999992               0.000120716              -0.000781582               0.999999992               0.000129603              -0.000816920               0.999999992               0.000137789              -0.000852233               0.999999992               0.000145581              -0.000887574               0.999999992               0.000153290              -0.000922847               0.999999992               0.000060832              -0.000591219               0.999999992               0.000025884              -0.000563638               0.999999992               0.000015954              -0.000554604               0.999999992               0.000016633              -0.000558668               0.999999992               0.000022341              -0.000571697               0.999999992               0.000030250              -0.000591060               0.999999992               0.000039253              -0.000614912               0.999999992               0.000048826              -0.000642069               0.999999992               0.000058346              -0.000671505               0.999999992               0.000067554              -0.000702408               0.999999992               0.000076532              -0.000734330               0.999999992               0.000085203              -0.000766990               0.999999992               0.000093178              -0.000800168               0.999999992               0.000100167              -0.000833617               0.999999992               0.000106144              -0.000867125               0.999999992               0.000111066              -0.000900677               0.999999992               0.000115325              -0.000934374               0.999999992               0.000049706              -0.000620164               0.999999992               0.000018270              -0.000602102               0.999999992               0.000007783              -0.000595503               0.999999992               0.000006900              -0.000599006               0.999999992               0.000010727              -0.000610228               0.999999992               0.000016798              -0.000627274               0.999999992               0.000023848              -0.000648793               0.999999992               0.000031471              -0.000673619               0.999999992               0.000039313              -0.000700866               0.999999992               0.000046970              -0.000729756               0.999999992               0.000054384              -0.000759824               0.999999992               0.000061390              -0.000790756               0.999999992               0.000067627              -0.000822349               0.999999992               0.000072748              -0.000854436               0.999999992               0.000076516              -0.000886677               0.999999992               0.000078559              -0.000918985               0.999999992               0.000078876              -0.000951381               0.999999992               0.000037864              -0.000643120               0.999999992               0.000012279              -0.000633979               0.999999992               0.000002614              -0.000630590               0.999999992               0.000000836              -0.000634544               0.999999992               0.000003055              -0.000644969               0.999999992               0.000007208              -0.000660570               0.999999992               0.000012247              -0.000680433               0.999999992               0.000017915              -0.000703594               0.999999992               0.000023848              -0.000729273               0.999999992               0.000029736              -0.000756790               0.999999992               0.000035426              -0.000785680               0.999999992               0.000040689              -0.000815536               0.999999992               0.000045272              -0.000846182               0.999999992               0.000048761              -0.000877483               0.999999992               0.000050682              -0.000909042               0.999999992               0.000050587              -0.000940710               0.999999992               0.000047800              -0.000972500               0.999999992               0.000025508              -0.000659593               0.999999992               0.000007552              -0.000657750               0.999999992               0.000000106              -0.000657672               0.999999992              -0.000001787              -0.000662644               0.999999992              -0.000000741              -0.000672892               0.999999992               0.000001734              -0.000687758               0.999999992               0.000004975              -0.000706541               0.999999992               0.000008589              -0.000728550               0.999999992               0.000012542              -0.000753213               0.999999992               0.000016571              -0.000779810               0.999999992               0.000020539              -0.000807954               0.999999992               0.000024164              -0.000837285               0.999999992               0.000027158              -0.000867549               0.999999992               0.000029196              -0.000898627               0.999999992               0.000029882              -0.000930266               0.999999992               0.000028628              -0.000962111               0.999999992               0.000024682              -0.000993975               0.999999992               0.000012828              -0.000669460               0.999999992               0.000003602              -0.000672350               0.999999992              -0.000000447              -0.000674763               0.999999992              -0.000001676              -0.000680757               0.999999992              -0.000001284              -0.000691176               0.999999992              -0.000000179              -0.000705759               0.999999992               0.000001348              -0.000723968               0.999999992               0.000003105              -0.000745253               0.999999992               0.000005136              -0.000769113               0.999999992               0.000007179              -0.000795094               0.999999992               0.000009237              -0.000822861               0.999999992               0.000011160              -0.000852016               0.999999992               0.000012658              -0.000882416               0.999999992               0.000013519              -0.000913782               0.999999992               0.000013536              -0.000945792               0.999999992               0.000012383              -0.000978172               0.999999992               0.000009596              -0.001010510               0.999999992               0.000000000              -0.000672747               0.999999992              -0.000000000              -0.000677273               0.999999992              -0.000000000              -0.000680623               0.999999992               0.000000000              -0.000686997               0.999999992               0.000000000              -0.000697488               0.999999992              -0.000000000              -0.000712017               0.999999992              -0.000000000              -0.000730047               0.999999992              -0.000000000              -0.000751074               0.999999992              -0.000000000              -0.000774661               0.999999992               0.000000000              -0.000800437               0.999999992              -0.000000000              -0.000828042               0.999999992              -0.000000000              -0.000857201               0.999999992               0.000000000              -0.000887676               0.999999992               0.000000000              -0.000919224               0.999999992              -0.000000000              -0.000951487               0.999999992              -0.000000000              -0.000984065               0.999999992               0.000000000              -0.001016607               0.999999992               0.000132537               0.000000000               0.999999992               0.000158951               0.000000000               0.999999992               0.000171208              -0.000000000               0.999999992               0.000178198               0.000000000               0.999999992               0.000183570               0.000000000               0.999999992               0.000188821              -0.000000000               0.999999992               0.000194455               0.000000000               0.999999992               0.000200801              -0.000000000               0.999999992               0.000208044               0.000000000               0.999999992               0.000216261               0.000000000               0.999999992               0.000225420              -0.000000000               0.999999992               0.000235496               0.000000000               0.999999992               0.000246453               0.000000000               0.999999992               0.000258372               0.000000000               0.999999992               0.000271272               0.000000000               0.999999992               0.000284954               0.000000000               0.999999992               0.000299197               0.000000000               0.999999992               0.000131713               0.000066589               0.999999992               0.000156775               0.000057569               0.999999992               0.000168251               0.000054702               0.999999992               0.000174852               0.000055216               0.999999992               0.000180076               0.000057691               0.999999992               0.000185227               0.000061326               0.999999992               0.000190823               0.000065591               0.999999992               0.000197192               0.000070429               0.999999992               0.000204449               0.000075644               0.999999992               0.000212657               0.000081048               0.999999992               0.000221807               0.000086606               0.999999992               0.000231857               0.000092267               0.999999992               0.000242798               0.000097998               0.999999992               0.000254640               0.000103704               0.999999992               0.000267313               0.000109171               0.999999992               0.000280728               0.000114094               0.999999992               0.000294700               0.000117825               0.999999992               0.000129239               0.000132384               0.999999992               0.000150333               0.000114600               0.999999992               0.000159651               0.000109240               0.999999992               0.000165209               0.000110580               0.999999992               0.000170017               0.000115690               0.999999992               0.000175064               0.000122927               0.999999992               0.000180755               0.000131456               0.999999992               0.000187343               0.000141037               0.999999992               0.000194854               0.000151405               0.999999992               0.000203302               0.000162279               0.999999992               0.000212720               0.000173344               0.999999992               0.000223036               0.000184590               0.999999992               0.000234170               0.000195993               0.999999992               0.000246068               0.000207269               0.999999992               0.000258574               0.000218066               0.999999992               0.000271573               0.000228001               0.999999992               0.000284966               0.000236481               0.999999992               0.000125363               0.000196656               0.999999992               0.000140244               0.000170538               0.999999992               0.000146448               0.000163377               0.999999992               0.000150726               0.000165968               0.999999992               0.000155141               0.000173949               0.999999992               0.000160319               0.000184919               0.999999992               0.000166425               0.000197810               0.999999992               0.000173558               0.000212195               0.999999992               0.000181700               0.000227667               0.999999992               0.000190778               0.000243729               0.999999992               0.000200703               0.000260157               0.999999992               0.000211406               0.000276941               0.999999992               0.000222769               0.000293875               0.999999992               0.000234701               0.000310591               0.999999992               0.000247062               0.000326780               0.999999992               0.000259660               0.000341990               0.999999992               0.000272439               0.000355700               0.999999992               0.000120270               0.000258798               0.999999992               0.000127194               0.000224935               0.999999992               0.000129977               0.000216811               0.999999992               0.000133137               0.000221213               0.999999992               0.000137526               0.000232302               0.999999992               0.000143243               0.000247210               0.999999992               0.000150130               0.000264628               0.999999992               0.000158207               0.000283821               0.999999992               0.000167308               0.000304197               0.999999992               0.000177211               0.000325291               0.999999992               0.000187800               0.000346933               0.999999992               0.000198987               0.000369072               0.999999992               0.000210588               0.000391410               0.999999992               0.000222502               0.000413502               0.999999992               0.000234605               0.000435025               0.999999992               0.000246804               0.000455685               0.999999992               0.000259168               0.000475191               0.999999992               0.000113983               0.000318195               0.999999992               0.000111717               0.000277618               0.999999992               0.000111386               0.000269414               0.999999992               0.000113995               0.000276149               0.999999992               0.000118922               0.000290614               0.999999992               0.000125677               0.000309557               0.999999992               0.000133929               0.000331433               0.999999992               0.000143335               0.000355168               0.999999992               0.000153615               0.000380189               0.999999992               0.000164502               0.000406223               0.999999992               0.000175906               0.000432900               0.999999992               0.000187689               0.000460114               0.999999992               0.000199634               0.000487559               0.999999992               0.000211676               0.000514598               0.999999992               0.000223764               0.000541166               0.999999992               0.000235892               0.000567022               0.999999992               0.000248048               0.000592223               0.999999992               0.000106521               0.000374217               0.999999992               0.000094712               0.000328441               0.999999992               0.000092106               0.000320872               0.999999992               0.000095042               0.000330172               0.999999992               0.000101281               0.000348095               0.999999992               0.000109616               0.000370974               0.999999992               0.000119466               0.000397124               0.999999992               0.000130326               0.000425286               0.999999992               0.000141875               0.000454918               0.999999992               0.000153880               0.000485484               0.999999992               0.000166177               0.000516889               0.999999992               0.000178580               0.000548854               0.999999992               0.000190969               0.000580833               0.999999992               0.000203237               0.000612370               0.999999992               0.000215409               0.000643485               0.999999992               0.000227380               0.000674025               0.999999992               0.000239071               0.000703846               0.999999992               0.000098045               0.000426268               0.999999992               0.000077224               0.000377239               0.999999992               0.000073489               0.000370731               0.999999992               0.000077687               0.000382604               0.999999992               0.000085660               0.000403868               0.999999992               0.000095795               0.000430598               0.999999992               0.000107365               0.000460991               0.999999992               0.000119790               0.000493408               0.999999992               0.000132610               0.000527239               0.999999992               0.000145602               0.000562247               0.999999992               0.000158596               0.000598087               0.999999992               0.000171474               0.000634270               0.999999992               0.000184062               0.000670348               0.999999992               0.000196326               0.000705982               0.999999992               0.000208253               0.000741159               0.999999992               0.000219776               0.000775850               0.999999992               0.000230858               0.000809654               0.999999992               0.000089168               0.000473393               0.999999992               0.000059942               0.000423926               0.999999992               0.000056629               0.000418535               0.999999992               0.000062617               0.000432806               0.999999992               0.000072615               0.000457251               0.999999992               0.000084707               0.000487748               0.999999992               0.000098039               0.000522102               0.999999992               0.000111765               0.000558706               0.999999992               0.000125496               0.000596792               0.999999992               0.000139167               0.000635991               0.999999992               0.000152558               0.000675875               0.999999992               0.000165516               0.000715908               0.999999992               0.000177998               0.000755641               0.999999992               0.000189942               0.000795007               0.999999992               0.000201555               0.000833947               0.999999992               0.000212849               0.000872219               0.999999992               0.000223934               0.000909757               0.999999992               0.000080710               0.000517224               0.999999992               0.000046661               0.000473218               0.999999992               0.000040819               0.000464138               0.999999992               0.000045347               0.000473636               0.999999992               0.000054367               0.000493487               0.999999992               0.000065267               0.000519794               0.999999992               0.000077424               0.000550351               0.999999992               0.000090061               0.000583647               0.999999992               0.000102401               0.000618623               0.999999992               0.000114659               0.000654803               0.999999992               0.000126607               0.000691877               0.999999992               0.000138217               0.000729396               0.999999992               0.000149303               0.000766993               0.999999992               0.000159819               0.000804525               0.999999992               0.000169878               0.000841837               0.999999992               0.000179774               0.000878915               0.999999992               0.000189735               0.000915408               0.999999992               0.000071180               0.000556744               0.999999992               0.000035333               0.000520165               0.999999992               0.000027065               0.000510128               0.999999992               0.000029720               0.000516083               0.999999992               0.000037221               0.000532079               0.999999992               0.000046804               0.000554524               0.999999992               0.000057506               0.000581480               0.999999992               0.000068766               0.000611563               0.999999992               0.000079836               0.000643588               0.999999992               0.000090498               0.000677010               0.999999992               0.000100959               0.000711369               0.999999992               0.000111147               0.000746327               0.999999992               0.000120716               0.000781582               0.999999992               0.000129603               0.000816920               0.999999992               0.000137789               0.000852233               0.999999992               0.000145581               0.000887574               0.999999992               0.000153290               0.000922847               0.999999992               0.000060832               0.000591219               0.999999992               0.000025884               0.000563638               0.999999992               0.000015954               0.000554604               0.999999992               0.000016633               0.000558668               0.999999992               0.000022341               0.000571697               0.999999992               0.000030250               0.000591060               0.999999992               0.000039253               0.000614912               0.999999992               0.000048826               0.000642069               0.999999992               0.000058346               0.000671505               0.999999992               0.000067554               0.000702408               0.999999992               0.000076532               0.000734330               0.999999992               0.000085203               0.000766990               0.999999992               0.000093178               0.000800168               0.999999992               0.000100167               0.000833617               0.999999992               0.000106144               0.000867125               0.999999992               0.000111066               0.000900677               0.999999992               0.000115325               0.000934374               0.999999992               0.000049706               0.000620164               0.999999992               0.000018270               0.000602102               0.999999992               0.000007783               0.000595503               0.999999992               0.000006900               0.000599006               0.999999992               0.000010727               0.000610228               0.999999992               0.000016798               0.000627274               0.999999992               0.000023848               0.000648793               0.999999992               0.000031471               0.000673619               0.999999992               0.000039313               0.000700866               0.999999992               0.000046970               0.000729756               0.999999992               0.000054384               0.000759824               0.999999992               0.000061390               0.000790756               0.999999992               0.000067627               0.000822349               0.999999992               0.000072748               0.000854436               0.999999992               0.000076516               0.000886677               0.999999992               0.000078559               0.000918985               0.999999992               0.000078876               0.000951381               0.999999992               0.000037864               0.000643120               0.999999992               0.000012279               0.000633979               0.999999992               0.000002614               0.000630590               0.999999992               0.000000836               0.000634544               0.999999992               0.000003055               0.000644969               0.999999992               0.000007208               0.000660570               0.999999992               0.000012247               0.000680433               0.999999992               0.000017915               0.000703594               0.999999992               0.000023848               0.000729273               0.999999992               0.000029736               0.000756790               0.999999992               0.000035426               0.000785680               0.999999992               0.000040689               0.000815536               0.999999992               0.000045272               0.000846182               0.999999992               0.000048761               0.000877483               0.999999992               0.000050682               0.000909042               0.999999992               0.000050587               0.000940710               0.999999992               0.000047800               0.000972500               0.999999992               0.000025508               0.000659593               0.999999992               0.000007552               0.000657750               0.999999992               0.000000106               0.000657672               0.999999992              -0.000001787               0.000662644               0.999999992              -0.000000741               0.000672892               0.999999992               0.000001734               0.000687758               0.999999992               0.000004975               0.000706541               0.999999992               0.000008589               0.000728550               0.999999992               0.000012542               0.000753213               0.999999992               0.000016571               0.000779810               0.999999992               0.000020539               0.000807954               0.999999992               0.000024164               0.000837285               0.999999992               0.000027158               0.000867549               0.999999992               0.000029196               0.000898627               0.999999992               0.000029882               0.000930266               0.999999992               0.000028628               0.000962111               0.999999992               0.000024682               0.000993975               0.999999992               0.000012828               0.000669460               0.999999992               0.000003602               0.000672350               0.999999992              -0.000000447               0.000674763               0.999999992              -0.000001676               0.000680757               0.999999992              -0.000001284               0.000691176               0.999999992              -0.000000179               0.000705759               0.999999992               0.000001348               0.000723968               0.999999992               0.000003105               0.000745253               0.999999992               0.000005136               0.000769113               0.999999992               0.000007179               0.000795094               0.999999992               0.000009237               0.000822861               0.999999992               0.000011160               0.000852016               0.999999992               0.000012658               0.000882416               0.999999992               0.000013519               0.000913782               0.999999992               0.000013536               0.000945792               0.999999992               0.000012383               0.000978172               0.999999992               0.000009596               0.001010510               0.999999992               0.000000000               0.000672747               0.999999992              -0.000000000               0.000677273               0.999999992               0.000000000               0.000680623               0.999999992               0.000000000               0.000686997               0.999999992               0.000000000               0.000697488               0.999999992               0.000000000               0.000712017               0.999999992               0.000000000               0.000730047               0.999999992               0.000000000               0.000751074               0.999999992              -0.000000000               0.000774661               0.999999992              -0.000000000               0.000800437               0.999999992              -0.000000000               0.000828042               0.999999992              -0.000000000               0.000857201               0.999999992               0.000000000               0.000887676               0.999999992              -0.000000000               0.000919224               0.999999992              -0.000000000               0.000951487               0.999999992              -0.000000000               0.000984065               0.999999992              -0.000000000               0.001016607               0.999999992 </DataArray>
<DataArray type="Float64"                                    Name="stress"                                                      NumberOfComponents="10" format="ascii">
              0.001106085               0.012382668              -0.000000000              -0.001133049               0.004505198               0.003372149               0.000000000               0.000000000               0.000000000               0.000000000               0.001187918               0.010059636              -0.000000000              -0.000811983               0.003623839               0.002811856               0.000000000               0.000000000               0.000000000               0.000000000               0.001638172               0.008202820               0.000000000              -0.000411037               0.002871258               0.002460221               0.000000000               0.000000000               0.000000000               0.000000000               0.001676736               0.007192026               0.000000000              -0.000270226               0.002487393               0.002217167               0.000000000               0.000000000               0.000000000               0.000000000               0.001571149               0.006597402               0.000000000              -0.000235494               0.002277610               0.002042116               0.000000000               0.000000000               0.000000000               0.000000000               0.001429524               0.006224136               0.000000000              -0.000241945               0.002155339               0.001913395               0.000000000               0.000000000               0.000000000               0.000000000               0.001280125               0.005971602               0.000000000              -0.000266403               0.002079315               0.001812912               0.000000000               0.000000000               0.000000000               0.000000000               0.001128409               0.005796583               0.000000000              -0.000301419               0.002032648               0.001731229               0.000000000               0.000000000               0.000000000               0.000000000               0.000978924               0.005669237               0.000000000              -0.000341557               0.002003579               0.001662022               0.000000000               0.000000000               0.000000000               0.000000000               0.000835810               0.005569673               0.000000000              -0.000382779               0.001984132               0.001601353               0.000000000               0.000000000               0.000000000               0.000000000               0.000702313               0.005489781               0.000000000              -0.000422854               0.001970860               0.001548006               0.000000000               0.000000000               0.000000000               0.000000000               0.000576426               0.005423058              -0.000000000              -0.000461721               0.001961575               0.001499854               0.000000000               0.000000000               0.000000000               0.000000000               0.000450663               0.005362607              -0.000000000              -0.000501326               0.001954626               0.001453300               0.000000000               0.000000000               0.000000000               0.000000000               0.000321644               0.005300945              -0.000000000              -0.000542000               0.001947631               0.001405631               0.000000000               0.000000000               0.000000000               0.000000000               0.000200015               0.005231736              -0.000000000              -0.000578960               0.001936881               0.001357921               0.000000000               0.000000000               0.000000000               0.000000000               0.000093619               0.005143622              -0.000000000              -0.000607844               0.001917138               0.001309294               0.000000000               0.000000000               0.000000000               0.000000000               0.000037019               0.005069897              -0.000000000              -0.000619854               0.001896567               0.001276713               0.000000000               0.000000000               0.000000000               0.000000000               0.001158701               0.012151946              -0.000896368              -0.001084478               0.004412101               0.003327623               0.000000000               0.000000000               0.000000000               0.000000000               0.001188980               0.009906099              -0.000530312              -0.000792393               0.003566131               0.002773738               0.000000000               0.000000000               0.000000000               0.000000000               0.001582174               0.008126830              -0.000157429              -0.000422537               0.002849762               0.002427225               0.000000000               0.000000000               0.000000000               0.000000000               0.001597096               0.007154852               0.000009347              -0.000295445               0.002483409               0.002187964               0.000000000               0.000000000               0.000000000               0.000000000               0.001486867               0.006577593               0.000083465              -0.000264623               0.002280717               0.002016093               0.000000000               0.000000000               0.000000000               0.000000000               0.001347366               0.006208794               0.000114120              -0.000270836               0.002159856               0.001889020               0.000000000               0.000000000               0.000000000               0.000000000               0.001200396               0.005957229               0.000126757              -0.000294505               0.002083891               0.001789387               0.000000000               0.000000000               0.000000000               0.000000000               0.001053466               0.005781100               0.000131700              -0.000327587               0.002036210               0.001708623               0.000000000               0.000000000               0.000000000               0.000000000               0.000912074               0.005654511               0.000129781              -0.000364785               0.002006413               0.001641628               0.000000000               0.000000000               0.000000000               0.000000000               0.000776437               0.005557736               0.000124264              -0.000403552               0.001987078               0.001583525               0.000000000               0.000000000               0.000000000               0.000000000               0.000648418               0.005477868               0.000117889              -0.000441576               0.001973130               0.001531554               0.000000000               0.000000000               0.000000000               0.000000000               0.000527612               0.005410252               0.000111793              -0.000478426               0.001962874               0.001484449               0.000000000               0.000000000               0.000000000               0.000000000               0.000408907               0.005349630               0.000104659              -0.000515362               0.001954980               0.001439617               0.000000000               0.000000000               0.000000000               0.000000000               0.000292234               0.005288556               0.000093836              -0.000551480               0.001946661               0.001395181               0.000000000               0.000000000               0.000000000               0.000000000               0.000182332               0.005220674               0.000076951              -0.000584208               0.001934943               0.001350735               0.000000000               0.000000000               0.000000000               0.000000000               0.000083699               0.005139737               0.000046066              -0.000611079               0.001916922               0.001305843               0.000000000               0.000000000               0.000000000               0.000000000               0.000032865               0.005079199               0.000027063              -0.000622574               0.001900574               0.001278000               0.000000000               0.000000000               0.000000000               0.000000000               0.001304386               0.011493416              -0.001689526              -0.000947531               0.004146944               0.003199413               0.000000000               0.000000000               0.000000000               0.000000000               0.001189483               0.009464626              -0.001006558              -0.000737021               0.003400517               0.002663497               0.000000000               0.000000000               0.000000000               0.000000000               0.001423911               0.007905062              -0.000313709              -0.000454165               0.002786383               0.002332218               0.000000000               0.000000000               0.000000000               0.000000000               0.001378400               0.007038691              -0.000009381              -0.000362935               0.002467185               0.002104250               0.000000000               0.000000000               0.000000000               0.000000000               0.001254795               0.006509863               0.000123659              -0.000343184               0.002284327               0.001941144               0.000000000               0.000000000               0.000000000               0.000000000               0.001120691               0.006161192               0.000177666              -0.000349889               0.002170340               0.001820451               0.000000000               0.000000000               0.000000000               0.000000000               0.000986202               0.005920722               0.000199501              -0.000370264               0.002096975               0.001726712               0.000000000               0.000000000               0.000000000               0.000000000               0.000855893               0.005749566               0.000207984              -0.000397735               0.002049081               0.001651346               0.000000000               0.000000000               0.000000000               0.000000000               0.000734260               0.005624174               0.000205462              -0.000427673               0.002017264               0.001589590               0.000000000               0.000000000               0.000000000               0.000000000               0.000616085               0.005524785               0.000194581              -0.000459565               0.001994765               0.001535200               0.000000000               0.000000000               0.000000000               0.000000000               0.000502714               0.005442230               0.000182096              -0.000491760               0.001977978               0.001486219               0.000000000               0.000000000               0.000000000               0.000000000               0.000398511               0.005374453               0.000171940              -0.000522364               0.001965587               0.001443224               0.000000000               0.000000000               0.000000000               0.000000000               0.000300012               0.005313906               0.000159286              -0.000551732               0.001955195               0.001403463               0.000000000               0.000000000               0.000000000               0.000000000               0.000209202               0.005254716               0.000139098              -0.000578387               0.001944350               0.001365963               0.000000000               0.000000000               0.000000000               0.000000000               0.000129916               0.005195486               0.000108971              -0.000600716               0.001932050               0.001331334               0.000000000               0.000000000               0.000000000               0.000000000               0.000059840               0.005134232               0.000062842              -0.000619338               0.001917839               0.001298502               0.000000000               0.000000000               0.000000000               0.000000000               0.000024538               0.005095932               0.000036324              -0.000627788               0.001907890               0.001280102               0.000000000               0.000000000               0.000000000               0.000000000               0.001501351               0.010497143              -0.002303784              -0.000749136               0.003748724               0.002999588               0.000000000               0.000000000               0.000000000               0.000000000               0.001179650               0.008793462              -0.001389259              -0.000656813               0.003150062               0.002493249               0.000000000               0.000000000               0.000000000               0.000000000               0.001189128               0.007562653              -0.000469077              -0.000499408               0.002687328               0.002187921               0.000000000               0.000000000               0.000000000               0.000000000               0.001068309               0.006850959              -0.000075796              -0.000455753               0.002435548               0.001979795               0.000000000               0.000000000               0.000000000               0.000000000               0.000933646               0.006394870               0.000094780              -0.000449240               0.002281349               0.001832109               0.000000000               0.000000000               0.000000000               0.000000000               0.000813579               0.006086418               0.000165421              -0.000455709               0.002180689               0.001724980               0.000000000               0.000000000               0.000000000               0.000000000               0.000704196               0.005871585               0.000195722              -0.000469873               0.002113800               0.001643926               0.000000000               0.000000000               0.000000000               0.000000000               0.000600387               0.005711995               0.000207764              -0.000488853               0.002066930               0.001578077               0.000000000               0.000000000               0.000000000               0.000000000               0.000504489               0.005585162               0.000205789              -0.000508961               0.002031356               0.001522395               0.000000000               0.000000000               0.000000000               0.000000000               0.000414250               0.005480072               0.000195910              -0.000529664               0.002003227               0.001473563               0.000000000               0.000000000               0.000000000               0.000000000               0.000329279               0.005395752               0.000187154              -0.000550988               0.001982229               0.001431241               0.000000000               0.000000000               0.000000000               0.000000000               0.000252619               0.005328440               0.000179670              -0.000571322               0.001966570               0.001395248               0.000000000               0.000000000               0.000000000               0.000000000               0.000182721               0.005269139               0.000166516              -0.000590120               0.001953069               0.001362949               0.000000000               0.000000000               0.000000000               0.000000000               0.000120223               0.005213732               0.000144840              -0.000606631               0.001940104               0.001333472               0.000000000               0.000000000               0.000000000               0.000000000               0.000071696               0.005164818               0.000112245              -0.000618715               0.001927827               0.001309112               0.000000000               0.000000000               0.000000000               0.000000000               0.000033441               0.005123920               0.000063217              -0.000627948               0.001917272               0.001289324               0.000000000               0.000000000               0.000000000               0.000000000               0.000014895               0.005103527               0.000034840              -0.000632354               0.001911943               0.001279590               0.000000000               0.000000000               0.000000000               0.000000000               0.001681236               0.009277445              -0.002688655              -0.000529218               0.003268856               0.002739638               0.000000000               0.000000000               0.000000000               0.000000000               0.001134476               0.007980882              -0.001649499              -0.000572182               0.002850994               0.002278813               0.000000000               0.000000000               0.000000000               0.000000000               0.000903867               0.007149870              -0.000613958              -0.000554783               0.002568194               0.002013411               0.000000000               0.000000000               0.000000000               0.000000000               0.000720975               0.006621806              -0.000185365              -0.000557359               0.002393033               0.001835674               0.000000000               0.000000000               0.000000000               0.000000000               0.000589825               0.006253751               0.000001809              -0.000560533               0.002271407               0.001710874               0.000000000               0.000000000               0.000000000               0.000000000               0.000495883               0.005993009               0.000084657              -0.000563169               0.002185372               0.001622204               0.000000000               0.000000000               0.000000000               0.000000000               0.000420149               0.005802426               0.000121921              -0.000567746               0.002123371               0.001555625               0.000000000               0.000000000               0.000000000               0.000000000               0.000348013               0.005647298               0.000138375              -0.000575406               0.002074216               0.001498810               0.000000000               0.000000000               0.000000000               0.000000000               0.000285397               0.005518416               0.000143155              -0.000582777               0.002033712               0.001450936               0.000000000               0.000000000               0.000000000               0.000000000               0.000230926               0.005415756               0.000142331              -0.000590371               0.002002024               0.001411653               0.000000000               0.000000000               0.000000000               0.000000000               0.000179369               0.005332238               0.000142778              -0.000599265               0.001977150               0.001377885               0.000000000               0.000000000               0.000000000               0.000000000               0.000135176               0.005263196               0.000142709              -0.000607207               0.001956783               0.001349576               0.000000000               0.000000000               0.000000000               0.000000000               0.000097723               0.005202695               0.000133599              -0.000613689               0.001938778               0.001325088               0.000000000               0.000000000               0.000000000               0.000000000               0.000064074               0.005145557               0.000114919              -0.000619165               0.001921557               0.001302391               0.000000000               0.000000000               0.000000000               0.000000000               0.000038922               0.005097443               0.000086974              -0.000622583               0.001906658               0.001284075               0.000000000               0.000000000               0.000000000               0.000000000               0.000018020               0.005062756               0.000046829              -0.000626085               0.001896264               0.001270178               0.000000000               0.000000000               0.000000000               0.000000000               0.000008105               0.005050768               0.000023576              -0.000628305               0.001893007               0.001264703               0.000000000               0.000000000               0.000000000               0.000000000               0.001781724               0.007948158              -0.002833985              -0.000325376               0.002757817               0.002432442               0.000000000               0.000000000               0.000000000               0.000000000               0.001041994               0.007112936              -0.001789774              -0.000498370               0.002537078               0.002038708               0.000000000               0.000000000               0.000000000               0.000000000               0.000600307               0.006705504              -0.000752077              -0.000613072               0.002439503               0.001826431               0.000000000               0.000000000               0.000000000               0.000000000               0.000388187               0.006358797              -0.000331434              -0.000649278               0.002336004               0.001686726               0.000000000               0.000000000               0.000000000               0.000000000               0.000283117               0.006079800              -0.000143407              -0.000653804               0.002244515               0.001590710               0.000000000               0.000000000               0.000000000               0.000000000               0.000220951               0.005860630              -0.000051102              -0.000649720               0.002170097               0.001520377               0.000000000               0.000000000               0.000000000               0.000000000               0.000178902               0.005686562              -0.000003890              -0.000643730               0.002110079               0.001466348               0.000000000               0.000000000               0.000000000               0.000000000               0.000144618               0.005538939               0.000022856              -0.000638134               0.002059006               0.001420872               0.000000000               0.000000000               0.000000000               0.000000000               0.000118670               0.005416165               0.000041758              -0.000632518               0.002016210               0.001383692               0.000000000               0.000000000               0.000000000               0.000000000               0.000096586               0.005313642               0.000055885              -0.000627984               0.001980524               0.001352540               0.000000000               0.000000000               0.000000000               0.000000000               0.000075079               0.005228131               0.000068016              -0.000625360               0.001951146               0.001325786               0.000000000               0.000000000               0.000000000               0.000000000               0.000059523               0.005153784               0.000077344              -0.000621900               0.001925211               0.001303311               0.000000000               0.000000000               0.000000000               0.000000000               0.000047456               0.005082618               0.000074247              -0.000617530               0.001900032               0.001282503               0.000000000               0.000000000               0.000000000               0.000000000               0.000033655               0.005014109               0.000062182              -0.000614142               0.001876067               0.001261925               0.000000000               0.000000000               0.000000000               0.000000000               0.000021418               0.004955849               0.000044633              -0.000611448               0.001855749               0.001244301               0.000000000               0.000000000               0.000000000               0.000000000               0.000010174               0.004910460               0.000021770              -0.000609991               0.001840134               0.001230143               0.000000000               0.000000000               0.000000000               0.000000000               0.000002044               0.004887018               0.000011678              -0.000610109               0.001832360               0.001222250               0.000000000               0.000000000               0.000000000               0.000000000               0.001763030               0.006611602              -0.002772536              -0.000165317               0.002258950               0.002093633               0.000000000               0.000000000               0.000000000               0.000000000               0.000909807               0.006251874              -0.001838001              -0.000440307               0.002230706               0.001790399               0.000000000               0.000000000               0.000000000               0.000000000               0.000319408               0.006244437              -0.000895169              -0.000660775               0.002301717               0.001640941               0.000000000               0.000000000               0.000000000               0.000000000               0.000112581               0.006056722              -0.000505570              -0.000714871               0.002257177               0.001542307               0.000000000               0.000000000               0.000000000               0.000000000               0.000045523               0.005855303              -0.000317112              -0.000714840               0.002190028               0.001475188               0.000000000               0.000000000               0.000000000               0.000000000               0.000021758               0.005677903              -0.000211255              -0.000701577               0.002126474               0.001424897               0.000000000               0.000000000               0.000000000               0.000000000               0.000013869               0.005527381              -0.000147818              -0.000685720               0.002071015               0.001385295               0.000000000               0.000000000               0.000000000               0.000000000               0.000013464               0.005393172              -0.000104976              -0.000669096               0.002020738               0.001351642               0.000000000               0.000000000               0.000000000               0.000000000               0.000014004               0.005274169              -0.000069719              -0.000654018               0.001976045               0.001322027               0.000000000               0.000000000               0.000000000               0.000000000               0.000013802               0.005170802              -0.000038721              -0.000641173               0.001937308               0.001296135               0.000000000               0.000000000               0.000000000               0.000000000               0.000013337               0.005080526              -0.000010389              -0.000630063               0.001903513               0.001273450               0.000000000               0.000000000               0.000000000               0.000000000               0.000013425               0.004993584               0.000009643              -0.000619162               0.001870899               0.001251737               0.000000000               0.000000000               0.000000000               0.000000000               0.000012830               0.004906978               0.000016391              -0.000608559               0.001838496               0.001229937               0.000000000               0.000000000               0.000000000               0.000000000               0.000008367               0.004826038               0.000016673              -0.000600116               0.001808702               0.001208586               0.000000000               0.000000000               0.000000000               0.000000000               0.000003090               0.004754483               0.000015067              -0.000593150               0.001782529               0.001189378               0.000000000               0.000000000               0.000000000               0.000000000               0.000001802               0.004694257               0.000008085              -0.000586105               0.001760105               0.001174000               0.000000000               0.000000000               0.000000000               0.000000000              -0.000005075               0.004654293               0.000007681              -0.000583688               0.001745978               0.001162290               0.000000000               0.000000000               0.000000000               0.000000000               0.001633425               0.005346875              -0.002550055              -0.000055828               0.001800882               0.001745054               0.000000000               0.000000000               0.000000000               0.000000000               0.000747992               0.005444680              -0.001818069              -0.000400089               0.001948237               0.001548149               0.000000000               0.000000000               0.000000000               0.000000000               0.000090794               0.005782197              -0.001042635              -0.000688726               0.002156955               0.001468229               0.000000000               0.000000000               0.000000000               0.000000000              -0.000079511               0.005729662              -0.000685517              -0.000746023               0.002158542               0.001412520               0.000000000               0.000000000               0.000000000               0.000000000              -0.000104101               0.005598246              -0.000488007              -0.000738817               0.002112336               0.001373519               0.000000000               0.000000000               0.000000000               0.000000000              -0.000093504               0.005463794              -0.000363432              -0.000718037               0.002060592               0.001342555               0.000000000               0.000000000               0.000000000               0.000000000              -0.000074408               0.005336071              -0.000281149              -0.000694910               0.002010309               0.001315399               0.000000000               0.000000000               0.000000000               0.000000000              -0.000052833               0.005215261              -0.000221428              -0.000671718               0.001962309               0.001290591               0.000000000               0.000000000               0.000000000               0.000000000              -0.000036708               0.005103143              -0.000166375              -0.000651657               0.001918249               0.001266593               0.000000000               0.000000000               0.000000000               0.000000000              -0.000025349               0.005001668              -0.000115843              -0.000634713               0.001878777               0.001244064               0.000000000               0.000000000               0.000000000               0.000000000              -0.000019080               0.004902144              -0.000072680              -0.000619922               0.001840672               0.001220751               0.000000000               0.000000000               0.000000000               0.000000000              -0.000016295               0.004799599              -0.000040192              -0.000606059               0.001801870               0.001195811               0.000000000               0.000000000               0.000000000               0.000000000              -0.000014936               0.004699101              -0.000018850              -0.000592987               0.001764014               0.001171026               0.000000000               0.000000000               0.000000000               0.000000000              -0.000017816               0.004607655              -0.000003955              -0.000582636               0.001730082               0.001147446               0.000000000               0.000000000               0.000000000               0.000000000              -0.000019463               0.004526211               0.000007359              -0.000573074               0.001699747               0.001126673               0.000000000               0.000000000               0.000000000               0.000000000              -0.000014260               0.004453978               0.000008818              -0.000562093               0.001672009               0.001109916               0.000000000               0.000000000               0.000000000               0.000000000              -0.000015031               0.004408380               0.000009830              -0.000556683               0.001655006               0.001098324               0.000000000               0.000000000               0.000000000               0.000000000               0.001450711               0.004249918              -0.002223523               0.000012774               0.001412366               0.001425140               0.000000000               0.000000000               0.000000000               0.000000000               0.000606481               0.004717890              -0.001761847              -0.000362307               0.001693383               0.001331076               0.000000000               0.000000000               0.000000000               0.000000000              -0.000056438               0.005348906              -0.001207337              -0.000689776               0.002012876               0.001323100               0.000000000               0.000000000               0.000000000               0.000000000              -0.000186916               0.005431381              -0.000875351              -0.000749015               0.002060114               0.001311099               0.000000000               0.000000000               0.000000000               0.000000000              -0.000176230               0.005375648              -0.000664442              -0.000738040               0.002037878               0.001299838               0.000000000               0.000000000               0.000000000               0.000000000              -0.000142388               0.005286649              -0.000519120              -0.000714225               0.002000274               0.001286049               0.000000000               0.000000000               0.000000000               0.000000000              -0.000104333               0.005183898              -0.000414225              -0.000687110               0.001956985               0.001269875               0.000000000               0.000000000               0.000000000               0.000000000              -0.000066469               0.005080665              -0.000331628              -0.000660008               0.001913541               0.001253533               0.000000000               0.000000000               0.000000000               0.000000000              -0.000045128               0.004979349              -0.000258403              -0.000639340               0.001872880               0.001233540               0.000000000               0.000000000               0.000000000               0.000000000              -0.000033025               0.004879324              -0.000193253              -0.000622298               0.001833858               0.001211559               0.000000000               0.000000000               0.000000000               0.000000000              -0.000026829               0.004773699              -0.000136754              -0.000606772               0.001793474               0.001186703               0.000000000               0.000000000               0.000000000               0.000000000              -0.000027167               0.004659242              -0.000091121              -0.000592591               0.001750596               0.001158004               0.000000000               0.000000000               0.000000000               0.000000000              -0.000030808               0.004547638              -0.000053713              -0.000580006               0.001709200               0.001129193               0.000000000               0.000000000               0.000000000               0.000000000              -0.000039399               0.004447390              -0.000023832              -0.000570697               0.001672681               0.001101984               0.000000000               0.000000000               0.000000000               0.000000000              -0.000051465               0.004353122              -0.000003342              -0.000563438               0.001638839               0.001075401               0.000000000               0.000000000               0.000000000               0.000000000              -0.000058446               0.004263666               0.000004831              -0.000554874               0.001606166               0.001051292               0.000000000               0.000000000               0.000000000               0.000000000              -0.000058685               0.004214880               0.000006569              -0.000548866               0.001587901               0.001039036               0.000000000               0.000000000               0.000000000               0.000000000               0.001190455               0.003214896              -0.001851335               0.000044556               0.001056768               0.001101324               0.000000000               0.000000000               0.000000000               0.000000000               0.000513662               0.003888789              -0.001684162              -0.000293476               0.001394075               0.001100598               0.000000000               0.000000000               0.000000000               0.000000000              -0.000091194               0.004728588              -0.001389622              -0.000625271               0.001784603               0.001159333               0.000000000               0.000000000               0.000000000               0.000000000              -0.000211955               0.004983067              -0.001099837              -0.000702365               0.001895127               0.001192762               0.000000000               0.000000000               0.000000000               0.000000000              -0.000192733               0.005043348              -0.000876933              -0.000702692               0.001915330               0.001212638               0.000000000               0.000000000               0.000000000               0.000000000              -0.000149216               0.005032913              -0.000707381              -0.000685069               0.001905977               0.001220908               0.000000000               0.000000000               0.000000000               0.000000000              -0.000110290               0.004987183              -0.000578565              -0.000664755               0.001883963               0.001219207               0.000000000               0.000000000               0.000000000               0.000000000              -0.000072226               0.004920236              -0.000470591              -0.000642113               0.001854100               0.001211987               0.000000000               0.000000000               0.000000000               0.000000000              -0.000048245               0.004841084              -0.000377729              -0.000623226               0.001821421               0.001198195               0.000000000               0.000000000               0.000000000               0.000000000              -0.000039630               0.004759900              -0.000298642              -0.000609847               0.001789900               0.001180053               0.000000000               0.000000000               0.000000000               0.000000000              -0.000037277               0.004670346              -0.000229570              -0.000597771               0.001756023               0.001158253               0.000000000               0.000000000               0.000000000               0.000000000              -0.000040263               0.004568281              -0.000168967              -0.000586132               0.001718123               0.001131990               0.000000000               0.000000000               0.000000000               0.000000000              -0.000049881               0.004464940              -0.000113362              -0.000576821               0.001680572               0.001103751               0.000000000               0.000000000               0.000000000               0.000000000              -0.000066431               0.004365592              -0.000064968              -0.000570609               0.001645386               0.001074777               0.000000000               0.000000000               0.000000000               0.000000000              -0.000090804               0.004271605              -0.000027845              -0.000568001               0.001613188               0.001045187               0.000000000               0.000000000               0.000000000               0.000000000              -0.000118498               0.004178205              -0.000006777              -0.000566711               0.001581625               0.001014914               0.000000000               0.000000000               0.000000000               0.000000000              -0.000132993               0.004126095               0.000000522              -0.000565633               0.001563895               0.000998263               0.000000000               0.000000000               0.000000000               0.000000000               0.000788863               0.002266843              -0.001450020               0.000012466               0.000751451               0.000763917               0.000000000               0.000000000               0.000000000               0.000000000               0.000400740               0.003069057              -0.001558185              -0.000233356               0.001100793               0.000867438               0.000000000               0.000000000               0.000000000               0.000000000              -0.000057827               0.004033893              -0.001525887              -0.000525922               0.001519924               0.000994003               0.000000000               0.000000000               0.000000000               0.000000000              -0.000166821               0.004452513              -0.001312775              -0.000619121               0.001690530               0.001071408               0.000000000               0.000000000               0.000000000               0.000000000              -0.000158947               0.004639764              -0.001097094              -0.000639575               0.001759764               0.001120189               0.000000000               0.000000000               0.000000000               0.000000000              -0.000119384               0.004723829              -0.000913663              -0.000635247               0.001786343               0.001151096               0.000000000               0.000000000               0.000000000               0.000000000              -0.000085785               0.004752880              -0.000764677              -0.000626278               0.001793037               0.001166759               0.000000000               0.000000000               0.000000000               0.000000000              -0.000056790               0.004740273              -0.000637790              -0.000613829               0.001784685               0.001170856               0.000000000               0.000000000               0.000000000               0.000000000              -0.000031298               0.004702601              -0.000527817              -0.000599561               0.001767371               0.001167811               0.000000000               0.000000000               0.000000000               0.000000000              -0.000019689               0.004649648              -0.000436009              -0.000588588               0.001746063               0.001157475               0.000000000               0.000000000               0.000000000               0.000000000              -0.000016661               0.004582619              -0.000359124              -0.000579074               0.001720549               0.001141475               0.000000000               0.000000000               0.000000000               0.000000000              -0.000019521               0.004505231              -0.000286469              -0.000570473               0.001691886               0.001121414               0.000000000               0.000000000               0.000000000               0.000000000              -0.000032112               0.004420577              -0.000214554              -0.000564613               0.001661715               0.001097102               0.000000000               0.000000000               0.000000000               0.000000000              -0.000059016               0.004330687              -0.000145843              -0.000563466               0.001631370               0.001067904               0.000000000               0.000000000               0.000000000               0.000000000              -0.000100240               0.004244457              -0.000084527              -0.000568146               0.001604187               0.001036041               0.000000000               0.000000000               0.000000000               0.000000000              -0.000158445               0.004161328              -0.000035790              -0.000579582               0.001580289               0.001000708               0.000000000               0.000000000               0.000000000               0.000000000              -0.000202559               0.004110925              -0.000010627              -0.000589824               0.001566902               0.000977079               0.000000000               0.000000000               0.000000000               0.000000000               0.000273569               0.001454113              -0.001039432              -0.000079177               0.000511091               0.000431914               0.000000000               0.000000000               0.000000000               0.000000000               0.000230621               0.002290566              -0.001364240              -0.000199839               0.000830126               0.000630288               0.000000000               0.000000000               0.000000000               0.000000000               0.000001884               0.003268556              -0.001550814              -0.000407864               0.001225462               0.000817598               0.000000000               0.000000000               0.000000000               0.000000000              -0.000058338               0.003802478              -0.001432802              -0.000497186               0.001433208               0.000936022               0.000000000               0.000000000               0.000000000               0.000000000              -0.000053685               0.004108126              -0.001249868              -0.000533647               0.001547244               0.001013597               0.000000000               0.000000000               0.000000000               0.000000000              -0.000026231               0.004295240              -0.001070463              -0.000546741               0.001613979               0.001067238               0.000000000               0.000000000               0.000000000               0.000000000              -0.000004914               0.004408642              -0.000915586              -0.000552922               0.001653840               0.001100918               0.000000000               0.000000000               0.000000000               0.000000000               0.000010780               0.004467382              -0.000781373              -0.000554379               0.001673906               0.001119526               0.000000000               0.000000000               0.000000000               0.000000000               0.000028046               0.004483614              -0.000664822              -0.000549934               0.001677834               0.001127901               0.000000000               0.000000000               0.000000000               0.000000000               0.000040664               0.004469808              -0.000567831              -0.000543476               0.001671080               0.001127604               0.000000000               0.000000000               0.000000000               0.000000000               0.000044779               0.004439989              -0.000485971              -0.000538205               0.001659383               0.001121178               0.000000000               0.000000000               0.000000000               0.000000000               0.000041315               0.004401190              -0.000406092              -0.000534654               0.001645267               0.001110612               0.000000000               0.000000000               0.000000000               0.000000000               0.000028907               0.004353546              -0.000322701              -0.000533352               0.001628951               0.001095600               0.000000000               0.000000000               0.000000000               0.000000000              -0.000000011               0.004291794              -0.000238993              -0.000536477               0.001609410               0.001072932               0.000000000               0.000000000               0.000000000               0.000000000              -0.000049626               0.004221059              -0.000154926              -0.000546241               0.001589086               0.001042845               0.000000000               0.000000000               0.000000000               0.000000000              -0.000126478               0.004150731              -0.000074136              -0.000566269               0.001572320               0.001006050               0.000000000               0.000000000               0.000000000               0.000000000              -0.000192978               0.004102668              -0.000028572              -0.000585199               0.001562608               0.000977410               0.000000000               0.000000000               0.000000000               0.000000000              -0.000315824               0.000812990              -0.000663182              -0.000220058               0.000344346               0.000124288               0.000000000               0.000000000               0.000000000               0.000000000               0.000015802               0.001586399              -0.001117760              -0.000192375               0.000592919               0.000400544               0.000000000               0.000000000               0.000000000               0.000000000               0.000071435               0.002483617              -0.001452387              -0.000283665               0.000922418               0.000638754               0.000000000               0.000000000               0.000000000               0.000000000               0.000096610               0.003081698              -0.001423087              -0.000348984               0.001143550               0.000794566               0.000000000               0.000000000               0.000000000               0.000000000               0.000113952               0.003484038              -0.001288089              -0.000392773               0.001292258               0.000899485               0.000000000               0.000000000               0.000000000               0.000000000               0.000130419               0.003767364              -0.001129644              -0.000422013               0.001396446               0.000974433               0.000000000               0.000000000               0.000000000               0.000000000               0.000138933               0.003968394              -0.000984105              -0.000443949               0.001470768               0.001026819               0.000000000               0.000000000               0.000000000               0.000000000               0.000142313               0.004102694              -0.000859261              -0.000459469               0.001520707               0.001061238               0.000000000               0.000000000               0.000000000               0.000000000               0.000146980               0.004183376              -0.000749747              -0.000467804               0.001550379               0.001082575               0.000000000               0.000000000               0.000000000               0.000000000               0.000150950               0.004225926              -0.000655932              -0.000471634               0.001565839               0.001094205               0.000000000               0.000000000               0.000000000               0.000000000               0.000150308               0.004246066              -0.000574567              -0.000474392               0.001573472               0.001099080               0.000000000               0.000000000               0.000000000               0.000000000               0.000144260               0.004251955              -0.000494154              -0.000477396               0.001576436               0.001099040               0.000000000               0.000000000               0.000000000               0.000000000               0.000135967               0.004249870              -0.000408851              -0.000480245               0.001576691               0.001096446               0.000000000               0.000000000               0.000000000               0.000000000               0.000117209               0.004227941              -0.000318866              -0.000484538               0.001570812               0.001086274               0.000000000               0.000000000               0.000000000               0.000000000               0.000078393               0.004184565              -0.000220043              -0.000493672               0.001559398               0.001065726               0.000000000               0.000000000               0.000000000               0.000000000               0.000014388               0.004135215              -0.000112342              -0.000511505               0.001548893               0.001037388               0.000000000               0.000000000               0.000000000               0.000000000              -0.000047865               0.004097018              -0.000050442              -0.000530075               0.001542351               0.001012275               0.000000000               0.000000000               0.000000000               0.000000000              -0.000908516               0.000349332              -0.000360117              -0.000384360               0.000244562              -0.000139798               0.000000000               0.000000000               0.000000000               0.000000000              -0.000219773               0.000996355              -0.000838389              -0.000206960               0.000401101               0.000194141               0.000000000               0.000000000               0.000000000               0.000000000               0.000136405               0.001754746              -0.001228237              -0.000168192               0.000640973               0.000472781               0.000000000               0.000000000               0.000000000               0.000000000               0.000266417               0.002370925              -0.001263688              -0.000196460               0.000855786               0.000659326               0.000000000               0.000000000               0.000000000               0.000000000               0.000312833               0.002839505              -0.001176961              -0.000237626               0.001025700               0.000788074               0.000000000               0.000000000               0.000000000               0.000000000               0.000327521               0.003199911              -0.001053025              -0.000277169               0.001159015               0.000881847               0.000000000               0.000000000               0.000000000               0.000000000               0.000330185               0.003478987              -0.000932037              -0.000311054               0.001263335               0.000952281               0.000000000               0.000000000               0.000000000               0.000000000               0.000322113               0.003686182              -0.000826821              -0.000339980               0.001342042               0.001002062               0.000000000               0.000000000               0.000000000               0.000000000               0.000312166               0.003834418              -0.000734188              -0.000362239               0.001398873               0.001036634               0.000000000               0.000000000               0.000000000               0.000000000               0.000304534               0.003938096              -0.000653146              -0.000378061               0.001438706               0.001060645               0.000000000               0.000000000               0.000000000               0.000000000               0.000298018               0.004010539              -0.000580775              -0.000389560               0.001466686               0.001077126               0.000000000               0.000000000               0.000000000               0.000000000               0.000291599               0.004062254              -0.000509850              -0.000398431               0.001486882               0.001088450               0.000000000               0.000000000               0.000000000               0.000000000               0.000288787               0.004105616              -0.000434194              -0.000404906               0.001503494               0.001098588               0.000000000               0.000000000               0.000000000               0.000000000               0.000283686               0.004127366              -0.000349294              -0.000409538               0.001512287               0.001102750               0.000000000               0.000000000               0.000000000               0.000000000               0.000269940               0.004122384              -0.000251755              -0.000414070               0.001512137               0.001098068               0.000000000               0.000000000               0.000000000               0.000000000               0.000245733               0.004106925              -0.000134290              -0.000421215               0.001509366               0.001088152               0.000000000               0.000000000               0.000000000               0.000000000               0.000219350               0.004091589              -0.000066355              -0.000429191               0.001506913               0.001077722               0.000000000               0.000000000               0.000000000               0.000000000              -0.001413889               0.000059033              -0.000154430              -0.000537587               0.000198872              -0.000338715               0.000000000               0.000000000               0.000000000               0.000000000              -0.000438041               0.000562728              -0.000547547              -0.000234606               0.000265776               0.000031169               0.000000000               0.000000000               0.000000000               0.000000000               0.000184724               0.001166659              -0.000888445              -0.000076562               0.000414402               0.000337841               0.000000000               0.000000000               0.000000000               0.000000000               0.000419379               0.001761773              -0.000951660              -0.000062956               0.000608236               0.000545281               0.000000000               0.000000000               0.000000000               0.000000000               0.000503506               0.002266404              -0.000906403              -0.000094486               0.000786956               0.000692469               0.000000000               0.000000000               0.000000000               0.000000000               0.000526139               0.002679249              -0.000824428              -0.000137605               0.000938942               0.000801337               0.000000000               0.000000000               0.000000000               0.000000000               0.000525050               0.003014509              -0.000737254              -0.000179920               0.001064800               0.000884880               0.000000000               0.000000000               0.000000000               0.000000000               0.000510059               0.003282863              -0.000658813              -0.000219086               0.001167305               0.000948220               0.000000000               0.000000000               0.000000000               0.000000000               0.000490403               0.003488942              -0.000590478              -0.000252216               0.001247041               0.000994825               0.000000000               0.000000000               0.000000000               0.000000000               0.000470509               0.003645082              -0.000530267              -0.000279194               0.001308080               0.001028886               0.000000000               0.000000000               0.000000000               0.000000000               0.000456089               0.003768190              -0.000476357              -0.000299990               0.001356047               0.001056057               0.000000000               0.000000000               0.000000000               0.000000000               0.000448816               0.003866954              -0.000422680              -0.000315062               0.001393993               0.001078930               0.000000000               0.000000000               0.000000000               0.000000000               0.000450210               0.003953287              -0.000365385              -0.000325331               0.001426193               0.001100862               0.000000000               0.000000000               0.000000000               0.000000000               0.000460284               0.004021628              -0.000300357              -0.000330096               0.001450561               0.001120465               0.000000000               0.000000000               0.000000000               0.000000000               0.000478526               0.004062138              -0.000222501              -0.000328319               0.001463472               0.001135153               0.000000000               0.000000000               0.000000000               0.000000000               0.000507097               0.004079682              -0.000122889              -0.000319798               0.001466480               0.001146682               0.000000000               0.000000000               0.000000000               0.000000000               0.000533505               0.004086217              -0.000066630              -0.000310712               0.001465629               0.001154917               0.000000000               0.000000000               0.000000000               0.000000000              -0.001753304              -0.000087283              -0.000046968              -0.000646578               0.000186430              -0.000460148               0.000000000               0.000000000               0.000000000               0.000000000              -0.000595824               0.000305183              -0.000267028              -0.000261582               0.000188920              -0.000072662               0.000000000               0.000000000               0.000000000               0.000000000               0.000211461               0.000788252              -0.000464727              -0.000019234               0.000269159               0.000249925               0.000000000               0.000000000               0.000000000               0.000000000               0.000529606               0.001351144              -0.000511756               0.000029708               0.000440474               0.000470182               0.000000000               0.000000000               0.000000000               0.000000000               0.000644724               0.001867771              -0.000494781               0.000008299               0.000619818               0.000628117               0.000000000               0.000000000               0.000000000               0.000000000               0.000676809               0.002308136              -0.000454221              -0.000034714               0.000780942               0.000746229               0.000000000               0.000000000               0.000000000               0.000000000               0.000673597               0.002674328              -0.000408936              -0.000081692               0.000918664               0.000836972               0.000000000               0.000000000               0.000000000               0.000000000               0.000655291               0.002977048              -0.000367562              -0.000126397               0.001034471               0.000908075               0.000000000               0.000000000               0.000000000               0.000000000               0.000627063               0.003222520              -0.000329852              -0.000167666               0.001130051               0.000962385               0.000000000               0.000000000               0.000000000               0.000000000               0.000597694               0.003423422              -0.000296551              -0.000203792               0.001209060               0.001005268               0.000000000               0.000000000               0.000000000               0.000000000               0.000572222               0.003587376              -0.000268234              -0.000233838               0.001273726               0.001039888               0.000000000               0.000000000               0.000000000               0.000000000               0.000558904               0.003726565              -0.000239346              -0.000256231               0.001327586               0.001071355               0.000000000               0.000000000               0.000000000               0.000000000               0.000564609               0.003849826              -0.000207700              -0.000269499               0.001373096               0.001103596               0.000000000               0.000000000               0.000000000               0.000000000               0.000590403               0.003948638              -0.000172286              -0.000272178               0.001406926               0.001134748               0.000000000               0.000000000               0.000000000               0.000000000               0.000640477               0.004020163              -0.000129250              -0.000262341               0.001427488               0.001165147               0.000000000               0.000000000               0.000000000               0.000000000               0.000722429               0.004063882              -0.000072944              -0.000237074               0.001433638               0.001196565               0.000000000               0.000000000               0.000000000               0.000000000               0.000798475               0.004087020              -0.000042053              -0.000211449               0.001432809               0.001221360               0.000000000               0.000000000               0.000000000               0.000000000              -0.001872610              -0.000130017              -0.000000000              -0.000685976               0.000185318              -0.000500658               0.000000000               0.000000000               0.000000000               0.000000000              -0.000653602               0.000221320              -0.000000000              -0.000272765               0.000164694              -0.000108072               0.000000000               0.000000000               0.000000000               0.000000000               0.000218984               0.000657554               0.000000000              -0.000000076               0.000219208               0.000219132               0.000000000               0.000000000               0.000000000               0.000000000               0.000569749               0.001204399              -0.000000000               0.000063105               0.000380427               0.000443532               0.000000000               0.000000000               0.000000000               0.000000000               0.000696127               0.001723281              -0.000000000               0.000045637               0.000559209               0.000604846               0.000000000               0.000000000               0.000000000               0.000000000               0.000733697               0.002172962               0.000000000               0.000003516               0.000723141               0.000726657               0.000000000               0.000000000               0.000000000               0.000000000               0.000731814               0.002548825               0.000000000              -0.000044173               0.000864324               0.000820151               0.000000000               0.000000000               0.000000000               0.000000000               0.000711242               0.002862562              -0.000000000              -0.000091104               0.000984546               0.000893442               0.000000000               0.000000000               0.000000000               0.000000000               0.000677626               0.003122857              -0.000000000              -0.000136247               0.001086358               0.000950111               0.000000000               0.000000000               0.000000000               0.000000000               0.000644392               0.003340456              -0.000000000              -0.000175910               0.001172111               0.000996201               0.000000000               0.000000000               0.000000000               0.000000000               0.000614323               0.003521027               0.000000000              -0.000209757               0.001243583               0.001033826               0.000000000               0.000000000               0.000000000               0.000000000               0.000596595               0.003676042               0.000000000              -0.000235782               0.001303929               0.001068147               0.000000000               0.000000000               0.000000000               0.000000000               0.000603200               0.003812696              -0.000000000              -0.000250386               0.001354348               0.001103962               0.000000000               0.000000000               0.000000000               0.000000000               0.000637723               0.003923957              -0.000000000              -0.000251348               0.001391755               0.001140407               0.000000000               0.000000000               0.000000000               0.000000000               0.000703313               0.004004869              -0.000000000              -0.000236866               0.001413898               0.001177032               0.000000000               0.000000000               0.000000000               0.000000000               0.000808684               0.004056703              -0.000000000              -0.000203831               0.001420164               0.001216333               0.000000000               0.000000000               0.000000000               0.000000000               0.000905725               0.004086850               0.000000000              -0.000171209               0.001419339               0.001248130               0.000000000               0.000000000               0.000000000               0.000000000               0.000000000               0.000000000               0.000000000               0.000000000               0.000000000               0.000000000               0.000000000               0.000000000               0.000000000               0.000000000               0.000000000               0.000000000               0.000000000               0.000000000               0.000000000               0.000000000               0.000000000               0.000000000               0.000000000               0.000000000               0.000000000               0.000000000               0.000000000               0.000000000               0.000000000               0.000000000               0.000000000               0.000000000               0.000000000               0.000000000               0.000000000               0.000000000               0.000000000               0.000000000               0.000000000               0.000000000               0.000000000               0.000000000               0.000000000               0.000000000               0.000000000               0.000000000               0.000000000               0.000000000               0.000000000               0.000000000               0.000000000               0.000000000               0.000000000               0.000000000               0.000000000               0.000000000               0.000000000               0.000000000               0.000000000               0.000000000               0.000000000               0.000000000               0.000000000               0.000000000               0.000000000               0.000000000               0.000000000               0.000000000               0.000000000               0.000000000               0.000000000               0.000000000               0.000000000               0.000000000               0.000000000               0.000000000               0.000000000               0.000000000               0.000000000               0.000000000               0.000000000               0.000000000               0.000000000               0.000000000               0.000000000               0.000000000               0.000000000               0.000000000               0.000000000               0.000000000               0.000000000               0.000000000               0.000000000               0.000000000               0.000000000               0.000000000               0.000000000               0.000000000               0.000000000               0.000000000               0.000000000               0.000000000               0.000000000               0.000000000               0.000000000               0.000000000               0.000000000               0.000000000               0.000000000               0.000000000               0.000000000               0.000000000               0.000000000               0.000000000               0.000000000               0.000000000               0.000000000               0.000000000               0.000000000               0.000000000               0.000000000               0.000000000               0.000000000               0.000000000               0.000000000               0.000000000               0.000000000               0.000000000               0.000000000               0.000000000               0.000000000               0.000000000               0.000000000               0.000000000               0.000000000               0.000000000               0.000000000               0.000000000               0.000000000               0.000000000               0.000000000               0.000000000               0.000000000               0.000000000               0.000000000               0.000000000               0.000000000               0.000000000               0.000000000               0.000000000               0.000000000               0.000000000               0.000000000               0.000000000               0.000000000               0.000000000               0.000000000               0.000000000               0.000000000               0.000000000               0.000000000               0.000000000               0.000000000               0.000000000               0.000000000               0.000000000               0.000000000               0.000000000               0.000000000               0.000000000               0.000000000               0.000000000               0.000000000               0.000000000               0.001158701               0.012151946               0.000896368              -0.001084478               0.004412101               0.003327623               0.000000000               0.000000000               0.000000000               0.000000000               0.001188980               0.009906099               0.000530312              -0.000792393               0.003566131               0.002773738               0.000000000               0.000000000               0.000000000               0.000000000               0.001582174               0.008126830               0.000157429              -0.000422537               0.002849762               0.002427225               0.000000000               0.000000000               0.000000000               0.000000000               0.001597096               0.007154852              -0.000009347              -0.000295445               0.002483409               0.002187964               0.000000000               0.000000000               0.000000000               0.000000000               0.001486867               0.006577593              -0.000083465              -0.000264623               0.002280717               0.002016093               0.000000000               0.000000000               0.000000000               0.000000000               0.001347366               0.006208794              -0.000114120              -0.000270836               0.002159856               0.001889020               0.000000000               0.000000000               0.000000000               0.000000000               0.001200396               0.005957229              -0.000126757              -0.000294505               0.002083891               0.001789387               0.000000000               0.000000000               0.000000000               0.000000000               0.001053466               0.005781100              -0.000131700              -0.000327587               0.002036210               0.001708623               0.000000000               0.000000000               0.000000000               0.000000000               0.000912074               0.005654511              -0.000129781              -0.000364785               0.002006413               0.001641628               0.000000000               0.000000000               0.000000000               0.000000000               0.000776437               0.005557736              -0.000124264              -0.000403552               0.001987078               0.001583525               0.000000000               0.000000000               0.000000000               0.000000000               0.000648418               0.005477868              -0.000117889              -0.000441576               0.001973130               0.001531554               0.000000000               0.000000000               0.000000000               0.000000000               0.000527612               0.005410252              -0.000111793              -0.000478426               0.001962874               0.001484449               0.000000000               0.000000000               0.000000000               0.000000000               0.000408907               0.005349630              -0.000104659              -0.000515362               0.001954980               0.001439617               0.000000000               0.000000000               0.000000000               0.000000000               0.000292234               0.005288556              -0.000093836              -0.000551480               0.001946661               0.001395181               0.000000000               0.000000000               0.000000000               0.000000000               0.000182332               0.005220674              -0.000076951              -0.000584208               0.001934943               0.001350735               0.000000000               0.000000000               0.000000000               0.000000000               0.000083699               0.005139737              -0.000046066              -0.000611079               0.001916922               0.001305843               0.000000000               0.000000000               0.000000000               0.000000000               0.000032865               0.005079199              -0.000027063              -0.000622574               0.001900574               0.001278000               0.000000000               0.000000000               0.000000000               0.000000000               0.001304386               0.011493416               0.001689526              -0.000947531               0.004146944               0.003199413               0.000000000               0.000000000               0.000000000               0.000000000               0.001189483               0.009464626               0.001006558              -0.000737021               0.003400517               0.002663497               0.000000000               0.000000000               0.000000000               0.000000000               0.001423911               0.007905062               0.000313709              -0.000454165               0.002786383               0.002332218               0.000000000               0.000000000               0.000000000               0.000000000               0.001378400               0.007038691               0.000009381              -0.000362935               0.002467185               0.002104250               0.000000000               0.000000000               0.000000000               0.000000000               0.001254795               0.006509863              -0.000123659              -0.000343184               0.002284327               0.001941144               0.000000000               0.000000000               0.000000000               0.000000000               0.001120691               0.006161192              -0.000177666              -0.000349889               0.002170340               0.001820451               0.000000000               0.000000000               0.000000000               0.000000000               0.000986202               0.005920722              -0.000199501              -0.000370264               0.002096975               0.001726712               0.000000000               0.000000000               0.000000000               0.000000000               0.000855893               0.005749566              -0.000207984              -0.000397735               0.002049081               0.001651346               0.000000000               0.000000000               0.000000000               0.000000000               0.000734260               0.005624174              -0.000205462              -0.000427673               0.002017264               0.001589590               0.000000000               0.000000000               0.000000000               0.000000000               0.000616085               0.005524785              -0.000194581              -0.000459565               0.001994765               0.001535200               0.000000000               0.000000000               0.000000000               0.000000000               0.000502714               0.005442230              -0.000182096              -0.000491760               0.001977978               0.001486219               0.000000000               0.000000000               0.000000000               0.000000000               0.000398511               0.005374453              -0.000171940              -0.000522364               0.001965587               0.001443224               0.000000000               0.000000000               0.000000000               0.000000000               0.000300012               0.005313906              -0.000159286              -0.000551732               0.001955195               0.001403463               0.000000000               0.000000000               0.000000000               0.000000000               0.000209202               0.005254716              -0.000139098              -0.000578387               0.001944350               0.001365963               0.000000000               0.000000000               0.000000000               0.000000000               0.000129916               0.005195486              -0.000108971              -0.000600716               0.001932050               0.001331334               0.000000000               0.000000000               0.000000000               0.000000000               0.000059840               0.005134232              -0.000062842              -0.000619338               0.001917839               0.001298502               0.000000000               0.000000000               0.000000000               0.000000000               0.000024538               0.005095932              -0.000036324              -0.000627788               0.001907890               0.001280102               0.000000000               0.000000000               0.000000000               0.000000000               0.001501351               0.010497143               0.002303784              -0.000749136               0.003748724               0.002999588               0.000000000               0.000000000               0.000000000               0.000000000               0.001179650               0.008793462               0.001389259              -0.000656813               0.003150062               0.002493249               0.000000000               0.000000000               0.000000000               0.000000000               0.001189128               0.007562653               0.000469077              -0.000499408               0.002687328               0.002187921               0.000000000               0.000000000               0.000000000               0.000000000               0.001068309               0.006850959               0.000075796              -0.000455753               0.002435548               0.001979795               0.000000000               0.000000000               0.000000000               0.000000000               0.000933646               0.006394870              -0.000094780              -0.000449240               0.002281349               0.001832109               0.000000000               0.000000000               0.000000000               0.000000000               0.000813579               0.006086418              -0.000165421              -0.000455709               0.002180689               0.001724980               0.000000000               0.000000000               0.000000000               0.000000000               0.000704196               0.005871585              -0.000195722              -0.000469873               0.002113800               0.001643926               0.000000000               0.000000000               0.000000000               0.000000000               0.000600387               0.005711995              -0.000207764              -0.000488853               0.002066930               0.001578077               0.000000000               0.000000000               0.000000000               0.000000000               0.000504489               0.005585162              -0.000205789              -0.000508961               0.002031356               0.001522395               0.000000000               0.000000000               0.000000000               0.000000000               0.000414250               0.005480072              -0.000195910              -0.000529664               0.002003227               0.001473563               0.000000000               0.000000000               0.000000000               0.000000000               0.000329279               0.005395752              -0.000187154              -0.000550988               0.001982229               0.001431241               0.000000000               0.000000000               0.000000000               0.000000000               0.000252619               0.005328440              -0.000179670              -0.000571322               0.001966570               0.001395248               0.000000000               0.000000000               0.000000000               0.000000000               0.000182721               0.005269139              -0.000166516              -0.000590120               0.001953069               0.001362949               0.000000000               0.000000000               0.000000000               0.000000000               0.000120223               0.005213732              -0.000144840              -0.000606631               0.001940104               0.001333472               0.000000000               0.000000000               0.000000000               0.000000000               0.000071696               0.005164818              -0.000112245              -0.000618715               0.001927827               0.001309112               0.000000000               0.000000000               0.000000000               0.000000000               0.000033441               0.005123920              -0.000063217              -0.000627948               0.001917272               0.001289324               0.000000000               0.000000000               0.000000000               0.000000000               0.000014895               0.005103527              -0.000034840              -0.000632354               0.001911943               0.001279590               0.000000000               0.000000000               0.000000000               0.000000000               0.001681236               0.009277445               0.002688655              -0.000529218               0.003268856               0.002739638               0.000000000               0.000000000               0.000000000               0.000000000               0.001134476               0.007980882               0.001649499              -0.000572182               0.002850994               0.002278813               0.000000000               0.000000000               0.000000000               0.000000000               0.000903867               0.007149870               0.000613958              -0.000554783               0.002568194               0.002013411               0.000000000               0.000000000               0.000000000               0.000000000               0.000720975               0.006621806               0.000185365              -0.000557359               0.002393033               0.001835674               0.000000000               0.000000000               0.000000000               0.000000000               0.000589825               0.006253751              -0.000001809              -0.000560533               0.002271407               0.001710874               0.000000000               0.000000000               0.000000000               0.000000000               0.000495883               0.005993009              -0.000084657              -0.000563169               0.002185372               0.001622204               0.000000000               0.000000000               0.000000000               0.000000000               0.000420149               0.005802426              -0.000121921              -0.000567746               0.002123371               0.001555625               0.000000000               0.000000000               0.000000000               0.000000000               0.000348013               0.005647298              -0.000138375              -0.000575406               0.002074216               0.001498810               0.000000000               0.000000000               0.000000000               0.000000000               0.000285397               0.005518416              -0.000143155              -0.000582777               0.002033712               0.001450936               0.000000000               0.000000000               0.000000000               0.000000000               0.000230926               0.005415756              -0.000142331              -0.000590371               0.002002024               0.001411653               0.000000000               0.000000000               0.000000000               0.000000000               0.000179369               0.005332238              -0.000142778              -0.000599265               0.001977150               0.001377885               0.000000000               0.000000000               0.000000000               0.000000000               0.000135176               0.005263196              -0.000142709              -0.000607207               0.001956783               0.001349576               0.000000000               0.000000000               0.000000000               0.000000000               0.000097723               0.005202695              -0.000133599              -0.000613689               0.001938778               0.001325088               0.000000000               0.000000000               0.000000000               0.000000000               0.000064074               0.005145557              -0.000114919              -0.000619165               0.001921557               0.001302391               0.000000000               0.000000000               0.000000000               0.000000000               0.000038922               0.005097443              -0.000086974              -0.000622583               0.001906658               0.001284075               0.000000000               0.000000000               0.000000000               0.000000000               0.000018020               0.005062756              -0.000046829              -0.000626085               0.001896264               0.001270178               0.000000000               0.000000000               0.000000000               0.000000000               0.000008105               0.005050768              -0.000023576              -0.000628305               0.001893007               0.001264703               0.000000000               0.000000000               0.000000000               0.000000000               0.001781724               0.007948158               0.002833985              -0.000325376               0.002757817               0.002432442               0.000000000               0.000000000               0.000000000               0.000000000               0.001041994               0.007112936               0.001789774              -0.000498370               0.002537078               0.002038708               0.000000000               0.000000000               0.000000000               0.000000000               0.000600307               0.006705504               0.000752077              -0.000613072               0.002439503               0.001826431               0.000000000               0.000000000               0.000000000               0.000000000               0.000388187               0.006358797               0.000331434              -0.000649278               0.002336004               0.001686726               0.000000000               0.000000000               0.000000000               0.000000000               0.000283117               0.006079800               0.000143407              -0.000653804               0.002244515               0.001590710               0.000000000               0.000000000               0.000000000               0.000000000               0.000220951               0.005860630               0.000051102              -0.000649720               0.002170097               0.001520377               0.000000000               0.000000000               0.000000000               0.000000000               0.000178902               0.005686562               0.000003890              -0.000643730               0.002110079               0.001466348               0.000000000               0.000000000               0.000000000               0.000000000               0.000144618               0.005538939              -0.000022856              -0.000638134               0.002059006               0.001420872               0.000000000               0.000000000               0.000000000               0.000000000               0.000118670               0.005416165              -0.000041758              -0.000632518               0.002016210               0.001383692               0.000000000               0.000000000               0.000000000               0.000000000               0.000096586               0.005313642              -0.000055885              -0.000627984               0.001980524               0.001352540               0.000000000               0.000000000               0.000000000               0.000000000               0.000075079               0.005228131              -0.000068016              -0.000625360               0.001951146               0.001325786               0.000000000               0.000000000               0.000000000               0.000000000               0.000059523               0.005153784              -0.000077344              -0.000621900               0.001925211               0.001303311               0.000000000               0.000000000               0.000000000               0.000000000               0.000047456               0.005082618              -0.000074247              -0.000617530               0.001900032               0.001282503               0.000000000               0.000000000               0.000000000               0.000000000               0.000033655               0.005014109              -0.000062182              -0.000614142               0.001876067               0.001261925               0.000000000               0.000000000               0.000000000               0.000000000               0.000021418               0.004955849              -0.000044633              -0.000611448               0.001855749               0.001244301               0.000000000               0.000000000               0.000000000               0.000000000               0.000010174               0.004910460              -0.000021770              -0.000609991               0.001840134               0.001230143               0.000000000               0.000000000               0.000000000               0.000000000               0.000002044               0.004887018              -0.000011678              -0.000610109               0.001832360               0.001222250               0.000000000               0.000000000               0.000000000               0.000000000               0.001763030               0.006611602               0.002772536              -0.000165317               0.002258950               0.002093633               0.000000000               0.000000000               0.000000000               0.000000000               0.000909807               0.006251874               0.001838001              -0.000440307               0.002230706               0.001790399               0.000000000               0.000000000               0.000000000               0.000000000               0.000319408               0.006244437               0.000895169              -0.000660775               0.002301717               0.001640941               0.000000000               0.000000000               0.000000000               0.000000000               0.000112581               0.006056722               0.000505570              -0.000714871               0.002257177               0.001542307               0.000000000               0.000000000               0.000000000               0.000000000               0.000045523               0.005855303               0.000317112              -0.000714840               0.002190028               0.001475188               0.000000000               0.000000000               0.000000000               0.000000000               0.000021758               0.005677903               0.000211255              -0.000701577               0.002126474               0.001424897               0.000000000               0.000000000               0.000000000               0.000000000               0.000013869               0.005527381               0.000147818              -0.000685720               0.002071015               0.001385295               0.000000000               0.000000000               0.000000000               0.000000000               0.000013464               0.005393172               0.000104976              -0.000669096               0.002020738               0.001351642               0.000000000               0.000000000               0.000000000               0.000000000               0.000014004               0.005274169               0.000069719              -0.000654018               0.001976045               0.001322027               0.000000000               0.000000000               0.000000000               0.000000000               0.000013802               0.005170802               0.000038721              -0.000641173               0.001937308               0.001296135               0.000000000               0.000000000               0.000000000               0.000000000               0.000013337               0.005080526               0.000010389              -0.000630063               0.001903513               0.001273450               0.000000000               0.000000000               0.000000000               0.000000000               0.000013425               0.004993584              -0.000009643              -0.000619162               0.001870899               0.001251737               0.000000000               0.000000000               0.000000000               0.000000000               0.000012830               0.004906978              -0.000016391              -0.000608559               0.001838496               0.001229937               0.000000000               0.000000000               0.000000000               0.000000000               0.000008367               0.004826038              -0.000016673              -0.000600116               0.001808702               0.001208586               0.000000000               0.000000000               0.000000000               0.000000000               0.000003090               0.004754483              -0.000015067              -0.000593150               0.001782529               0.001189378               0.000000000               0.000000000               0.000000000               0.000000000               0.000001802               0.004694257              -0.000008085              -0.000586105               0.001760105               0.001174000               0.000000000               0.000000000               0.000000000               0.000000000              -0.000005075               0.004654293              -0.000007681              -0.000583688               0.001745978               0.001162290               0.000000000               0.000000000               0.000000000               0.000000000               0.001633425               0.005346875               0.002550055              -0.000055828               0.001800882               0.001745054               0.000000000               0.000000000               0.000000000               0.000000000               0.000747992               0.005444680               0.001818069              -0.000400089               0.001948237               0.001548149               0.000000000               0.000000000               0.000000000               0.000000000               0.000090794               0.005782197               0.001042635              -0.000688726               0.002156955               0.001468229               0.000000000               0.000000000               0.000000000               0.000000000              -0.000079511               0.005729662               0.000685517              -0.000746023               0.002158542               0.001412520               0.000000000               0.000000000               0.000000000               0.000000000              -0.000104101               0.005598246               0.000488007              -0.000738817               0.002112336               0.001373519               0.000000000               0.000000000               0.000000000               0.000000000              -0.000093504               0.005463794               0.000363432              -0.000718037               0.002060592               0.001342555               0.000000000               0.000000000               0.000000000               0.000000000              -0.000074408               0.005336071               0.000281149              -0.000694910               0.002010309               0.001315399               0.000000000               0.000000000               0.000000000               0.000000000              -0.000052833               0.005215261               0.000221428              -0.000671718               0.001962309               0.001290591               0.000000000               0.000000000               0.000000000               0.000000000              -0.000036708               0.005103143               0.000166375              -0.000651657               0.001918249               0.001266593               0.000000000               0.000000000               0.000000000               0.000000000              -0.000025349               0.005001668               0.000115843              -0.000634713               0.001878777               0.001244064               0.000000000               0.000000000               0.000000000               0.000000000              -0.000019080               0.004902144               0.000072680              -0.000619922               0.001840672               0.001220751               0.000000000               0.000000000               0.000000000               0.000000000              -0.000016295               0.004799599               0.000040192              -0.000606059               0.001801870               0.001195811               0.000000000               0.000000000               0.000000000               0.000000000              -0.000014936               0.004699101               0.000018850              -0.000592987               0.001764014               0.001171026               0.000000000               0.000000000               0.000000000               0.000000000              -0.000017816               0.004607655               0.000003955              -0.000582636               0.001730082               0.001147446               0.000000000               0.000000000               0.000000000               0.000000000              -0.000019463               0.004526211              -0.000007359              -0.000573074               0.001699747               0.001126673               0.000000000               0.000000000               0.000000000               0.000000000              -0.000014260               0.004453978              -0.000008818              -0.000562093               0.001672009               0.001109916               0.000000000               0.000000000               0.000000000               0.000000000              -0.000015031               0.004408380              -0.000009830              -0.000556683               0.001655006               0.001098324               0.000000000               0.000000000               0.000000000               0.000000000               0.001450711               0.004249918               0.002223523               0.000012774               0.001412366               0.001425140               0.000000000               0.000000000               0.000000000               0.000000000               0.000606481               0.004717890               0.001761847              -0.000362307               0.001693383               0.001331076               0.000000000               0.000000000               0.000000000               0.000000000              -0.000056438               0.005348906               0.001207337              -0.000689776               0.002012876               0.001323100               0.000000000               0.000000000               0.000000000               0.000000000              -0.000186916               0.005431381               0.000875351              -0.000749015               0.002060114               0.001311099               0.000000000               0.000000000               0.000000000               0.000000000              -0.000176230               0.005375648               0.000664442              -0.000738040               0.002037878               0.001299838               0.000000000               0.000000000               0.000000000               0.000000000              -0.000142388               0.005286649               0.000519120              -0.000714225               0.002000274               0.001286049               0.000000000               0.000000000               0.000000000               0.000000000              -0.000104333               0.005183898               0.000414225              -0.000687110               0.001956985               0.001269875               0.000000000               0.000000000               0.000000000               0.000000000              -0.000066469               0.005080665               0.000331628              -0.000660008               0.001913541               0.001253533               0.000000000               0.000000000               0.000000000               0.000000000              -0.000045128               0.004979349               0.000258403              -0.000639340               0.001872880               0.001233540               0.000000000               0.000000000               0.000000000               0.000000000              -0.000033025               0.004879324               0.000193253              -0.000622298               0.001833858               0.001211559               0.000000000               0.000000000               0.000000000               0.000000000              -0.000026829               0.004773699               0.000136754              -0.000606772               0.001793474               0.001186703               0.000000000               0.000000000               0.000000000               0.000000000              -0.000027167               0.004659242               0.000091121              -0.000592591               0.001750596               0.001158004               0.000000000               0.000000000               0.000000000               0.000000000              -0.000030808               0.004547638               0.000053713              -0.000580006               0.001709200               0.001129193               0.000000000               0.000000000               0.000000000               0.000000000              -0.000039399               0.004447390               0.000023832              -0.000570697               0.001672681               0.001101984               0.000000000               0.000000000               0.000000000               0.000000000              -0.000051465               0.004353122               0.000003342              -0.000563438               0.001638839               0.001075401               0.000000000               0.000000000               0.000000000               0.000000000              -0.000058446               0.004263666              -0.000004831              -0.000554874               0.001606166               0.001051292               0.000000000               0.000000000               0.000000000               0.000000000              -0.000058685               0.004214880              -0.000006569              -0.000548866               0.001587901               0.001039036               0.000000000               0.000000000               0.000000000               0.000000000               0.001190455               0.003214896               0.001851335               0.000044556               0.001056768               0.001101324               0.000000000               0.000000000               0.000000000               0.000000000               0.000513662               0.003888789               0.001684162              -0.000293476               0.001394075               0.001100598               0.000000000               0.000000000               0.000000000               0.000000000              -0.000091194               0.004728588               0.001389622              -0.000625271               0.001784603               0.001159333               0.000000000               0.000000000               0.000000000               0.000000000              -0.000211955               0.004983067               0.001099837              -0.000702365               0.001895127               0.001192762               0.000000000               0.000000000               0.000000000               0.000000000              -0.000192733               0.005043348               0.000876933              -0.000702692               0.001915330               0.001212638               0.000000000               0.000000000               0.000000000               0.000000000              -0.000149216               0.005032913               0.000707381              -0.000685069               0.001905977               0.001220908               0.000000000               0.000000000               0.000000000               0.000000000              -0.000110290               0.004987183               0.000578565              -0.000664755               0.001883963               0.001219207               0.000000000               0.000000000               0.000000000               0.000000000              -0.000072226               0.004920236               0.000470591              -0.000642113               0.001854100               0.001211987               0.000000000               0.000000000               0.000000000               0.000000000              -0.000048245               0.004841084               0.000377729              -0.000623226               0.001821421               0.001198195               0.000000000               0.000000000               0.000000000               0.000000000              -0.000039630               0.004759900               0.000298642              -0.000609847               0.001789900               0.001180053               0.000000000               0.000000000               0.000000000               0.000000000              -0.000037277               0.004670346               0.000229570              -0.000597771               0.001756023               0.001158253               0.000000000               0.000000000               0.000000000               0.000000000              -0.000040263               0.004568281               0.000168967              -0.000586132               0.001718123               0.001131990               0.000000000               0.000000000               0.000000000               0.000000000              -0.000049881               0.004464940               0.000113362              -0.000576821               0.001680572               0.001103751               0.000000000               0.000000000               0.000000000               0.000000000              -0.000066431               0.004365592               0.000064968              -0.000570609               0.001645386               0.001074777               0.000000000               0.000000000               0.000000000               0.000000000              -0.000090804               0.004271605               0.000027845              -0.000568001               0.001613188               0.001045187               0.000000000               0.000000000               0.000000000               0.000000000              -0.000118498               0.004178205               0.000006777              -0.000566711               0.001581625               0.001014914               0.000000000               0.000000000               0.000000000               0.000000000              -0.000132993               0.004126095              -0.000000522              -0.000565633               0.001563895               0.000998263               0.000000000               0.000000000               0.000000000               0.000000000               0.000788863               0.002266843               0.001450020               0.000012466               0.000751451               0.000763917               0.000000000               0.000000000               0.000000000               0.000000000               0.000400740               0.003069057               0.001558185              -0.000233356               0.001100793               0.000867438               0.000000000               0.000000000               0.000000000               0.000000000              -0.000057827               0.004033893               0.001525887              -0.000525922               0.001519924               0.000994003               0.000000000               0.000000000               0.000000000               0.000000000              -0.000166821               0.004452513               0.001312775              -0.000619121               0.001690530               0.001071408               0.000000000               0.000000000               0.000000000               0.000000000              -0.000158947               0.004639764               0.001097094              -0.000639575               0.001759764               0.001120189               0.000000000               0.000000000               0.000000000               0.000000000              -0.000119384               0.004723829               0.000913663              -0.000635247               0.001786343               0.001151096               0.000000000               0.000000000               0.000000000               0.000000000              -0.000085785               0.004752880               0.000764677              -0.000626278               0.001793037               0.001166759               0.000000000               0.000000000               0.000000000               0.000000000              -0.000056790               0.004740273               0.000637790              -0.000613829               0.001784685               0.001170856               0.000000000               0.000000000               0.000000000               0.000000000              -0.000031298               0.004702601               0.000527817              -0.000599561               0.001767371               0.001167811               0.000000000               0.000000000               0.000000000               0.000000000              -0.000019689               0.004649648               0.000436009              -0.000588588               0.001746063               0.001157475               0.000000000               0.000000000               0.000000000               0.000000000              -0.000016661               0.004582619               0.000359124              -0.000579074               0.001720549               0.001141475               0.000000000               0.000000000               0.000000000               0.000000000              -0.000019521               0.004505231               0.000286469              -0.000570473               0.001691886               0.001121414               0.000000000               0.000000000               0.000000000               0.000000000              -0.000032112               0.004420577               0.000214554              -0.000564613               0.001661715               0.001097102               0.000000000               0.000000000               0.000000000               0.000000000              -0.000059016               0.004330687               0.000145843              -0.000563466               0.001631370               0.001067904               0.000000000               0.000000000               0.000000000               0.000000000              -0.000100240               0.004244457               0.000084527              -0.000568146               0.001604187               0.001036041               0.000000000               0.000000000               0.000000000               0.000000000              -0.000158445               0.004161328               0.000035790              -0.000579582               0.001580289               0.001000708               0.000000000               0.000000000               0.000000000               0.000000000              -0.000202559               0.004110925               0.000010627              -0.000589824               0.001566902               0.000977079               0.000000000               0.000000000               0.000000000               0.000000000               0.000273569               0.001454113               0.001039432              -0.000079177               0.000511091               0.000431914               0.000000000               0.000000000               0.000000000               0.000000000               0.000230621               0.002290566               0.001364240              -0.000199839               0.000830126               0.000630288               0.000000000               0.000000000               0.000000000               0.000000000               0.000001884               0.003268556               0.001550814              -0.000407864               0.001225462               0.000817598               0.000000000               0.000000000               0.000000000               0.000000000              -0.000058338               0.003802478               0.001432802              -0.000497186               0.001433208               0.000936022               0.000000000               0.000000000               0.000000000               0.000000000              -0.000053685               0.004108126               0.001249868              -0.000533647               0.001547244               0.001013597               0.000000000               0.000000000               0.000000000               0.000000000              -0.000026231               0.004295240               0.001070463              -0.000546741               0.001613979               0.001067238               0.000000000               0.000000000               0.000000000               0.000000000              -0.000004914               0.004408642               0.000915586              -0.000552922               0.001653840               0.001100918               0.000000000               0.000000000               0.000000000               0.000000000               0.000010780               0.004467382               0.000781373              -0.000554379               0.001673906               0.001119526               0.000000000               0.000000000               0.000000000               0.000000000               0.000028046               0.004483614               0.000664822              -0.000549934               0.001677834               0.001127901               0.000000000               0.000000000               0.000000000               0.000000000               0.000040664               0.004469808               0.000567831              -0.000543476               0.001671080               0.001127604               0.000000000               0.000000000               0.000000000               0.000000000               0.000044779               0.004439989               0.000485971              -0.000538205               0.001659383               0.001121178               0.000000000               0.000000000               0.000000000               0.000000000               0.000041315               0.004401190               0.000406092              -0.000534654               0.001645267               0.001110612               0.000000000               0.000000000               0.000000000               0.000000000               0.000028907               0.004353546               0.000322701              -0.000533352               0.001628951               0.001095600               0.000000000               0.000000000               0.000000000               0.000000000              -0.000000011               0.004291794               0.000238993              -0.000536477               0.001609410               0.001072932               0.000000000               0.000000000               0.000000000               0.000000000              -0.000049626               0.004221059               0.000154926              -0.000546241               0.001589086               0.001042845               0.000000000               0.000000000               0.000000000               0.000000000              -0.000126478               0.004150731               0.000074136              -0.000566269               0.001572320               0.001006050               0.000000000               0.000000000               0.000000000               0.000000000              -0.000192978               0.004102668               0.000028572              -0.000585199               0.001562608               0.000977410               0.000000000               0.000000000               0.000000000               0.000000000              -0.000315824               0.000812990               0.000663182              -0.000220058               0.000344346               0.000124288               0.000000000               0.000000000               0.000000000               0.000000000               0.000015802               0.001586399               0.001117760              -0.000192375               0.000592919               0.000400544               0.000000000               0.000000000               0.000000000               0.000000000               0.000071435               0.002483617               0.001452387              -0.000283665               0.000922418               0.000638754               0.000000000               0.000000000               0.000000000               0.000000000               0.000096610               0.003081698               0.001423087              -0.000348984               0.001143550               0.000794566               0.000000000               0.000000000               0.000000000               0.000000000               0.000113952               0.003484038               0.001288089              -0.000392773               0.001292258               0.000899485               0.000000000               0.000000000               0.000000000               0.000000000               0.000130419               0.003767364               0.001129644              -0.000422013               0.001396446               0.000974433               0.000000000               0.000000000               0.000000000               0.000000000               0.000138933               0.003968394               0.000984105              -0.000443949               0.001470768               0.001026819               0.000000000               0.000000000               0.000000000               0.000000000               0.000142313               0.004102694               0.000859261              -0.000459469               0.001520707               0.001061238               0.000000000               0.000000000               0.000000000               0.000000000               0.000146980               0.004183376               0.000749747              -0.000467804               0.001550379               0.001082575               0.000000000               0.000000000               0.000000000               0.000000000               0.000150950               0.004225926               0.000655932              -0.000471634               0.001565839               0.001094205               0.000000000               0.000000000               0.000000000               0.000000000               0.000150308               0.004246066               0.000574567              -0.000474392               0.001573472               0.001099080               0.000000000               0.000000000               0.000000000               0.000000000               0.000144260               0.004251955               0.000494154              -0.000477396               0.001576436               0.001099040               0.000000000               0.000000000               0.000000000               0.000000000               0.000135967               0.004249870               0.000408851              -0.000480245               0.001576691               0.001096446               0.000000000               0.000000000               0.000000000               0.000000000               0.000117209               0.004227941               0.000318866              -0.000484538               0.001570812               0.001086274               0.000000000               0.000000000               0.000000000               0.000000000               0.000078393               0.004184565               0.000220043              -0.000493672               0.001559398               0.001065726               0.000000000               0.000000000               0.000000000               0.000000000               0.000014388               0.004135215               0.000112342              -0.000511505               0.001548893               0.001037388               0.000000000               0.000000000               0.000000000               0.000000000              -0.000047865               0.004097018               0.000050442              -0.000530075               0.001542351               0.001012275               0.000000000               0.000000000               0.000000000               0.000000000              -0.000908516               0.000349332               0.000360117              -0.000384360               0.000244562              -0.000139798               0.000000000               0.000000000               0.000000000               0.000000000              -0.000219773               0.000996355               0.000838389              -0.000206960               0.000401101               0.000194141               0.000000000               0.000000000               0.000000000               0.000000000               0.000136405               0.001754746               0.001228237              -0.000168192               0.000640973               0.000472781               0.000000000               0.000000000               0.000000000               0.000000000               0.000266417               0.002370925               0.001263688              -0.000196460               0.000855786               0.000659326               0.000000000               0.000000000               0.000000000               0.000000000               0.000312833               0.002839505               0.001176961              -0.000237626               0.001025700               0.000788074               0.000000000               0.000000000               0.000000000               0.000000000               0.000327521               0.003199911               0.001053025              -0.000277169               0.001159015               0.000881847               0.000000000               0.000000000               0.000000000               0.000000000               0.000330185               0.003478987               0.000932037              -0.000311054               0.001263335               0.000952281               0.000000000               0.000000000               0.000000000               0.000000000               0.000322113               0.003686182               0.000826821              -0.000339980               0.001342042               0.001002062               0.000000000               0.000000000               0.000000000               0.000000000               0.000312166               0.003834418               0.000734188              -0.000362239               0.001398873               0.001036634               0.000000000               0.000000000               0.000000000               0.000000000               0.000304534               0.003938096               0.000653146              -0.000378061               0.001438706               0.001060645               0.000000000               0.000000000               0.000000000               0.000000000               0.000298018               0.004010539               0.000580775              -0.000389560               0.001466686               0.001077126               0.000000000               0.000000000               0.000000000               0.000000000               0.000291599               0.004062254               0.000509850              -0.000398431               0.001486882               0.001088450               0.000000000               0.000000000               0.000000000               0.000000000               0.000288787               0.004105616               0.000434194              -0.000404906               0.001503494               0.001098588               0.000000000               0.000000000               0.000000000               0.000000000               0.000283686               0.004127366               0.000349294              -0.000409538               0.001512287               0.001102750               0.000000000               0.000000000               0.000000000               0.000000000               0.000269940               0.004122384               0.000251755              -0.000414070               0.001512137               0.001098068               0.000000000               0.000000000               0.000000000               0.000000000               0.000245733               0.004106925               0.000134290              -0.000421215               0.001509366               0.001088152               0.000000000               0.000000000               0.000000000               0.000000000               0.000219350               0.004091589               0.000066355              -0.000429191               0.001506913               0.001077722               0.000000000               0.000000000               0.000000000               0.000000000              -0.001413889               0.000059033               0.000154430              -0.000537587               0.000198872              -0.000338715               0.000000000               0.000000000               0.000000000               0.000000000              -0.000438041               0.000562728               0.000547547              -0.000234606               0.000265776               0.000031169               0.000000000               0.000000000               0.000000000               0.000000000               0.000184724               0.001166659               0.000888445              -0.000076562               0.000414402               0.000337841               0.000000000               0.000000000               0.000000000               0.000000000               0.000419379               0.001761773               0.000951660              -0.000062956               0.000608236               0.000545281               0.000000000               0.000000000               0.000000000               0.000000000               0.000503506               0.002266404               0.000906403              -0.000094486               0.000786956               0.000692469               0.000000000               0.000000000               0.000000000               0.000000000               0.000526139               0.002679249               0.000824428              -0.000137605               0.000938942               0.000801337               0.000000000               0.000000000               0.000000000               0.000000000               0.000525050               0.003014509               0.000737254              -0.000179920               0.001064800               0.000884880               0.000000000               0.000000000               0.000000000               0.000000000               0.000510059               0.003282863               0.000658813              -0.000219086               0.001167305               0.000948220               0.000000000               0.000000000               0.000000000               0.000000000               0.000490403               0.003488942               0.000590478              -0.000252216               0.001247041               0.000994825               0.000000000               0.000000000               0.000000000               0.000000000               0.000470509               0.003645082               0.000530267              -0.000279194               0.001308080               0.001028886               0.000000000               0.000000000               0.000000000               0.000000000               0.000456089               0.003768190               0.000476357              -0.000299990               0.001356047               0.001056057               0.000000000               0.000000000               0.000000000               0.000000000               0.000448816               0.003866954               0.000422680              -0.000315062               0.001393993               0.001078930               0.000000000               0.000000000               0.000000000               0.000000000               0.000450210               0.003953287               0.000365385              -0.000325331               0.001426193               0.001100862               0.000000000               0.000000000               0.000000000               0.000000000               0.000460284               0.004021628               0.000300357              -0.000330096               0.001450561               0.001120465               0.000000000               0.000000000               0.000000000               0.000000000               0.000478526               0.004062138               0.000222501              -0.000328319               0.001463472               0.001135153               0.000000000               0.000000000               0.000000000               0.000000000               0.000507097               0.004079682               0.000122889              -0.000319798               0.001466480               0.001146682               0.000000000               0.000000000               0.000000000               0.000000000               0.000533505               0.004086217               0.000066630              -0.000310712               0.001465629               0.001154917               0.000000000               0.000000000               0.000000000               0.000000000              -0.001753304              -0.000087283               0.000046968              -0.000646578               0.000186430              -0.000460148               0.000000000               0.000000000               0.000000000               0.000000000              -0.000595824               0.000305183               0.000267028              -0.000261582               0.000188920              -0.000072662               0.000000000               0.000000000               0.000000000               0.000000000               0.000211461               0.000788252               0.000464727              -0.000019234               0.000269159               0.000249925               0.000000000               0.000000000               0.000000000               0.000000000               0.000529606               0.001351144               0.000511756               0.000029708               0.000440474               0.000470182               0.000000000               0.000000000               0.000000000               0.000000000               0.000644724               0.001867771               0.000494781               0.000008299               0.000619818               0.000628117               0.000000000               0.000000000               0.000000000               0.000000000               0.000676809               0.002308136               0.000454221              -0.000034714               0.000780942               0.000746229               0.000000000               0.000000000               0.000000000               0.000000000               0.000673597               0.002674328               0.000408936              -0.000081692               0.000918664               0.000836972               0.000000000               0.000000000               0.000000000               0.000000000               0.000655291               0.002977048               0.000367562              -0.000126397               0.001034471               0.000908075               0.000000000               0.000000000               0.000000000               0.000000000               0.000627063               0.003222520               0.000329852              -0.000167666               0.001130051               0.000962385               0.000000000               0.000000000               0.000000000               0.000000000               0.000597694               0.003423422               0.000296551              -0.000203792               0.001209060               0.001005268               0.000000000               0.000000000               0.000000000               0.000000000               0.000572222               0.003587376               0.000268234              -0.000233838               0.001273726               0.001039888               0.000000000               0.000000000               0.000000000               0.000000000               0.000558904               0.003726565               0.000239346              -0.000256231               0.001327586               0.001071355               0.000000000               0.000000000               0.000000000               0.000000000               0.000564609               0.003849826               0.000207700              -0.000269499               0.001373096               0.001103596               0.000000000               0.000000000               0.000000000               0.000000000               0.000590403               0.003948638               0.000172286              -0.000272178               0.001406926               0.001134748               0.000000000               0.000000000               0.000000000               0.000000000               0.000640477               0.004020163               0.000129250              -0.000262341               0.001427488               0.001165147               0.000000000               0.000000000               0.000000000               0.000000000               0.000722429               0.004063882               0.000072944              -0.000237074               0.001433638               0.001196565               0.000000000               0.000000000               0.000000000               0.000000000               0.000798475               0.004087020               0.000042053              -0.000211449               0.001432809               0.001221360               0.000000000               0.000000000               0.000000000               0.000000000              -0.001872610              -0.000130017               0.000000000              -0.000685976               0.000185318              -0.000500658               0.000000000               0.000000000               0.000000000               0.000000000              -0.000653602               0.000221320              -0.000000000              -0.000272765               0.000164694              -0.000108072               0.000000000               0.000000000               0.000000000               0.000000000               0.000218984               0.000657554              -0.000000000              -0.000000076               0.000219208               0.000219132               0.000000000               0.000000000               0.000000000               0.000000000               0.000569749               0.001204399              -0.000000000               0.000063105               0.000380427               0.000443532               0.000000000               0.000000000               0.000000000               0.000000000               0.000696127               0.001723281               0.000000000               0.000045637               0.000559209               0.000604846               0.000000000               0.000000000               0.000000000               0.000000000               0.000733697               0.002172962               0.000000000               0.000003516               0.000723141               0.000726657               0.000000000               0.000000000               0.000000000               0.000000000               0.000731814               0.002548825              -0.000000000              -0.000044173               0.000864324               0.000820151               0.000000000               0.000000000               0.000000000               0.000000000               0.000711242               0.002862562               0.000000000              -0.000091104               0.000984546               0.000893442               0.000000000               0.000000000               0.000000000               0.000000000               0.000677626               0.003122857               0.000000000              -0.000136247               0.001086358               0.000950111               0.000000000               0.000000000               0.000000000               0.000000000               0.000644392               0.003340456              -0.000000000              -0.000175910               0.001172111               0.000996201               0.000000000               0.000000000               0.000000000               0.000000000               0.000614323               0.003521027               0.000000000              -0.000209757               0.001243583               0.001033826               0.000000000               0.000000000               0.000000000               0.000000000               0.000596595               0.003676042              -0.000000000              -0.000235782               0.001303929               0.001068147               0.000000000               0.000000000               0.000000000               0.000000000               0.000603200               0.003812696              -0.000000000              -0.000250386               0.001354348               0.001103962               0.000000000               0.000000000               0.000000000               0.000000000               0.000637723               0.003923957               0.000000000              -0.000251348               0.001391755               0.001140407               0.000000000               0.000000000               0.000000000               0.000000000               0.000703313               0.004004869               0.000000000              -0.000236866               0.001413898               0.001177032               0.000000000               0.000000000               0.000000000               0.000000000               0.000808684               0.004056703              -0.000000000              -0.000203831               0.001420164               0.001216333               0.000000000               0.000000000               0.000000000               0.000000000               0.000905725               0.004086850              -0.000000000              -0.000171209               0.001419339               0.001248130               0.000000000               0.000000000               0.000000000               0.000000000               0.001106085               0.012382668              -0.000000000              -0.001133049               0.004505198               0.003372149               0.000000000               0.000000000               0.000000000               0.000000000               0.001187918               0.010059636              -0.000000000              -0.000811983               0.003623839               0.002811856               0.000000000               0.000000000               0.000000000               0.000000000               0.001638172               0.008202820              -0.000000000              -0.000411037               0.002871258               0.002460221               0.000000000               0.000000000               0.000000000               0.000000000               0.001676736               0.007192026              -0.000000000              -0.000270226               0.002487393               0.002217167               0.000000000               0.000000000               0.000000000               0.000000000               0.001571149               0.006597402              -0.000000000              -0.000235494               0.002277610               0.002042116               0.000000000               0.000000000               0.000000000               0.000000000               0.001429524               0.006224136               0.000000000              -0.000241945               0.002155339               0.001913395               0.000000000               0.000000000               0.000000000               0.000000000               0.001280125               0.005971602               0.000000000              -0.000266403               0.002079315               0.001812912               0.000000000               0.000000000               0.000000000               0.000000000               0.001128409               0.005796583               0.000000000              -0.000301419               0.002032648               0.001731229               0.000000000               0.000000000               0.000000000               0.000000000               0.000978924               0.005669237               0.000000000              -0.000341557               0.002003579               0.001662022               0.000000000               0.000000000               0.000000000               0.000000000               0.000835810               0.005569673               0.000000000              -0.000382779               0.001984132               0.001601353               0.000000000               0.000000000               0.000000000               0.000000000               0.000702313               0.005489781              -0.000000000              -0.000422854               0.001970860               0.001548006               0.000000000               0.000000000               0.000000000               0.000000000               0.000576426               0.005423058              -0.000000000              -0.000461721               0.001961575               0.001499854               0.000000000               0.000000000               0.000000000               0.000000000               0.000450663               0.005362607              -0.000000000              -0.000501326               0.001954626               0.001453300               0.000000000               0.000000000               0.000000000               0.000000000               0.000321644               0.005300945               0.000000000              -0.000542000               0.001947631               0.001405631               0.000000000               0.000000000               0.000000000               0.000000000               0.000200015               0.005231736               0.000000000              -0.000578960               0.001936881               0.001357921               0.000000000               0.000000000               0.000000000               0.000000000               0.000093619               0.005143622               0.000000000              -0.000607844               0.001917138               0.001309294               0.000000000               0.000000000               0.000000000               0.000000000               0.000037019               0.005069897               0.000000000              -0.000619854               0.001896567               0.001276713               0.000000000               0.000000000               0.000000000               0.000000000               0.001158701               0.012151946              -0.000896368              -0.001084478               0.004412101               0.003327623               0.000000000               0.000000000               0.000000000               0.000000000               0.001188980               0.009906099              -0.000530312              -0.000792393               0.003566131               0.002773738               0.000000000               0.000000000               0.000000000               0.000000000               0.001582174               0.008126830              -0.000157429              -0.000422537               0.002849762               0.002427225               0.000000000               0.000000000               0.000000000               0.000000000               0.001597096               0.007154852               0.000009347              -0.000295445               0.002483409               0.002187964               0.000000000               0.000000000               0.000000000               0.000000000               0.001486867               0.006577593               0.000083465              -0.000264623               0.002280717               0.002016093               0.000000000               0.000000000               0.000000000               0.000000000               0.001347366               0.006208794               0.000114120              -0.000270836               0.002159856               0.001889020               0.000000000               0.000000000               0.000000000               0.000000000               0.001200396               0.005957229               0.000126757              -0.000294505               0.002083891               0.001789387               0.000000000               0.000000000               0.000000000               0.000000000               0.001053466               0.005781100               0.000131700              -0.000327587               0.002036210               0.001708623               0.000000000               0.000000000               0.000000000               0.000000000               0.000912074               0.005654511               0.000129781              -0.000364785               0.002006413               0.001641628               0.000000000               0.000000000               0.000000000               0.000000000               0.000776437               0.005557736               0.000124264              -0.000403552               0.001987078               0.001583525               0.000000000               0.000000000               0.000000000               0.000000000               0.000648418               0.005477868               0.000117889              -0.000441576               0.001973130               0.001531554               0.000000000               0.000000000               0.000000000               0.000000000               0.000527612               0.005410252               0.000111793              -0.000478426               0.001962874               0.001484449               0.000000000               0.000000000               0.000000000               0.000000000               0.000408907               0.005349630               0.000104659              -0.000515362               0.001954980               0.001439617               0.000000000               0.000000000               0.000000000               0.000000000               0.000292234               0.005288556               0.000093836              -0.000551480               0.001946661               0.001395181               0.000000000               0.000000000               0.000000000               0.000000000               0.000182332               0.005220674               0.000076951              -0.000584208               0.001934943               0.001350735               0.000000000               0.000000000               0.000000000               0.000000000               0.000083699               0.005139737               0.000046066              -0.000611079               0.001916922               0.001305843               0.000000000               0.000000000               0.000000000               0.000000000               0.000032865               0.005079199               0.000027063              -0.000622574               0.001900574               0.001278000               0.000000000               0.000000000               0.000000000               0.000000000               0.001304386               0.011493416              -0.001689526              -0.000947531               0.004146944               0.003199413               0.000000000               0.000000000               0.000000000               0.000000000               0.001189483               0.009464626              -0.001006558              -0.000737021               0.003400517               0.002663497               0.000000000               0.000000000               0.000000000               0.000000000               0.001423911               0.007905062              -0.000313709              -0.000454165               0.002786383               0.002332218               0.000000000               0.000000000               0.000000000               0.000000000               0.001378400               0.007038691              -0.000009381              -0.000362935               0.002467185               0.002104250               0.000000000               0.000000000               0.000000000               0.000000000               0.001254795               0.006509863               0.000123659              -0.000343184               0.002284327               0.001941144               0.000000000               0.000000000               0.000000000               0.000000000               0.001120691               0.006161192               0.000177666              -0.000349889               0.002170340               0.001820451               0.000000000               0.000000000               0.000000000               0.000000000               0.000986202               0.005920722               0.000199501              -0.000370264               0.002096975               0.001726712               0.000000000               0.000000000               0.000000000               0.000000000               0.000855893               0.005749566               0.000207984              -0.000397735               0.002049081               0.001651346               0.000000000               0.000000000               0.000000000               0.000000000               0.000734260               0.005624174               0.000205462              -0.000427673               0.002017264               0.001589590               0.000000000               0.000000000               0.000000000               0.000000000               0.000616085               0.005524785               0.000194581              -0.000459565               0.001994765               0.001535200               0.000000000               0.000000000               0.000000000               0.000000000               0.000502714               0.005442230               0.000182096              -0.000491760               0.001977978               0.001486219               0.000000000               0.000000000               0.000000000               0.000000000               0.000398511               0.005374453               0.000171940              -0.000522364               0.001965587               0.001443224               0.000000000               0.000000000               0.000000000               0.000000000               0.000300012               0.005313906               0.000159286              -0.000551732               0.001955195               0.001403463               0.000000000               0.000000000               0.000000000               0.000000000               0.000209202               0.005254716               0.000139098              -0.000578387               0.001944350               0.001365963               0.000000000               0.000000000               0.000000000               0.000000000               0.000129916               0.005195486               0.000108971              -0.000600716               0.001932050               0.001331334               0.000000000               0.000000000               0.000000000               0.000000000               0.000059840               0.005134232               0.000062842              -0.000619338               0.001917839               0.001298502               0.000000000               0.000000000               0.000000000               0.000000000               0.000024538               0.005095932               0.000036324              -0.000627788               0.001907890               0.001280102               0.000000000               0.000000000               0.000000000               0.000000000               0.001501351               0.010497143              -0.002303784              -0.000749136               0.003748724               0.002999588               0.000000000               0.000000000               0.000000000               0.000000000               0.001179650               0.008793462              -0.001389259              -0.000656813               0.003150062               0.002493249               0.000000000               0.000000000               0.000000000               0.000000000               0.001189128               0.007562653              -0.000469077              -0.000499408               0.002687328               0.002187921               0.000000000               0.000000000               0.000000000               0.000000000               0.001068309               0.006850959              -0.000075796              -0.000455753               0.002435548               0.001979795               0.000000000               0.000000000               0.000000000               0.000000000               0.000933646               0.006394870               0.000094780              -0.000449240               0.002281349               0.001832109               0.000000000               0.000000000               0.000000000               0.000000000               0.000813579               0.006086418               0.000165421              -0.000455709               0.002180689               0.001724980               0.000000000               0.000000000               0.000000000               0.000000000               0.000704196               0.005871585               0.000195722              -0.000469873               0.002113800               0.001643926               0.000000000               0.000000000               0.000000000               0.000000000               0.000600387               0.005711995               0.000207764              -0.000488853               0.002066930               0.001578077               0.000000000               0.000000000               0.000000000               0.000000000               0.000504489               0.005585162               0.000205789              -0.000508961               0.002031356               0.001522395               0.000000000               0.000000000               0.000000000               0.000000000               0.000414250               0.005480072               0.000195910              -0.000529664               0.002003227               0.001473563               0.000000000               0.000000000               0.000000000               0.000000000               0.000329279               0.005395752               0.000187154              -0.000550988               0.001982229               0.001431241               0.000000000               0.000000000               0.000000000               0.000000000               0.000252619               0.005328440               0.000179670              -0.000571322               0.001966570               0.001395248               0.000000000               0.000000000               0.000000000               0.000000000               0.000182721               0.005269139               0.000166516              -0.000590120               0.001953069               0.001362949               0.000000000               0.000000000               0.000000000               0.000000000               0.000120223               0.005213732               0.000144840              -0.000606631               0.001940104               0.001333472               0.000000000               0.000000000               0.000000000               0.000000000               0.000071696               0.005164818               0.000112245              -0.000618715               0.001927827               0.001309112               0.000000000               0.000000000               0.000000000               0.000000000               0.000033441               0.005123920               0.000063217              -0.000627948               0.001917272               0.001289324               0.000000000               0.000000000               0.000000000               0.000000000               0.000014895               0.005103527               0.000034840              -0.000632354               0.001911943               0.001279590               0.000000000               0.000000000               0.000000000               0.000000000               0.001681236               0.009277445              -0.002688655              -0.000529218               0.003268856               0.002739638               0.000000000               0.000000000               0.000000000               0.000000000               0.001134476               0.007980882              -0.001649499              -0.000572182               0.002850994               0.002278813               0.000000000               0.000000000               0.000000000               0.000000000               0.000903867               0.007149870              -0.000613958              -0.000554783               0.002568194               0.002013411               0.000000000               0.000000000               0.000000000               0.000000000               0.000720975               0.006621806              -0.000185365              -0.000557359               0.002393033               0.001835674               0.000000000               0.000000000               0.000000000               0.000000000               0.000589825               0.006253751               0.000001809              -0.000560533               0.002271407               0.001710874               0.000000000               0.000000000               0.000000000               0.000000000               0.000495883               0.005993009               0.000084657              -0.000563169               0.002185372               0.001622204               0.000000000               0.000000000               0.000000000               0.000000000               0.000420149               0.005802426               0.000121921              -0.000567746               0.002123371               0.001555625               0.000000000               0.000000000               0.000000000               0.000000000               0.000348013               0.005647298               0.000138375              -0.000575406               0.002074216               0.001498810               0.000000000               0.000000000               0.000000000               0.000000000               0.000285397               0.005518416               0.000143155              -0.000582777               0.002033712               0.001450936               0.000000000               0.000000000               0.000000000               0.000000000               0.000230926               0.005415756               0.000142331              -0.000590371               0.002002024               0.001411653               0.000000000               0.000000000               0.000000000               0.000000000               0.000179369               0.005332238               0.000142778              -0.000599265               0.001977150               0.001377885               0.000000000               0.000000000               0.000000000               0.000000000               0.000135176               0.005263196               0.000142709              -0.000607207               0.001956783               0.001349576               0.000000000               0.000000000               0.000000000               0.000000000               0.000097723               0.005202695               0.000133599              -0.000613689               0.001938778               0.001325088               0.000000000               0.000000000               0.000000000               0.000000000               0.000064074               0.005145557               0.000114919              -0.000619165               0.001921557               0.001302391               0.000000000               0.000000000               0.000000000               0.000000000               0.000038922               0.005097443               0.000086974              -0.000622583               0.001906658               0.001284075               0.000000000               0.000000000               0.000000000               0.000000000               0.000018020               0.005062756               0.000046829              -0.000626085               0.001896264               0.001270178               0.000000000               0.000000000               0.000000000               0.000000000               0.000008105               0.005050768               0.000023576              -0.000628305               0.001893007               0.001264703               0.000000000               0.000000000               0.000000000               0.000000000               0.001781724               0.007948158              -0.002833985              -0.000325376               0.002757817               0.002432442               0.000000000               0.000000000               0.000000000               0.000000000               0.001041994               0.007112936              -0.001789774              -0.000498370               0.002537078               0.002038708               0.000000000               0.000000000               0.000000000               0.000000000               0.000600307               0.006705504              -0.000752077              -0.000613072               0.002439503               0.001826431               0.000000000               0.000000000               0.000000000               0.000000000               0.000388187               0.006358797              -0.000331434              -0.000649278               0.002336004               0.001686726               0.000000000               0.000000000               0.000000000               0.000000000               0.000283117               0.006079800              -0.000143407              -0.000653804               0.002244515               0.001590710               0.000000000               0.000000000               0.000000000               0.000000000               0.000220951               0.005860630              -0.000051102              -0.000649720               0.002170097               0.001520377               0.000000000               0.000000000               0.000000000               0.000000000               0.000178902               0.005686562              -0.000003890              -0.000643730               0.002110079               0.001466348               0.000000000               0.000000000               0.000000000               0.000000000               0.000144618               0.005538939               0.000022856              -0.000638134               0.002059006               0.001420872               0.000000000               0.000000000               0.000000000               0.000000000               0.000118670               0.005416165               0.000041758              -0.000632518               0.002016210               0.001383692               0.000000000               0.000000000               0.000000000               0.000000000               0.000096586               0.005313642               0.000055885              -0.000627984               0.001980524               0.001352540               0.000000000               0.000000000               0.000000000               0.000000000               0.000075079               0.005228131               0.000068016              -0.000625360               0.001951146               0.001325786               0.000000000               0.000000000               0.000000000               0.000000000               0.000059523               0.005153784               0.000077344              -0.000621900               0.001925211               0.001303311               0.000000000               0.000000000               0.000000000               0.000000000               0.000047456               0.005082618               0.000074247              -0.000617530               0.001900032               0.001282503               0.000000000               0.000000000               0.000000000               0.000000000               0.000033655               0.005014109               0.000062182              -0.000614142               0.001876067               0.001261925               0.000000000               0.000000000               0.000000000               0.000000000               0.000021418               0.004955849               0.000044633              -0.000611448               0.001855749               0.001244301               0.000000000               0.000000000               0.000000000               0.000000000               0.000010174               0.004910460               0.000021770              -0.000609991               0.001840134               0.001230143               0.000000000               0.000000000               0.000000000               0.000000000               0.000002044               0.004887018               0.000011678              -0.000610109               0.001832360               0.001222250               0.000000000               0.000000000               0.000000000               0.000000000               0.001763030               0.006611602              -0.002772536              -0.000165317               0.002258950               0.002093633               0.000000000               0.000000000               0.000000000               0.000000000               0.000909807               0.006251874              -0.001838001              -0.000440307               0.002230706               0.001790399               0.000000000               0.000000000               0.000000000               0.000000000               0.000319408               0.006244437              -0.000895169              -0.000660775               0.002301717               0.001640941               0.000000000               0.000000000               0.000000000               0.000000000               0.000112581               0.006056722              -0.000505570              -0.000714871               0.002257177               0.001542307               0.000000000               0.000000000               0.000000000               0.000000000               0.000045523               0.005855303              -0.000317112              -0.000714840               0.002190028               0.001475188               0.000000000               0.000000000               0.000000000               0.000000000               0.000021758               0.005677903              -0.000211255              -0.000701577               0.002126474               0.001424897               0.000000000               0.000000000               0.000000000               0.000000000               0.000013869               0.005527381              -0.000147818              -0.000685720               0.002071015               0.001385295               0.000000000               0.000000000               0.000000000               0.000000000               0.000013464               0.005393172              -0.000104976              -0.000669096               0.002020738               0.001351642               0.000000000               0.000000000               0.000000000               0.000000000               0.000014004               0.005274169              -0.000069719              -0.000654018               0.001976045               0.001322027               0.000000000               0.000000000               0.000000000               0.000000000               0.000013802               0.005170802              -0.000038721              -0.000641173               0.001937308               0.001296135               0.000000000               0.000000000               0.000000000               0.000000000               0.000013337               0.005080526              -0.000010389              -0.000630063               0.001903513               0.001273450               0.000000000               0.000000000               0.000000000               0.000000000               0.000013425               0.004993584               0.000009643              -0.000619162               0.001870899               0.001251737               0.000000000               0.000000000               0.000000000               0.000000000               0.000012830               0.004906978               0.000016391              -0.000608559               0.001838496               0.001229937               0.000000000               0.000000000               0.000000000               0.000000000               0.000008367               0.004826038               0.000016673              -0.000600116               0.001808702               0.001208586               0.000000000               0.000000000               0.000000000               0.000000000               0.000003090               0.004754483               0.000015067              -0.000593150               0.001782529               0.001189378               0.000000000               0.000000000               0.000000000               0.000000000               0.000001802               0.004694257               0.000008085              -0.000586105               0.001760105               0.001174000               0.000000000               0.000000000               0.000000000               0.000000000              -0.000005075               0.004654293               0.000007681              -0.000583688               0.001745978               0.001162290               0.000000000               0.000000000               0.000000000               0.000000000               0.001633425               0.005346875              -0.002550055              -0.000055828               0.001800882               0.001745054               0.000000000               0.000000000               0.000000000               0.000000000               0.000747992               0.005444680              -0.001818069              -0.000400089               0.001948237               0.001548149               0.000000000               0.000000000               0.000000000               0.000000000               0.000090794               0.005782197              -0.001042635              -0.000688726               0.002156955               0.001468229               0.000000000               0.000000000               0.000000000               0.000000000              -0.000079511               0.005729662              -0.000685517              -0.000746023               0.002158542               0.001412520               0.000000000               0.000000000               0.000000000               0.000000000              -0.000104101               0.005598246              -0.000488007              -0.000738817               0.002112336               0.001373519               0.000000000               0.000000000               0.000000000               0.000000000              -0.000093504               0.005463794              -0.000363432              -0.000718037               0.002060592               0.001342555               0.000000000               0.000000000               0.000000000               0.000000000              -0.000074408               0.005336071              -0.000281149              -0.000694910               0.002010309               0.001315399               0.000000000               0.000000000               0.000000000               0.000000000              -0.000052833               0.005215261              -0.000221428              -0.000671718               0.001962309               0.001290591               0.000000000               0.000000000               0.000000000               0.000000000              -0.000036708               0.005103143              -0.000166375              -0.000651657               0.001918249               0.001266593               0.000000000               0.000000000               0.000000000               0.000000000              -0.000025349               0.005001668              -0.000115843              -0.000634713               0.001878777               0.001244064               0.000000000               0.000000000               0.000000000               0.000000000              -0.000019080               0.004902144              -0.000072680              -0.000619922               0.001840672               0.001220751               0.000000000               0.000000000               0.000000000               0.000000000              -0.000016295               0.004799599              -0.000040192              -0.000606059               0.001801870               0.001195811               0.000000000               0.000000000               0.000000000               0.000000000              -0.000014936               0.004699101              -0.000018850              -0.000592987               0.001764014               0.001171026               0.000000000               0.000000000               0.000000000               0.000000000              -0.000017816               0.004607655              -0.000003955              -0.000582636               0.001730082               0.001147446               0.000000000               0.000000000               0.000000000               0.000000000              -0.000019463               0.004526211               0.000007359              -0.000573074               0.001699747               0.001126673               0.000000000               0.000000000               0.000000000               0.000000000              -0.000014260               0.004453978               0.000008818              -0.000562093               0.001672009               0.001109916               0.000000000               0.000000000               0.000000000               0.000000000              -0.000015031               0.004408380               0.000009830              -0.000556683               0.001655006               0.001098324               0.000000000               0.000000000               0.000000000               0.000000000               0.001450711               0.004249918              -0.002223523               0.000012774               0.001412366               0.001425140               0.000000000               0.000000000               0.000000000               0.000000000               0.000606481               0.004717890              -0.001761847              -0.000362307               0.001693383               0.001331076               0.000000000               0.000000000               0.000000000               0.000000000              -0.000056438               0.005348906              -0.001207337              -0.000689776               0.002012876               0.001323100               0.000000000               0.000000000               0.000000000               0.000000000              -0.000186916               0.005431381              -0.000875351              -0.000749015               0.002060114               0.001311099               0.000000000               0.000000000               0.000000000               0.000000000              -0.000176230               0.005375648              -0.000664442              -0.000738040               0.002037878               0.001299838               0.000000000               0.000000000               0.000000000               0.000000000              -0.000142388               0.005286649              -0.000519120              -0.000714225               0.002000274               0.001286049               0.000000000               0.000000000               0.000000000               0.000000000              -0.000104333               0.005183898              -0.000414225              -0.000687110               0.001956985               0.001269875               0.000000000               0.000000000               0.000000000               0.000000000              -0.000066469               0.005080665              -0.000331628              -0.000660008               0.001913541               0.001253533               0.000000000               0.000000000               0.000000000               0.000000000              -0.000045128               0.004979349              -0.000258403              -0.000639340               0.001872880               0.001233540               0.000000000               0.000000000               0.000000000               0.000000000              -0.000033025               0.004879324              -0.000193253              -0.000622298               0.001833858               0.001211559               0.000000000               0.000000000               0.000000000               0.000000000              -0.000026829               0.004773699              -0.000136754              -0.000606772               0.001793474               0.001186703               0.000000000               0.000000000               0.000000000               0.000000000              -0.000027167               0.004659242              -0.000091121              -0.000592591               0.001750596               0.001158004               0.000000000               0.000000000               0.000000000               0.000000000              -0.000030808               0.004547638              -0.000053713              -0.000580006               0.001709200               0.001129193               0.000000000               0.000000000               0.000000000               0.000000000              -0.000039399               0.004447390              -0.000023832              -0.000570697               0.001672681               0.001101984               0.000000000               0.000000000               0.000000000               0.000000000              -0.000051465               0.004353122              -0.000003342              -0.000563438               0.001638839               0.001075401               0.000000000               0.000000000               0.000000000               0.000000000              -0.000058446               0.004263666               0.000004831              -0.000554874               0.001606166               0.001051292               0.000000000               0.000000000               0.000000000               0.000000000              -0.000058685               0.004214880               0.000006569              -0.000548866               0.001587901               0.001039036               0.000000000               0.000000000               0.000000000               0.000000000               0.001190455               0.003214896              -0.001851335               0.000044556               0.001056768               0.001101324               0.000000000               0.000000000               0.000000000               0.000000000               0.000513662               0.003888789              -0.001684162              -0.000293476               0.001394075               0.001100598               0.000000000               0.000000000               0.000000000               0.000000000              -0.000091194               0.004728588              -0.001389622              -0.000625271               0.001784603               0.001159333               0.000000000               0.000000000               0.000000000               0.000000000              -0.000211955               0.004983067              -0.001099837              -0.000702365               0.001895127               0.001192762               0.000000000               0.000000000               0.000000000               0.000000000              -0.000192733               0.005043348              -0.000876933              -0.000702692               0.001915330               0.001212638               0.000000000               0.000000000               0.000000000               0.000000000              -0.000149216               0.005032913              -0.000707381              -0.000685069               0.001905977               0.001220908               0.000000000               0.000000000               0.000000000               0.000000000              -0.000110290               0.004987183              -0.000578565              -0.000664755               0.001883963               0.001219207               0.000000000               0.000000000               0.000000000               0.000000000              -0.000072226               0.004920236              -0.000470591              -0.000642113               0.001854100               0.001211987               0.000000000               0.000000000               0.000000000               0.000000000              -0.000048245               0.004841084              -0.000377729              -0.000623226               0.001821421               0.001198195               0.000000000               0.000000000               0.000000000               0.000000000              -0.000039630               0.004759900              -0.000298642              -0.000609847               0.001789900               0.001180053               0.000000000               0.000000000               0.000000000               0.000000000              -0.000037277               0.004670346              -0.000229570              -0.000597771               0.001756023               0.001158253               0.000000000               0.000000000               0.000000000               0.000000000              -0.000040263               0.004568281              -0.000168967              -0.000586132               0.001718123               0.001131990               0.000000000               0.000000000               0.000000000               0.000000000              -0.000049881               0.004464940              -0.000113362              -0.000576821               0.001680572               0.001103751               0.000000000               0.000000000               0.000000000               0.000000000              -0.000066431               0.004365592              -0.000064968              -0.000570609               0.001645386               0.001074777               0.000000000               0.000000000               0.000000000               0.000000000              -0.000090804               0.004271605              -0.000027845              -0.000568001               0.001613188               0.001045187               0.000000000               0.000000000               0.000000000               0.000000000              -0.000118498               0.004178205              -0.000006777              -0.000566711               0.001581625               0.001014914               0.000000000               0.000000000               0.000000000               0.000000000              -0.000132993               0.004126095               0.000000522              -0.000565633               0.001563895               0.000998263               0.000000000               0.000000000               0.000000000               0.000000000               0.000788863               0.002266843              -0.001450020               0.000012466               0.000751451               0.000763917               0.000000000               0.000000000               0.000000000               0.000000000               0.000400740               0.003069057              -0.001558185              -0.000233356               0.001100793               0.000867438               0.000000000               0.000000000               0.000000000               0.000000000              -0.000057827               0.004033893              -0.001525887              -0.000525922               0.001519924               0.000994003               0.000000000               0.000000000               0.000000000               0.000000000              -0.000166821               0.004452513              -0.001312775              -0.000619121               0.001690530               0.001071408               0.000000000               0.000000000               0.000000000               0.000000000              -0.000158947               0.004639764              -0.001097094              -0.000639575               0.001759764               0.001120189               0.000000000               0.000000000               0.000000000               0.000000000              -0.000119384               0.004723829              -0.000913663              -0.000635247               0.001786343               0.001151096               0.000000000               0.000000000               0.000000000               0.000000000              -0.000085785               0.004752880              -0.000764677              -0.000626278               0.001793037               0.001166759               0.000000000               0.000000000               0.000000000               0.000000000              -0.000056790               0.004740273              -0.000637790              -0.000613829               0.001784685               0.001170856               0.000000000               0.000000000               0.000000000               0.000000000              -0.000031298               0.004702601              -0.000527817              -0.000599561               0.001767371               0.001167811               0.000000000               0.000000000               0.000000000               0.000000000              -0.000019689               0.004649648              -0.000436009              -0.000588588               0.001746063               0.001157475               0.000000000               0.000000000               0.000000000               0.000000000              -0.000016661               0.004582619              -0.000359124              -0.000579074               0.001720549               0.001141475               0.000000000               0.000000000               0.000000000               0.000000000              -0.000019521               0.004505231              -0.000286469              -0.000570473               0.001691886               0.001121414               0.000000000               0.000000000               0.000000000               0.000000000              -0.000032112               0.004420577              -0.000214554              -0.000564613               0.001661715               0.001097102               0.000000000               0.000000000               0.000000000               0.000000000              -0.000059016               0.004330687              -0.000145843              -0.000563466               0.001631370               0.001067904               0.000000000               0.000000000               0.000000000               0.000000000              -0.000100240               0.004244457              -0.000084527              -0.000568146               0.001604187               0.001036041               0.000000000               0.000000000               0.000000000               0.000000000              -0.000158445               0.004161328              -0.000035790              -0.000579582               0.001580289               0.001000708               0.000000000               0.000000000               0.000000000               0.000000000              -0.000202559               0.004110925              -0.000010627              -0.000589824               0.001566902               0.000977079               0.000000000               0.000000000               0.000000000               0.000000000               0.000273569               0.001454113              -0.001039432              -0.000079177               0.000511091               0.000431914               0.000000000               0.000000000               0.000000000               0.000000000               0.000230621               0.002290566              -0.001364240              -0.000199839               0.000830126               0.000630288               0.000000000               0.000000000               0.000000000               0.000000000               0.000001884               0.003268556              -0.001550814              -0.000407864               0.001225462               0.000817598               0.000000000               0.000000000               0.000000000               0.000000000              -0.000058338               0.003802478              -0.001432802              -0.000497186               0.001433208               0.000936022               0.000000000               0.000000000               0.000000000               0.000000000              -0.000053685               0.004108126              -0.001249868              -0.000533647               0.001547244               0.001013597               0.000000000               0.000000000               0.000000000               0.000000000              -0.000026231               0.004295240              -0.001070463              -0.000546741               0.001613979               0.001067238               0.000000000               0.000000000               0.000000000               0.000000000              -0.000004914               0.004408642              -0.000915586              -0.000552922               0.001653840               0.001100918               0.000000000               0.000000000               0.000000000               0.000000000               0.000010780               0.004467382              -0.000781373              -0.000554379               0.001673906               0.001119526               0.000000000               0.000000000               0.000000000               0.000000000               0.000028046               0.004483614              -0.000664822              -0.000549934               0.001677834               0.001127901               0.000000000               0.000000000               0.000000000               0.000000000               0.000040664               0.004469808              -0.000567831              -0.000543476               0.001671080               0.001127604               0.000000000               0.000000000               0.000000000               0.000000000               0.000044779               0.004439989              -0.000485971              -0.000538205               0.001659383               0.001121178               0.000000000               0.000000000               0.000000000               0.000000000               0.000041315               0.004401190              -0.000406092              -0.000534654               0.001645267               0.001110612               0.000000000               0.000000000               0.000000000               0.000000000               0.000028907               0.004353546              -0.000322701              -0.000533352               0.001628951               0.001095600               0.000000000               0.000000000               0.000000000               0.000000000              -0.000000011               0.004291794              -0.000238993              -0.000536477               0.001609410               0.001072932               0.000000000               0.000000000               0.000000000               0.000000000              -0.000049626               0.004221059              -0.000154926              -0.000546241               0.001589086               0.001042845               0.000000000               0.000000000               0.000000000               0.000000000              -0.000126478               0.004150731              -0.000074136              -0.000566269               0.001572320               0.001006050               0.000000000               0.000000000               0.000000000               0.000000000              -0.000192978               0.004102668              -0.000028572              -0.000585199               0.001562608               0.000977410               0.000000000               0.000000000               0.000000000               0.000000000              -0.000315824               0.000812990              -0.000663182              -0.000220058               0.000344346               0.000124288               0.000000000               0.000000000               0.000000000               0.000000000               0.000015802               0.001586399              -0.001117760              -0.000192375               0.000592919               0.000400544               0.000000000               0.000000000               0.000000000               0.000000000               0.000071435               0.002483617              -0.001452387              -0.000283665               0.000922418               0.000638754               0.000000000               0.000000000               0.000000000               0.000000000               0.000096610               0.003081698              -0.001423087              -0.000348984               0.001143550               0.000794566               0.000000000               0.000000000               0.000000000               0.000000000               0.000113952               0.003484038              -0.001288089              -0.000392773               0.001292258               0.000899485               0.000000000               0.000000000               0.000000000               0.000000000               0.000130419               0.003767364              -0.001129644              -0.000422013               0.001396446               0.000974433               0.000000000               0.000000000               0.000000000               0.000000000               0.000138933               0.003968394              -0.000984105              -0.000443949               0.001470768               0.001026819               0.000000000               0.000000000               0.000000000               0.000000000               0.000142313               0.004102694              -0.000859261              -0.000459469               0.001520707               0.001061238               0.000000000               0.000000000               0.000000000               0.000000000               0.000146980               0.004183376              -0.000749747              -0.000467804               0.001550379               0.001082575               0.000000000               0.000000000               0.000000000               0.000000000               0.000150950               0.004225926              -0.000655932              -0.000471634               0.001565839               0.001094205               0.000000000               0.000000000               0.000000000               0.000000000               0.000150308               0.004246066              -0.000574567              -0.000474392               0.001573472               0.001099080               0.000000000               0.000000000               0.000000000               0.000000000               0.000144260               0.004251955              -0.000494154              -0.000477396               0.001576436               0.001099040               0.000000000               0.000000000               0.000000000               0.000000000               0.000135967               0.004249870              -0.000408851              -0.000480245               0.001576691               0.001096446               0.000000000               0.000000000               0.000000000               0.000000000               0.000117209               0.004227941              -0.000318866              -0.000484538               0.001570812               0.001086274               0.000000000               0.000000000               0.000000000               0.000000000               0.000078393               0.004184565              -0.000220043              -0.000493672               0.001559398               0.001065726               0.000000000               0.000000000               0.000000000               0.000000000               0.000014388               0.004135215              -0.000112342              -0.000511505               0.001548893               0.001037388               0.000000000               0.000000000               0.000000000               0.000000000              -0.000047865               0.004097018              -0.000050442              -0.000530075               0.001542351               0.001012275               0.000000000               0.000000000               0.000000000               0.000000000              -0.000908516               0.000349332              -0.000360117              -0.000384360               0.000244562              -0.000139798               0.000000000               0.000000000               0.000000000               0.000000000              -0.000219773               0.000996355              -0.000838389              -0.000206960               0.000401101               0.000194141               0.000000000               0.000000000               0.000000000               0.000000000               0.000136405               0.001754746              -0.001228237              -0.000168192               0.000640973               0.000472781               0.000000000               0.000000000               0.000000000               0.000000000               0.000266417               0.002370925              -0.001263688              -0.000196460               0.000855786               0.000659326               0.000000000               0.000000000               0.000000000               0.000000000               0.000312833               0.002839505              -0.001176961              -0.000237626               0.001025700               0.000788074               0.000000000               0.000000000               0.000000000               0.000000000               0.000327521               0.003199911              -0.001053025              -0.000277169               0.001159015               0.000881847               0.000000000               0.000000000               0.000000000               0.000000000               0.000330185               0.003478987              -0.000932037              -0.000311054               0.001263335               0.000952281               0.000000000               0.000000000               0.000000000               0.000000000               0.000322113               0.003686182              -0.000826821              -0.000339980               0.001342042               0.001002062               0.000000000               0.000000000               0.000000000               0.000000000               0.000312166               0.003834418              -0.000734188              -0.000362239               0.001398873               0.001036634               0.000000000               0.000000000               0.000000000               0.000000000               0.000304534               0.003938096              -0.000653146              -0.000378061               0.001438706               0.001060645               0.000000000               0.000000000               0.000000000               0.000000000               0.000298018               0.004010539              -0.000580775              -0.000389560               0.001466686               0.001077126               0.000000000               0.000000000               0.000000000               0.000000000               0.000291599               0.004062254              -0.000509850              -0.000398431               0.001486882               0.001088450               0.000000000               0.000000000               0.000000000               0.000000000               0.000288787               0.004105616              -0.000434194              -0.000404906               0.001503494               0.001098588               0.000000000               0.000000000               0.000000000               0.000000000               0.000283686               0.004127366              -0.000349294              -0.000409538               0.001512287               0.001102750               0.000000000               0.000000000               0.000000000               0.000000000               0.000269940               0.004122384              -0.000251755              -0.000414070               0.001512137               0.001098068               0.000000000               0.000000000               0.000000000               0.000000000               0.000245733               0.004106925              -0.000134290              -0.000421215               0.001509366               0.001088152               0.000000000               0.000000000               0.000000000               0.000000000               0.000219350               0.004091589              -0.000066355              -0.000429191               0.001506913               0.001077722               0.000000000               0.000000000               0.000000000               0.000000000              -0.001413889               0.000059033              -0.000154430              -0.000537587               0.000198872              -0.000338715               0.000000000               0.000000000               0.000000000               0.000000000              -0.000438041               0.000562728              -0.000547547              -0.000234606               0.000265776               0.000031169               0.000000000               0.000000000               0.000000000               0.000000000               0.000184724               0.001166659              -0.000888445              -0.000076562               0.000414402               0.000337841               0.000000000               0.000000000               0.000000000               0.000000000               0.000419379               0.001761773              -0.000951660              -0.000062956               0.000608236               0.000545281               0.000000000               0.000000000               0.000000000               0.000000000               0.000503506               0.002266404              -0.000906403              -0.000094486               0.000786956               0.000692469               0.000000000               0.000000000               0.000000000               0.000000000               0.000526139               0.002679249              -0.000824428              -0.000137605               0.000938942               0.000801337               0.000000000               0.000000000               0.000000000               0.000000000               0.000525050               0.003014509              -0.000737254              -0.000179920               0.001064800               0.000884880               0.000000000               0.000000000               0.000000000               0.000000000               0.000510059               0.003282863              -0.000658813              -0.000219086               0.001167305               0.000948220               0.000000000               0.000000000               0.000000000               0.000000000               0.000490403               0.003488942              -0.000590478              -0.000252216               0.001247041               0.000994825               0.000000000               0.000000000               0.000000000               0.000000000               0.000470509               0.003645082              -0.000530267              -0.000279194               0.001308080               0.001028886               0.000000000               0.000000000               0.000000000               0.000000000               0.000456089               0.003768190              -0.000476357              -0.000299990               0.001356047               0.001056057               0.000000000               0.000000000               0.000000000               0.000000000               0.000448816               0.003866954              -0.000422680              -0.000315062               0.001393993               0.001078930               0.000000000               0.000000000               0.000000000               0.000000000               0.000450210               0.003953287              -0.000365385              -0.000325331               0.001426193               0.001100862               0.000000000               0.000000000               0.000000000               0.000000000               0.000460284               0.004021628              -0.000300357              -0.000330096               0.001450561               0.001120465               0.000000000               0.000000000               0.000000000               0.000000000               0.000478526               0.004062138              -0.000222501              -0.000328319               0.001463472               0.001135153               0.000000000               0.000000000               0.000000000               0.000000000               0.000507097               0.004079682              -0.000122889              -0.000319798               0.001466480               0.001146682               0.000000000               0.000000000               0.000000000               0.000000000               0.000533505               0.004086217              -0.000066630              -0.000310712               0.001465629               0.001154917               0.000000000               0.000000000               0.000000000               0.000000000              -0.001753304              -0.000087283              -0.000046968              -0.000646578               0.000186430              -0.000460148               0.000000000               0.000000000               0.000000000               0.000000000              -0.000595824               0.000305183              -0.000267028              -0.000261582               0.000188920              -0.000072662               0.000000000               0.000000000               0.000000000               0.000000000               0.000211461               0.000788252              -0.000464727              -0.000019234               0.000269159               0.000249925               0.000000000               0.000000000               0.000000000               0.000000000               0.000529606               0.001351144              -0.000511756               0.000029708               0.000440474               0.000470182               0.000000000               0.000000000               0.000000000               0.000000000               0.000644724               0.001867771              -0.000494781               0.000008299               0.000619818               0.000628117               0.000000000               0.000000000               0.000000000               0.000000000               0.000676809               0.002308136              -0.000454221              -0.000034714               0.000780942               0.000746229               0.000000000               0.000000000               0.000000000               0.000000000               0.000673597               0.002674328              -0.000408936              -0.000081692               0.000918664               0.000836972               0.000000000               0.000000000               0.000000000               0.000000000               0.000655291               0.002977048              -0.000367562              -0.000126397               0.001034471               0.000908075               0.000000000               0.000000000               0.000000000               0.000000000               0.000627063               0.003222520              -0.000329852              -0.000167666               0.001130051               0.000962385               0.000000000               0.000000000               0.000000000               0.000000000               0.000597694               0.003423422              -0.000296551              -0.000203792               0.001209060               0.001005268               0.000000000               0.000000000               0.000000000               0.000000000               0.000572222               0.003587376              -0.000268234              -0.000233838               0.001273726               0.001039888               0.000000000               0.000000000               0.000000000               0.000000000               0.000558904               0.003726565              -0.000239346              -0.000256231               0.001327586               0.001071355               0.000000000               0.000000000               0.000000000               0.000000000               0.000564609               0.003849826              -0.000207700              -0.000269499               0.001373096               0.001103596               0.000000000               0.000000000               0.000000000               0.000000000               0.000590403               0.003948638              -0.000172286              -0.000272178               0.001406926               0.001134748               0.000000000               0.000000000               0.000000000               0.000000000               0.000640477               0.004020163              -0.000129250              -0.000262341               0.001427488               0.001165147               0.000000000               0.000000000               0.000000000               0.000000000               0.000722429               0.004063882              -0.000072944              -0.000237074               0.001433638               0.001196565               0.000000000               0.000000000               0.000000000               0.000000000               0.000798475               0.004087020              -0.000042053              -0.000211449               0.001432809               0.001221360               0.000000000               0.000000000               0.000000000               0.000000000               0.000000000               0.000000000               0.000000000               0.000000000               0.000000000               0.000000000               0.000000000               0.000000000               0.000000000               0.000000000               0.000000000               0.000000000               0.000000000               0.000000000               0.000000000               0.000000000               0.000000000               0.000000000               0.000000000               0.000000000               0.000000000               0.000000000               0.000000000               0.000000000               0.000000000               0.000000000               0.000000000               0.000000000               0.000000000               0.000000000               0.000000000               0.000000000               0.000000000               0.000000000               0.000000000               0.000000000               0.000000000               0.000000000               0.000000000               0.000000000               0.000000000               0.000000000               0.000000000               0.000000000               0.000000000               0.000000000               0.000000000               0.000000000               0.000000000               0.000000000               0.000000000               0.000000000               0.000000000               0.000000000               0.000000000               0.000000000               0.000000000               0.000000000               0.000000000               0.000000000               0.000000000               0.000000000               0.000000000               0.000000000               0.000000000               0.000000000               0.000000000               0.000000000               0.000000000               0.000000000               0.000000000               0.000000000               0.000000000               0.000000000               0.000000000               0.000000000               0.000000000               0.000000000               0.000000000               0.000000000               0.000000000               0.000000000               0.000000000               0.000000000               0.000000000               0.000000000               0.000000000               0.000000000               0.000000000               0.000000000               0.000000000               0.000000000               0.000000000               0.000000000               0.000000000               0.000000000               0.000000000               0.000000000               0.000000000               0.000000000               0.000000000               0.000000000               0.000000000               0.000000000               0.000000000               0.000000000               0.000000000               0.000000000               0.000000000               0.000000000               0.000000000               0.000000000               0.000000000               0.000000000               0.000000000               0.000000000               0.000000000               0.000000000               0.000000000               0.000000000               0.000000000               0.000000000               0.000000000               0.000000000               0.000000000               0.000000000               0.000000000               0.000000000               0.000000000               0.000000000               0.000000000               0.000000000               0.000000000               0.000000000               0.000000000               0.000000000               0.000000000               0.000000000               0.000000000               0.000000000               0.000000000               0.000000000               0.000000000               0.000000000               0.000000000               0.000000000               0.000000000               0.000000000               0.000000000               0.000000000               0.000000000               0.000000000               0.000000000               0.000000000               0.000000000               0.000000000               0.000000000               0.000000000               0.000000000               0.000000000               0.000000000               0.000000000               0.000000000               0.000000000               0.000000000               0.000000000               0.000000000               0.000000000               0.000000000               0.000000000               0.000000000               0.000000000               0.000000000               0.000000000               0.000000000               0.000000000               0.000000000               0.000000000               0.000000000               0.000000000               0.000000000               0.000000000               0.000000000               0.000000000               0.000000000               0.000000000               0.000000000               0.000000000               0.000000000               0.000000000               0.000000000               0.000000000               0.000000000               0.000000000               0.000000000               0.000000000               0.000000000               0.000000000               0.000000000               0.000000000               0.000000000               0.000000000               0.000000000               0.000000000               0.000000000               0.000000000               0.000000000               0.000000000               0.000000000               0.000000000               0.000000000               0.000000000               0.000000000               0.000000000               0.000000000               0.000000000               0.000000000               0.000000000               0.000000000               0.000000000               0.000000000               0.000000000               0.000000000               0.000000000               0.000000000               0.000000000               0.000000000               0.000000000               0.000000000               0.000000000               0.000000000               0.000000000               0.000000000               0.000000000               0.000000000               0.000000000               0.000000000               0.000000000               0.000000000               0.000000000               0.000000000               0.000000000               0.000000000               0.000000000               0.000000000               0.000000000               0.000000000               0.000000000               0.000000000               0.000000000               0.000000000               0.000000000               0.000000000               0.000000000               0.000000000               0.000000000               0.000000000               0.000000000               0.000000000               0.000000000               0.000000000               0.000000000               0.000000000               0.000000000               0.000000000               0.000000000               0.000000000               0.000000000               0.000000000               0.000000000               0.000000000               0.000000000               0.000000000               0.000000000               0.000000000               0.000000000               0.000000000               0.000000000               0.000000000               0.000000000               0.000000000               0.000000000               0.000000000               0.000000000               0.000000000               0.000000000               0.000000000               0.000000000               0.000000000               0.000000000               0.000000000               0.000000000               0.000000000               0.000000000               0.000000000               0.000000000               0.000000000               0.000000000               0.000000000               0.000000000               0.000000000               0.000000000               0.000000000               0.000000000               0.000000000               0.000000000               0.000000000               0.000000000               0.000000000               0.000000000               0.000000000               0.000000000               0.000000000               0.000000000               0.000000000               0.000000000               0.000000000               0.000000000               0.000000000               0.000000000               0.000000000               0.000000000               0.000000000               0.000000000               0.000000000               0.000000000               0.000000000               0.000000000               0.000000000               0.000000000               0.000000000               0.000000000               0.000000000               0.000000000               0.000000000               0.000000000               0.000000000               0.000000000               0.000000000               0.000000000               0.001158701               0.012151946               0.000896368              -0.001084478               0.004412101               0.003327623               0.000000000               0.000000000               0.000000000               0.000000000               0.001188980               0.009906099               0.000530312              -0.000792393               0.003566131               0.002773738               0.000000000               0.000000000               0.000000000               0.000000000               0.001582174               0.008126830               0.000157429              -0.000422537               0.002849762               0.002427225               0.000000000               0.000000000               0.000000000               0.000000000               0.001597096               0.007154852              -0.000009347              -0.000295445               0.002483409               0.002187964               0.000000000               0.000000000               0.000000000               0.000000000               0.001486867               0.006577593              -0.000083465              -0.000264623               0.002280717               0.002016093               0.000000000               0.000000000               0.000000000               0.000000000               0.001347366               0.006208794              -0.000114120              -0.000270836               0.002159856               0.001889020               0.000000000               0.000000000               0.000000000               0.000000000               0.001200396               0.005957229              -0.000126757              -0.000294505               0.002083891               0.001789387               0.000000000               0.000000000               0.000000000               0.000000000               0.001053466               0.005781100              -0.000131700              -0.000327587               0.002036210               0.001708623               0.000000000               0.000000000               0.000000000               0.000000000               0.000912074               0.005654511              -0.000129781              -0.000364785               0.002006413               0.001641628               0.000000000               0.000000000               0.000000000               0.000000000               0.000776437               0.005557736              -0.000124264              -0.000403552               0.001987078               0.001583525               0.000000000               0.000000000               0.000000000               0.000000000               0.000648418               0.005477868              -0.000117889              -0.000441576               0.001973130               0.001531554               0.000000000               0.000000000               0.000000000               0.000000000               0.000527612               0.005410252              -0.000111793              -0.000478426               0.001962874               0.001484449               0.000000000               0.000000000               0.000000000               0.000000000               0.000408907               0.005349630              -0.000104659              -0.000515362               0.001954980               0.001439617               0.000000000               0.000000000               0.000000000               0.000000000               0.000292234               0.005288556              -0.000093836              -0.000551480               0.001946661               0.001395181               0.000000000               0.000000000               0.000000000               0.000000000               0.000182332               0.005220674              -0.000076951              -0.000584208               0.001934943               0.001350735               0.000000000               0.000000000               0.000000000               0.000000000               0.000083699               0.005139737              -0.000046066              -0.000611079               0.001916922               0.001305843               0.000000000               0.000000000               0.000000000               0.000000000               0.000032865               0.005079199              -0.000027063              -0.000622574               0.001900574               0.001278000               0.000000000               0.000000000               0.000000000               0.000000000               0.001304386               0.011493416               0.001689526              -0.000947531               0.004146944               0.003199413               0.000000000               0.000000000               0.000000000               0.000000000               0.001189483               0.009464626               0.001006558              -0.000737021               0.003400517               0.002663497               0.000000000               0.000000000               0.000000000               0.000000000               0.001423911               0.007905062               0.000313709              -0.000454165               0.002786383               0.002332218               0.000000000               0.000000000               0.000000000               0.000000000               0.001378400               0.007038691               0.000009381              -0.000362935               0.002467185               0.002104250               0.000000000               0.000000000               0.000000000               0.000000000               0.001254795               0.006509863              -0.000123659              -0.000343184               0.002284327               0.001941144               0.000000000               0.000000000               0.000000000               0.000000000               0.001120691               0.006161192              -0.000177666              -0.000349889               0.002170340               0.001820451               0.000000000               0.000000000               0.000000000               0.000000000               0.000986202               0.005920722              -0.000199501              -0.000370264               0.002096975               0.001726712               0.000000000               0.000000000               0.000000000               0.000000000               0.000855893               0.005749566              -0.000207984              -0.000397735               0.002049081               0.001651346               0.000000000               0.000000000               0.000000000               0.000000000               0.000734260               0.005624174              -0.000205462              -0.000427673               0.002017264               0.001589590               0.000000000               0.000000000               0.000000000               0.000000000               0.000616085               0.005524785              -0.000194581              -0.000459565               0.001994765               0.001535200               0.000000000               0.000000000               0.000000000               0.000000000               0.000502714               0.005442230              -0.000182096              -0.000491760               0.001977978               0.001486219               0.000000000               0.000000000               0.000000000               0.000000000               0.000398511               0.005374453              -0.000171940              -0.000522364               0.001965587               0.001443224               0.000000000               0.000000000               0.000000000               0.000000000               0.000300012               0.005313906              -0.000159286              -0.000551732               0.001955195               0.001403463               0.000000000               0.000000000               0.000000000               0.000000000               0.000209202               0.005254716              -0.000139098              -0.000578387               0.001944350               0.001365963               0.000000000               0.000000000               0.000000000               0.000000000               0.000129916               0.005195486              -0.000108971              -0.000600716               0.001932050               0.001331334               0.000000000               0.000000000               0.000000000               0.000000000               0.000059840               0.005134232              -0.000062842              -0.000619338               0.001917839               0.001298502               0.000000000               0.000000000               0.000000000               0.000000000               0.000024538               0.005095932              -0.000036324              -0.000627788               0.001907890               0.001280102               0.000000000               0.000000000               0.000000000               0.000000000               0.001501351               0.010497143               0.002303784              -0.000749136               0.003748724               0.002999588               0.000000000               0.000000000               0.000000000               0.000000000               0.001179650               0.008793462               0.001389259              -0.000656813               0.003150062               0.002493249               0.000000000               0.000000000               0.000000000               0.000000000               0.001189128               0.007562653               0.000469077              -0.000499408               0.002687328               0.002187921               0.000000000               0.000000000               0.000000000               0.000000000               0.001068309               0.006850959               0.000075796              -0.000455753               0.002435548               0.001979795               0.000000000               0.000000000               0.000000000               0.000000000               0.000933646               0.006394870              -0.000094780              -0.000449240               0.002281349               0.001832109               0.000000000               0.000000000               0.000000000               0.000000000               0.000813579               0.006086418              -0.000165421              -0.000455709               0.002180689               0.001724980               0.000000000               0.000000000               0.000000000               0.000000000               0.000704196               0.005871585              -0.000195722              -0.000469873               0.002113800               0.001643926               0.000000000               0.000000000               0.000000000               0.000000000               0.000600387               0.005711995              -0.000207764              -0.000488853               0.002066930               0.001578077               0.000000000               0.000000000               0.000000000               0.000000000               0.000504489               0.005585162              -0.000205789              -0.000508961               0.002031356               0.001522395               0.000000000               0.000000000               0.000000000               0.000000000               0.000414250               0.005480072              -0.000195910              -0.000529664               0.002003227               0.001473563               0.000000000               0.000000000               0.000000000               0.000000000               0.000329279               0.005395752              -0.000187154              -0.000550988               0.001982229               0.001431241               0.000000000               0.000000000               0.000000000               0.000000000               0.000252619               0.005328440              -0.000179670              -0.000571322               0.001966570               0.001395248               0.000000000               0.000000000               0.000000000               0.000000000               0.000182721               0.005269139              -0.000166516              -0.000590120               0.001953069               0.001362949               0.000000000               0.000000000               0.000000000               0.000000000               0.000120223               0.005213732              -0.000144840              -0.000606631               0.001940104               0.001333472               0.000000000               0.000000000               0.000000000               0.000000000               0.000071696               0.005164818              -0.000112245              -0.000618715               0.001927827               0.001309112               0.000000000               0.000000000               0.000000000               0.000000000               0.000033441               0.005123920              -0.000063217              -0.000627948               0.001917272               0.001289324               0.000000000               0.000000000               0.000000000               0.000000000               0.000014895               0.005103527              -0.000034840              -0.000632354               0.001911943               0.001279590               0.000000000               0.000000000               0.000000000               0.000000000               0.001681236               0.009277445               0.002688655              -0.000529218               0.003268856               0.002739638               0.000000000               0.000000000               0.000000000               0.000000000               0.001134476               0.007980882               0.001649499              -0.000572182               0.002850994               0.002278813               0.000000000               0.000000000               0.000000000               0.000000000               0.000903867               0.007149870               0.000613958              -0.000554783               0.002568194               0.002013411               0.000000000               0.000000000               0.000000000               0.000000000               0.000720975               0.006621806               0.000185365              -0.000557359               0.002393033               0.001835674               0.000000000               0.000000000               0.000000000               0.000000000               0.000589825               0.006253751              -0.000001809              -0.000560533               0.002271407               0.001710874               0.000000000               0.000000000               0.000000000               0.000000000               0.000495883               0.005993009              -0.000084657              -0.000563169               0.002185372               0.001622204               0.000000000               0.000000000               0.000000000               0.000000000               0.000420149               0.005802426              -0.000121921              -0.000567746               0.002123371               0.001555625               0.000000000               0.000000000               0.000000000               0.000000000               0.000348013               0.005647298              -0.000138375              -0.000575406               0.002074216               0.001498810               0.000000000               0.000000000               0.000000000               0.000000000               0.000285397               0.005518416              -0.000143155              -0.000582777               0.002033712               0.001450936               0.000000000               0.000000000               0.000000000               0.000000000               0.000230926               0.005415756              -0.000142331              -0.000590371               0.002002024               0.001411653               0.000000000               0.000000000               0.000000000               0.000000000               0.000179369               0.005332238              -0.000142778              -0.000599265               0.001977150               0.001377885               0.000000000               0.000000000               0.000000000               0.000000000               0.000135176               0.005263196              -0.000142709              -0.000607207               0.001956783               0.001349576               0.000000000               0.000000000               0.000000000               0.000000000               0.000097723               0.005202695              -0.000133599              -0.000613689               0.001938778               0.001325088               0.000000000               0.000000000               0.000000000               0.000000000               0.000064074               0.005145557              -0.000114919              -0.000619165               0.001921557               0.001302391               0.000000000               0.000000000               0.000000000               0.000000000               0.000038922               0.005097443              -0.000086974              -0.000622583               0.001906658               0.001284075               0.000000000               0.000000000               0.000000000               0.000000000               0.000018020               0.005062756              -0.000046829              -0.000626085               0.001896264               0.001270178               0.000000000               0.000000000               0.000000000               0.000000000               0.000008105               0.005050768              -0.000023576              -0.000628305               0.001893007               0.001264703               0.000000000               0.000000000               0.000000000               0.000000000               0.001781724               0.007948158               0.002833985              -0.000325376               0.002757817               0.002432442               0.000000000               0.000000000               0.000000000               0.000000000               0.001041994               0.007112936               0.001789774              -0.000498370               0.002537078               0.002038708               0.000000000               0.000000000               0.000000000               0.000000000               0.000600307               0.006705504               0.000752077              -0.000613072               0.002439503               0.001826431               0.000000000               0.000000000               0.000000000               0.000000000               0.000388187               0.006358797               0.000331434              -0.000649278               0.002336004               0.001686726               0.000000000               0.000000000               0.000000000               0.000000000               0.000283117               0.006079800               0.000143407              -0.000653804               0.002244515               0.001590710               0.000000000               0.000000000               0.000000000               0.000000000               0.000220951               0.005860630               0.000051102              -0.000649720               0.002170097               0.001520377               0.000000000               0.000000000               0.000000000               0.000000000               0.000178902               0.005686562               0.000003890              -0.000643730               0.002110079               0.001466348               0.000000000               0.000000000               0.000000000               0.000000000               0.000144618               0.005538939              -0.000022856              -0.000638134               0.002059006               0.001420872               0.000000000               0.000000000               0.000000000               0.000000000               0.000118670               0.005416165              -0.000041758              -0.000632518               0.002016210               0.001383692               0.000000000               0.000000000               0.000000000               0.000000000               0.000096586               0.005313642              -0.000055885              -0.000627984               0.001980524               0.001352540               0.000000000               0.000000000               0.000000000               0.000000000               0.000075079               0.005228131              -0.000068016              -0.000625360               0.001951146               0.001325786               0.000000000               0.000000000               0.000000000               0.000000000               0.000059523               0.005153784              -0.000077344              -0.000621900               0.001925211               0.001303311               0.000000000               0.000000000               0.000000000               0.000000000               0.000047456               0.005082618              -0.000074247              -0.000617530               0.001900032               0.001282503               0.000000000               0.000000000               0.000000000               0.000000000               0.000033655               0.005014109              -0.000062182              -0.000614142               0.001876067               0.001261925               0.000000000               0.000000000               0.000000000               0.000000000               0.000021418               0.004955849              -0.000044633              -0.000611448               0.001855749               0.001244301               0.000000000               0.000000000               0.000000000               0.000000000               0.000010174               0.004910460              -0.000021770              -0.000609991               0.001840134               0.001230143               0.000000000               0.000000000               0.000000000               0.000000000               0.000002044               0.004887018              -0.000011678              -0.000610109               0.001832360               0.001222250               0.000000000               0.000000000               0.000000000               0.000000000               0.001763030               0.006611602               0.002772536              -0.000165317               0.002258950               0.002093633               0.000000000               0.000000000               0.000000000               0.000000000               0.000909807               0.006251874               0.001838001              -0.000440307               0.002230706               0.001790399               0.000000000               0.000000000               0.000000000               0.000000000               0.000319408               0.006244437               0.000895169              -0.000660775               0.002301717               0.001640941               0.000000000               0.000000000               0.000000000               0.000000000               0.000112581               0.006056722               0.000505570              -0.000714871               0.002257177               0.001542307               0.000000000               0.000000000               0.000000000               0.000000000               0.000045523               0.005855303               0.000317112              -0.000714840               0.002190028               0.001475188               0.000000000               0.000000000               0.000000000               0.000000000               0.000021758               0.005677903               0.000211255              -0.000701577               0.002126474               0.001424897               0.000000000               0.000000000               0.000000000               0.000000000               0.000013869               0.005527381               0.000147818              -0.000685720               0.002071015               0.001385295               0.000000000               0.000000000               0.000000000               0.000000000               0.000013464               0.005393172               0.000104976              -0.000669096               0.002020738               0.001351642               0.000000000               0.000000000               0.000000000               0.000000000               0.000014004               0.005274169               0.000069719              -0.000654018               0.001976045               0.001322027               0.000000000               0.000000000               0.000000000               0.000000000               0.000013802               0.005170802               0.000038721              -0.000641173               0.001937308               0.001296135               0.000000000               0.000000000               0.000000000               0.000000000               0.000013337               0.005080526               0.000010389              -0.000630063               0.001903513               0.001273450               0.000000000               0.000000000               0.000000000               0.000000000               0.000013425               0.004993584              -0.000009643              -0.000619162               0.001870899               0.001251737               0.000000000               0.000000000               0.000000000               0.000000000               0.000012830               0.004906978              -0.000016391              -0.000608559               0.001838496               0.001229937               0.000000000               0.000000000               0.000000000               0.000000000               0.000008367               0.004826038              -0.000016673              -0.000600116               0.001808702               0.001208586               0.000000000               0.000000000               0.000000000               0.000000000               0.000003090               0.004754483              -0.000015067              -0.000593150               0.001782529               0.001189378               0.000000000               0.000000000               0.000000000               0.000000000               0.000001802               0.004694257              -0.000008085              -0.000586105               0.001760105               0.001174000               0.000000000               0.000000000               0.000000000               0.000000000              -0.000005075               0.004654293              -0.000007681              -0.000583688               0.001745978               0.001162290               0.000000000               0.000000000               0.000000000               0.000000000               0.001633425               0.005346875               0.002550055              -0.000055828               0.001800882               0.001745054               0.000000000               0.000000000               0.000000000               0.000000000               0.000747992               0.005444680               0.001818069              -0.000400089               0.001948237               0.001548149               0.000000000               0.000000000               0.000000000               0.000000000               0.000090794               0.005782197               0.001042635              -0.000688726               0.002156955               0.001468229               0.000000000               0.000000000               0.000000000               0.000000000              -0.000079511               0.005729662               0.000685517              -0.000746023               0.002158542               0.001412520               0.000000000               0.000000000               0.000000000               0.000000000              -0.000104101               0.005598246               0.000488007              -0.000738817               0.002112336               0.001373519               0.000000000               0.000000000               0.000000000               0.000000000              -0.000093504               0.005463794               0.000363432              -0.000718037               0.002060592               0.001342555               0.000000000               0.000000000               0.000000000               0.000000000              -0.000074408               0.005336071               0.000281149              -0.000694910               0.002010309               0.001315399               0.000000000               0.000000000               0.000000000               0.000000000              -0.000052833               0.005215261               0.000221428              -0.000671718               0.001962309               0.001290591               0.000000000               0.000000000               0.000000000               0.000000000              -0.000036708               0.005103143               0.000166375              -0.000651657               0.001918249               0.001266593               0.000000000               0.000000000               0.000000000               0.000000000              -0.000025349               0.005001668               0.000115843              -0.000634713               0.001878777               0.001244064               0.000000000               0.000000000               0.000000000               0.000000000              -0.000019080               0.004902144               0.000072680              -0.000619922               0.001840672               0.001220751               0.000000000               0.000000000               0.000000000               0.000000000              -0.000016295               0.004799599               0.000040192              -0.000606059               0.001801870               0.001195811               0.000000000               0.000000000               0.000000000               0.000000000              -0.000014936               0.004699101               0.000018850              -0.000592987               0.001764014               0.001171026               0.000000000               0.000000000               0.000000000               0.000000000              -0.000017816               0.004607655               0.000003955              -0.000582636               0.001730082               0.001147446               0.000000000               0.000000000               0.000000000               0.000000000              -0.000019463               0.004526211              -0.000007359              -0.000573074               0.001699747               0.001126673               0.000000000               0.000000000               0.000000000               0.000000000              -0.000014260               0.004453978              -0.000008818              -0.000562093               0.001672009               0.001109916               0.000000000               0.000000000               0.000000000               0.000000000              -0.000015031               0.004408380              -0.000009830              -0.000556683               0.001655006               0.001098324               0.000000000               0.000000000               0.000000000               0.000000000               0.001450711               0.004249918               0.002223523               0.000012774               0.001412366               0.001425140               0.000000000               0.000000000               0.000000000               0.000000000               0.000606481               0.004717890               0.001761847              -0.000362307               0.001693383               0.001331076               0.000000000               0.000000000               0.000000000               0.000000000              -0.000056438               0.005348906               0.001207337              -0.000689776               0.002012876               0.001323100               0.000000000               0.000000000               0.000000000               0.000000000              -0.000186916               0.005431381               0.000875351              -0.000749015               0.002060114               0.001311099               0.000000000               0.000000000               0.000000000               0.000000000              -0.000176230               0.005375648               0.000664442              -0.000738040               0.002037878               0.001299838               0.000000000               0.000000000               0.000000000               0.000000000              -0.000142388               0.005286649               0.000519120              -0.000714225               0.002000274               0.001286049               0.000000000               0.000000000               0.000000000               0.000000000              -0.000104333               0.005183898               0.000414225              -0.000687110               0.001956985               0.001269875               0.000000000               0.000000000               0.000000000               0.000000000              -0.000066469               0.005080665               0.000331628              -0.000660008               0.001913541               0.001253533               0.000000000               0.000000000               0.000000000               0.000000000              -0.000045128               0.004979349               0.000258403              -0.000639340               0.001872880               0.001233540               0.000000000               0.000000000               0.000000000               0.000000000              -0.000033025               0.004879324               0.000193253              -0.000622298               0.001833858               0.001211559               0.000000000               0.000000000               0.000000000               0.000000000              -0.000026829               0.004773699               0.000136754              -0.000606772               0.001793474               0.001186703               0.000000000               0.000000000               0.000000000               0.000000000              -0.000027167               0.004659242               0.000091121              -0.000592591               0.001750596               0.001158004               0.000000000               0.000000000               0.000000000               0.000000000              -0.000030808               0.004547638               0.000053713              -0.000580006               0.001709200               0.001129193               0.000000000               0.000000000               0.000000000               0.000000000              -0.000039399               0.004447390               0.000023832              -0.000570697               0.001672681               0.001101984               0.000000000               0.000000000               0.000000000               0.000000000              -0.000051465               0.004353122               0.000003342              -0.000563438               0.001638839               0.001075401               0.000000000               0.000000000               0.000000000               0.000000000              -0.000058446               0.004263666              -0.000004831              -0.000554874               0.001606166               0.001051292               0.000000000               0.000000000               0.000000000               0.000000000              -0.000058685               0.004214880              -0.000006569              -0.000548866               0.001587901               0.001039036               0.000000000               0.000000000               0.000000000               0.000000000               0.001190455               0.003214896               0.001851335               0.000044556               0.001056768               0.001101324               0.000000000               0.000000000               0.000000000               0.000000000               0.000513662               0.003888789               0.001684162              -0.000293476               0.001394075               0.001100598               0.000000000               0.000000000               0.000000000               0.000000000              -0.000091194               0.004728588               0.001389622              -0.000625271               0.001784603               0.001159333               0.000000000               0.000000000               0.000000000               0.000000000              -0.000211955               0.004983067               0.001099837              -0.000702365               0.001895127               0.001192762               0.000000000               0.000000000               0.000000000               0.000000000              -0.000192733               0.005043348               0.000876933              -0.000702692               0.001915330               0.001212638               0.000000000               0.000000000               0.000000000               0.000000000              -0.000149216               0.005032913               0.000707381              -0.000685069               0.001905977               0.001220908               0.000000000               0.000000000               0.000000000               0.000000000              -0.000110290               0.004987183               0.000578565              -0.000664755               0.001883963               0.001219207               0.000000000               0.000000000               0.000000000               0.000000000              -0.000072226               0.004920236               0.000470591              -0.000642113               0.001854100               0.001211987               0.000000000               0.000000000               0.000000000               0.000000000              -0.000048245               0.004841084               0.000377729              -0.000623226               0.001821421               0.001198195               0.000000000               0.000000000               0.000000000               0.000000000              -0.000039630               0.004759900               0.000298642              -0.000609847               0.001789900               0.001180053               0.000000000               0.000000000               0.000000000               0.000000000              -0.000037277               0.004670346               0.000229570              -0.000597771               0.001756023               0.001158253               0.000000000               0.000000000               0.000000000               0.000000000              -0.000040263               0.004568281               0.000168967              -0.000586132               0.001718123               0.001131990               0.000000000               0.000000000               0.000000000               0.000000000              -0.000049881               0.004464940               0.000113362              -0.000576821               0.001680572               0.001103751               0.000000000               0.000000000               0.000000000               0.000000000              -0.000066431               0.004365592               0.000064968              -0.000570609               0.001645386               0.001074777               0.000000000               0.000000000               0.000000000               0.000000000              -0.000090804               0.004271605               0.000027845              -0.000568001               0.001613188               0.001045187               0.000000000               0.000000000               0.000000000               0.000000000              -0.000118498               0.004178205               0.000006777              -0.000566711               0.001581625               0.001014914               0.000000000               0.000000000               0.000000000               0.000000000              -0.000132993               0.004126095              -0.000000522              -0.000565633               0.001563895               0.000998263               0.000000000               0.000000000               0.000000000               0.000000000               0.000788863               0.002266843               0.001450020               0.000012466               0.000751451               0.000763917               0.000000000               0.000000000               0.000000000               0.000000000               0.000400740               0.003069057               0.001558185              -0.000233356               0.001100793               0.000867438               0.000000000               0.000000000               0.000000000               0.000000000              -0.000057827               0.004033893               0.001525887              -0.000525922               0.001519924               0.000994003               0.000000000               0.000000000               0.000000000               0.000000000              -0.000166821               0.004452513               0.001312775              -0.000619121               0.001690530               0.001071408               0.000000000               0.000000000               0.000000000               0.000000000              -0.000158947               0.004639764               0.001097094              -0.000639575               0.001759764               0.001120189               0.000000000               0.000000000               0.000000000               0.000000000              -0.000119384               0.004723829               0.000913663              -0.000635247               0.001786343               0.001151096               0.000000000               0.000000000               0.000000000               0.000000000              -0.000085785               0.004752880               0.000764677              -0.000626278               0.001793037               0.001166759               0.000000000               0.000000000               0.000000000               0.000000000              -0.000056790               0.004740273               0.000637790              -0.000613829               0.001784685               0.001170856               0.000000000               0.000000000               0.000000000               0.000000000              -0.000031298               0.004702601               0.000527817              -0.000599561               0.001767371               0.001167811               0.000000000               0.000000000               0.000000000               0.000000000              -0.000019689               0.004649648               0.000436009              -0.000588588               0.001746063               0.001157475               0.000000000               0.000000000               0.000000000               0.000000000              -0.000016661               0.004582619               0.000359124              -0.000579074               0.001720549               0.001141475               0.000000000               0.000000000               0.000000000               0.000000000              -0.000019521               0.004505231               0.000286469              -0.000570473               0.001691886               0.001121414               0.000000000               0.000000000               0.000000000               0.000000000              -0.000032112               0.004420577               0.000214554              -0.000564613               0.001661715               0.001097102               0.000000000               0.000000000               0.000000000               0.000000000              -0.000059016               0.004330687               0.000145843              -0.000563466               0.001631370               0.001067904               0.000000000               0.000000000               0.000000000               0.000000000              -0.000100240               0.004244457               0.000084527              -0.000568146               0.001604187               0.001036041               0.000000000               0.000000000               0.000000000               0.000000000              -0.000158445               0.004161328               0.000035790              -0.000579582               0.001580289               0.001000708               0.000000000               0.000000000               0.000000000               0.000000000              -0.000202559               0.004110925               0.000010627              -0.000589824               0.001566902               0.000977079               0.000000000               0.000000000               0.000000000               0.000000000               0.000273569               0.001454113               0.001039432              -0.000079177               0.000511091               0.000431914               0.000000000               0.000000000               0.000000000               0.000000000               0.000230621               0.002290566               0.001364240              -0.000199839               0.000830126               0.000630288               0.000000000               0.000000000               0.000000000               0.000000000               0.000001884               0.003268556               0.001550814              -0.000407864               0.001225462               0.000817598               0.000000000               0.000000000               0.000000000               0.000000000              -0.000058338               0.003802478               0.001432802              -0.000497186               0.001433208               0.000936022               0.000000000               0.000000000               0.000000000               0.000000000              -0.000053685               0.004108126               0.001249868              -0.000533647               0.001547244               0.001013597               0.000000000               0.000000000               0.000000000               0.000000000              -0.000026231               0.004295240               0.001070463              -0.000546741               0.001613979               0.001067238               0.000000000               0.000000000               0.000000000               0.000000000              -0.000004914               0.004408642               0.000915586              -0.000552922               0.001653840               0.001100918               0.000000000               0.000000000               0.000000000               0.000000000               0.000010780               0.004467382               0.000781373              -0.000554379               0.001673906               0.001119526               0.000000000               0.000000000               0.000000000               0.000000000               0.000028046               0.004483614               0.000664822              -0.000549934               0.001677834               0.001127901               0.000000000               0.000000000               0.000000000               0.000000000               0.000040664               0.004469808               0.000567831              -0.000543476               0.001671080               0.001127604               0.000000000               0.000000000               0.000000000               0.000000000               0.000044779               0.004439989               0.000485971              -0.000538205               0.001659383               0.001121178               0.000000000               0.000000000               0.000000000               0.000000000               0.000041315               0.004401190               0.000406092              -0.000534654               0.001645267               0.001110612               0.000000000               0.000000000               0.000000000               0.000000000               0.000028907               0.004353546               0.000322701              -0.000533352               0.001628951               0.001095600               0.000000000               0.000000000               0.000000000               0.000000000              -0.000000011               0.004291794               0.000238993              -0.000536477               0.001609410               0.001072932               0.000000000               0.000000000               0.000000000               0.000000000              -0.000049626               0.004221059               0.000154926              -0.000546241               0.001589086               0.001042845               0.000000000               0.000000000               0.000000000               0.000000000              -0.000126478               0.004150731               0.000074136              -0.000566269               0.001572320               0.001006050               0.000000000               0.000000000               0.000000000               0.000000000              -0.000192978               0.004102668               0.000028572              -0.000585199               0.001562608               0.000977410               0.000000000               0.000000000               0.000000000               0.000000000              -0.000315824               0.000812990               0.000663182              -0.000220058               0.000344346               0.000124288               0.000000000               0.000000000               0.000000000               0.000000000               0.000015802               0.001586399               0.001117760              -0.000192375               0.000592919               0.000400544               0.000000000               0.000000000               0.000000000               0.000000000               0.000071435               0.002483617               0.001452387              -0.000283665               0.000922418               0.000638754               0.000000000               0.000000000               0.000000000               0.000000000               0.000096610               0.003081698               0.001423087              -0.000348984               0.001143550               0.000794566               0.000000000               0.000000000               0.000000000               0.000000000               0.000113952               0.003484038               0.001288089              -0.000392773               0.001292258               0.000899485               0.000000000               0.000000000               0.000000000               0.000000000               0.000130419               0.003767364               0.001129644              -0.000422013               0.001396446               0.000974433               0.000000000               0.000000000               0.000000000               0.000000000               0.000138933               0.003968394               0.000984105              -0.000443949               0.001470768               0.001026819               0.000000000               0.000000000               0.000000000               0.000000000               0.000142313               0.004102694               0.000859261              -0.000459469               0.001520707               0.001061238               0.000000000               0.000000000               0.000000000               0.000000000               0.000146980               0.004183376               0.000749747              -0.000467804               0.001550379               0.001082575               0.000000000               0.000000000               0.000000000               0.000000000               0.000150950               0.004225926               0.000655932              -0.000471634               0.001565839               0.001094205               0.000000000               0.000000000               0.000000000               0.000000000               0.000150308               0.004246066               0.000574567              -0.000474392               0.001573472               0.001099080               0.000000000               0.000000000               0.000000000               0.000000000               0.000144260               0.004251955               0.000494154              -0.000477396               0.001576436               0.001099040               0.000000000               0.000000000               0.000000000               0.000000000               0.000135967               0.004249870               0.000408851              -0.000480245               0.001576691               0.001096446               0.000000000               0.000000000               0.000000000               0.000000000               0.000117209               0.004227941               0.000318866              -0.000484538               0.001570812               0.001086274               0.000000000               0.000000000               0.000000000               0.000000000               0.000078393               0.004184565               0.000220043              -0.000493672               0.001559398               0.001065726               0.000000000               0.000000000               0.000000000               0.000000000               0.000014388               0.004135215               0.000112342              -0.000511505               0.001548893               0.001037388               0.000000000               0.000000000               0.000000000               0.000000000              -0.000047865               0.004097018               0.000050442              -0.000530075               0.001542351               0.001012275               0.000000000               0.000000000               0.000000000               0.000000000              -0.000908516               0.000349332               0.000360117              -0.000384360               0.000244562              -0.000139798               0.000000000               0.000000000               0.000000000               0.000000000              -0.000219773               0.000996355               0.000838389              -0.000206960               0.000401101               0.000194141               0.000000000               0.000000000               0.000000000               0.000000000               0.000136405               0.001754746               0.001228237              -0.000168192               0.000640973               0.000472781               0.000000000               0.000000000               0.000000000               0.000000000               0.000266417               0.002370925               0.001263688              -0.000196460               0.000855786               0.000659326               0.000000000               0.000000000               0.000000000               0.000000000               0.000312833               0.002839505               0.001176961              -0.000237626               0.001025700               0.000788074               0.000000000               0.000000000               0.000000000               0.000000000               0.000327521               0.003199911               0.001053025              -0.000277169               0.001159015               0.000881847               0.000000000               0.000000000               0.000000000               0.000000000               0.000330185               0.003478987               0.000932037              -0.000311054               0.001263335               0.000952281               0.000000000               0.000000000               0.000000000               0.000000000               0.000322113               0.003686182               0.000826821              -0.000339980               0.001342042               0.001002062               0.000000000               0.000000000               0.000000000               0.000000000               0.000312166               0.003834418               0.000734188              -0.000362239               0.001398873               0.001036634               0.000000000               0.000000000               0.000000000               0.000000000               0.000304534               0.003938096               0.000653146              -0.000378061               0.001438706               0.001060645               0.000000000               0.000000000               0.000000000               0.000000000               0.000298018               0.004010539               0.000580775              -0.000389560               0.001466686               0.001077126               0.000000000               0.000000000               0.000000000               0.000000000               0.000291599               0.004062254               0.000509850              -0.000398431               0.001486882               0.001088450               0.000000000               0.000000000               0.000000000               0.000000000               0.000288787               0.004105616               0.000434194              -0.000404906               0.001503494               0.001098588               0.000000000               0.000000000               0.000000000               0.000000000               0.000283686               0.004127366               0.000349294              -0.000409538               0.001512287               0.001102750               0.000000000               0.000000000               0.000000000               0.000000000               0.000269940               0.004122384               0.000251755              -0.000414070               0.001512137               0.001098068               0.000000000               0.000000000               0.000000000               0.000000000               0.000245733               0.004106925               0.000134290              -0.000421215               0.001509366               0.001088152               0.000000000               0.000000000               0.000000000               0.000000000               0.000219350               0.004091589               0.000066355              -0.000429191               0.001506913               0.001077722               0.000000000               0.000000000               0.000000000               0.000000000              -0.001413889               0.000059033               0.000154430              -0.000537587               0.000198872              -0.000338715               0.000000000               0.000000000               0.000000000               0.000000000              -0.000438041               0.000562728               0.000547547              -0.000234606               0.000265776               0.000031169               0.000000000               0.000000000               0.000000000               0.000000000               0.000184724               0.001166659               0.000888445              -0.000076562               0.000414402               0.000337841               0.000000000               0.000000000               0.000000000               0.000000000               0.000419379               0.001761773               0.000951660              -0.000062956               0.000608236               0.000545281               0.000000000               0.000000000               0.000000000               0.000000000               0.000503506               0.002266404               0.000906403              -0.000094486               0.000786956               0.000692469               0.000000000               0.000000000               0.000000000               0.000000000               0.000526139               0.002679249               0.000824428              -0.000137605               0.000938942               0.000801337               0.000000000               0.000000000               0.000000000               0.000000000               0.000525050               0.003014509               0.000737254              -0.000179920               0.001064800               0.000884880               0.000000000               0.000000000               0.000000000               0.000000000               0.000510059               0.003282863               0.000658813              -0.000219086               0.001167305               0.000948220               0.000000000               0.000000000               0.000000000               0.000000000               0.000490403               0.003488942               0.000590478              -0.000252216               0.001247041               0.000994825               0.000000000               0.000000000               0.000000000               0.000000000               0.000470509               0.003645082               0.000530267              -0.000279194               0.001308080               0.001028886               0.000000000               0.000000000               0.000000000               0.000000000               0.000456089               0.003768190               0.000476357              -0.000299990               0.001356047               0.001056057               0.000000000               0.000000000               0.000000000               0.000000000               0.000448816               0.003866954               0.000422680              -0.000315062               0.001393993               0.001078930               0.000000000               0.000000000               0.000000000               0.000000000               0.000450210               0.003953287               0.000365385              -0.000325331               0.001426193               0.001100862               0.000000000               0.000000000               0.000000000               0.000000000               0.000460284               0.004021628               0.000300357              -0.000330096               0.001450561               0.001120465               0.000000000               0.000000000               0.000000000               0.000000000               0.000478526               0.004062138               0.000222501              -0.000328319               0.001463472               0.001135153               0.000000000               0.000000000               0.000000000               0.000000000               0.000507097               0.004079682               0.000122889              -0.000319798               0.001466480               0.001146682               0.000000000               0.000000000               0.000000000               0.000000000               0.000533505               0.004086217               0.000066630              -0.000310712               0.001465629               0.001154917               0.000000000               0.000000000               0.000000000               0.000000000              -0.001753304              -0.000087283               0.000046968              -0.000646578               0.000186430              -0.000460148               0.000000000               0.000000000               0.000000000               0.000000000              -0.000595824               0.000305183               0.000267028              -0.000261582               0.000188920              -0.000072662               0.000000000               0.000000000               0.000000000               0.000000000               0.000211461               0.000788252               0.000464727              -0.000019234               0.000269159               0.000249925               0.000000000               0.000000000               0.000000000               0.000000000               0.000529606               0.001351144               0.000511756               0.000029708               0.000440474               0.000470182               0.000000000               0.000000000               0.000000000               0.000000000               0.000644724               0.001867771               0.000494781               0.000008299               0.000619818               0.000628117               0.000000000               0.000000000               0.000000000               0.000000000               0.000676809               0.002308136               0.000454221              -0.000034714               0.000780942               0.000746229               0.000000000               0.000000000               0.000000000               0.000000000               0.000673597               0.002674328               0.000408936              -0.000081692               0.000918664               0.000836972               0.000000000               0.000000000               0.000000000               0.000000000               0.000655291               0.002977048               0.000367562              -0.000126397               0.001034471               0.000908075               0.000000000               0.000000000               0.000000000               0.000000000               0.000627063               0.003222520               0.000329852              -0.000167666               0.001130051               0.000962385               0.000000000               0.000000000               0.000000000               0.000000000               0.000597694               0.003423422               0.000296551              -0.000203792               0.001209060               0.001005268               0.000000000               0.000000000               0.000000000               0.000000000               0.000572222               0.003587376               0.000268234              -0.000233838               0.001273726               0.001039888               0.000000000               0.000000000               0.000000000               0.000000000               0.000558904               0.003726565               0.000239346              -0.000256231               0.001327586               0.001071355               0.000000000               0.000000000               0.000000000               0.000000000               0.000564609               0.003849826               0.000207700              -0.000269499               0.001373096               0.001103596               0.000000000               0.000000000               0.000000000               0.000000000               0.000590403               0.003948638               0.000172286              -0.000272178               0.001406926               0.001134748               0.000000000               0.000000000               0.000000000               0.000000000               0.000640477               0.004020163               0.000129250              -0.000262341               0.001427488               0.001165147               0.000000000               0.000000000               0.000000000               0.000000000               0.000722429               0.004063882               0.000072944              -0.000237074               0.001433638               0.001196565               0.000000000               0.000000000               0.000000000               0.000000000               0.000798475               0.004087020               0.000042053              -0.000211449               0.001432809               0.001221360               0.000000000               0.000000000               0.000000000               0.000000000               0.000000000               0.000000000               0.000000000               0.000000000               0.000000000               0.000000000               0.000000000               0.000000000               0.000000000               0.000000000               0.000000000               0.000000000               0.000000000               0.000000000               0.000000000               0.000000000               0.000000000               0.000000000               0.000000000               0.000000000               0.000000000               0.000000000               0.000000000               0.000000000               0.000000000               0.000000000               0.000000000               0.000000000               0.000000000               0.000000000               0.000000000               0.000000000               0.000000000               0.000000000               0.000000000               0.000000000               0.000000000               0.000000000               0.000000000               0.000000000               0.000000000               0.000000000               0.000000000               0.000000000               0.000000000               0.000000000               0.000000000               0.000000000               0.000000000               0.000000000               0.000000000               0.000000000               0.000000000               0.000000000               0.000000000               0.000000000               0.000000000               0.000000000               0.000000000               0.000000000               0.000000000               0.000000000               0.000000000               0.000000000               0.000000000               0.000000000               0.000000000               0.000000000               0.000000000               0.000000000               0.000000000               0.000000000               0.000000000               0.000000000               0.000000000               0.000000000               0.000000000               0.000000000               0.000000000               0.000000000               0.000000000               0.000000000               0.000000000               0.000000000               0.000000000               0.000000000               0.000000000               0.000000000               0.000000000               0.000000000               0.000000000               0.000000000               0.000000000               0.000000000               0.000000000               0.000000000               0.000000000               0.000000000               0.000000000               0.000000000               0.000000000               0.000000000               0.000000000               0.000000000               0.000000000               0.000000000               0.000000000               0.000000000               0.000000000               0.000000000               0.000000000               0.000000000               0.000000000               0.000000000               0.000000000               0.000000000               0.000000000               0.000000000               0.000000000               0.000000000               0.000000000               0.000000000               0.000000000               0.000000000               0.000000000               0.000000000               0.000000000               0.000000000               0.000000000               0.000000000               0.000000000               0.000000000               0.000000000               0.000000000               0.000000000               0.000000000               0.000000000               0.000000000               0.000000000               0.000000000               0.000000000               0.000000000               0.000000000               0.000000000               0.000000000               0.000000000               0.000000000               0.000000000               0.000000000               0.000000000               0.000000000               0.000000000               0.000000000               0.000000000               0.000000000               0.000000000               0.000000000               0.000000000               0.000000000               0.000000000               0.000000000               0.000000000               0.000000000               0.000000000               0.000000000               0.000000000               0.000000000               0.000000000               0.000000000               0.000000000 </DataArray>
</PointData>
</Piece>
</UnstructuredGrid> </VTKFile>
