<?xml version="1.0"?>
<VTKFile type="UnstructuredGrid" version="0.1">
<UnstructuredGrid>
<Piece NumberOfPoints="      1156" NumberOfCells="      1024">
<Points>
<DataArray type="Float64"                                    Name="coordinates"                                                      NumberOfComponents=" 3" format="ascii">
              0.133000000               0.000000000               0.000000000               0.155937500               0.000000000               0.000000000               0.178875000               0.000000000               0.000000000               0.201812500               0.000000000               0.000000000               0.224750000               0.000000000               0.000000000               0.247687500               0.000000000               0.000000000               0.270625000               0.000000000               0.000000000               0.293562500               0.000000000               0.000000000               0.316500000               0.000000000               0.000000000               0.339437500               0.000000000               0.000000000               0.362375000               0.000000000               0.000000000               0.385312500               0.000000000               0.000000000               0.408250000               0.000000000               0.000000000               0.431187500               0.000000000               0.000000000               0.454125000               0.000000000               0.000000000               0.477062500               0.000000000               0.000000000               0.500000000               0.000000000               0.000000000               0.132359569               0.013036280               0.000000000               0.155337096               0.016127762               0.000000000               0.178314623               0.019219245               0.000000000               0.201292150               0.022310727               0.000000000               0.224269676               0.025402210               0.000000000               0.247247203               0.028493692               0.000000000               0.270224730               0.031585175               0.000000000               0.293202257               0.034676657               0.000000000               0.316179784               0.037768140               0.000000000               0.339157311               0.040859622               0.000000000               0.362134838               0.043951105               0.000000000               0.385112365               0.047042587               0.000000000               0.408089892               0.050134070               0.000000000               0.431067419               0.053225552               0.000000000               0.454044946               0.056317035               0.000000000               0.477022473               0.059408517               0.000000000               0.500000000               0.062500000               0.000000000               0.130444442               0.025947013               0.000000000               0.153541665               0.032137825               0.000000000               0.176638887               0.038328636               0.000000000               0.199736109               0.044519448               0.000000000               0.222833332               0.050710260               0.000000000               0.245930554               0.056901071               0.000000000               0.269027776               0.063091883               0.000000000               0.292124999               0.069282695               0.000000000               0.315222221               0.075473506               0.000000000               0.338319444               0.081664318               0.000000000               0.361416666               0.087855130               0.000000000               0.384513888               0.094045942               0.000000000               0.407611111               0.100236753               0.000000000               0.430708333               0.106427565               0.000000000               0.453805555               0.112618377               0.000000000               0.476902778               0.118809188               0.000000000               0.500000000               0.125000000               0.000000000               0.127273065               0.038607862               0.000000000               0.150568498               0.047913621               0.000000000               0.173863932               0.057219379               0.000000000               0.197159365               0.066525138               0.000000000               0.220454798               0.075830897               0.000000000               0.243750232               0.085136655               0.000000000               0.267045665               0.094442414               0.000000000               0.290341099               0.103748172               0.000000000               0.313636532               0.113053931               0.000000000               0.336931966               0.122359690               0.000000000               0.360227399               0.131665448               0.000000000               0.383522833               0.140971207               0.000000000               0.406818266               0.150276966               0.000000000               0.430113700               0.159582724               0.000000000               0.453409133               0.168888483               0.000000000               0.476704567               0.178194241               0.000000000               0.500000000               0.187500000               0.000000000               0.122875978               0.050896897               0.000000000               0.146446229               0.063340840               0.000000000               0.170016481               0.075784784               0.000000000               0.193586732               0.088228728               0.000000000               0.217156983               0.100672672               0.000000000               0.240727235               0.113116616               0.000000000               0.264297486               0.125560560               0.000000000               0.287867738               0.138004504               0.000000000               0.311437989               0.150448448               0.000000000               0.335008240               0.162892392               0.000000000               0.358578492               0.175336336               0.000000000               0.382148743               0.187780280               0.000000000               0.405718994               0.200224224               0.000000000               0.429289246               0.212668168               0.000000000               0.452859497               0.225112112               0.000000000               0.476429749               0.237556056               0.000000000               0.500000000               0.250000000               0.000000000               0.117295528               0.062695766               0.000000000               0.141214558               0.078308531               0.000000000               0.165133587               0.093921295               0.000000000               0.189052617               0.109534060               0.000000000               0.212971646               0.125146824               0.000000000               0.236890676               0.140759589               0.000000000               0.260809705               0.156372354               0.000000000               0.284728735               0.171985118               0.000000000               0.308647764               0.187597883               0.000000000               0.332566794               0.203210648               0.000000000               0.356485823               0.218823412               0.000000000               0.380404853               0.234436177               0.000000000               0.404323882               0.250048941               0.000000000               0.428242912               0.265661706               0.000000000               0.452161941               0.281274471               0.000000000               0.476080971               0.296887235               0.000000000               0.500000000               0.312500000               0.000000000               0.110585458               0.073890841               0.000000000               0.134923867               0.092710163               0.000000000               0.159262276               0.111529486               0.000000000               0.183600685               0.130348808               0.000000000               0.207939094               0.149168131               0.000000000               0.232277503               0.167987453               0.000000000               0.256615912               0.186806776               0.000000000               0.280954320               0.205626098               0.000000000               0.305292729               0.224445420               0.000000000               0.329631138               0.243264743               0.000000000               0.353969547               0.262084065               0.000000000               0.378307956               0.280903388               0.000000000               0.402646365               0.299722710               0.000000000               0.426984773               0.318542033               0.000000000               0.451323182               0.337361355               0.000000000               0.475661591               0.356180678               0.000000000               0.500000000               0.375000000               0.000000000               0.102810390               0.084374307               0.000000000               0.127634741               0.106444663               0.000000000               0.152459092               0.128515018               0.000000000               0.177283442               0.150585374               0.000000000               0.202107793               0.172655730               0.000000000               0.226932143               0.194726086               0.000000000               0.251756494               0.216796442               0.000000000               0.276580845               0.238866798               0.000000000               0.301405195               0.260937153               0.000000000               0.326229546               0.283007509               0.000000000               0.351053896               0.305077865               0.000000000               0.375878247               0.327148221               0.000000000               0.400702598               0.349218577               0.000000000               0.425526948               0.371288933               0.000000000               0.450351299               0.393359288               0.000000000               0.475175649               0.415429644               0.000000000               0.500000000               0.437500000               0.000000000               0.094045202               0.094045202               0.000000000               0.119417377               0.119417377               0.000000000               0.144789552               0.144789552               0.000000000               0.170161727               0.170161727               0.000000000               0.195533901               0.195533901               0.000000000               0.220906076               0.220906076               0.000000000               0.246278251               0.246278251               0.000000000               0.271650426               0.271650426               0.000000000               0.297022601               0.297022601               0.000000000               0.322394776               0.322394776               0.000000000               0.347766951               0.347766951               0.000000000               0.373139126               0.373139126               0.000000000               0.398511300               0.398511300               0.000000000               0.423883475               0.423883475               0.000000000               0.449255650               0.449255650               0.000000000               0.474627825               0.474627825               0.000000000               0.500000000               0.500000000               0.000000000               0.084374307               0.102810390               0.000000000               0.106444663               0.127634741               0.000000000               0.128515018               0.152459092               0.000000000               0.150585374               0.177283442               0.000000000               0.172655730               0.202107793               0.000000000               0.194726086               0.226932143               0.000000000               0.216796442               0.251756494               0.000000000               0.238866798               0.276580845               0.000000000               0.260937153               0.301405195               0.000000000               0.283007509               0.326229546               0.000000000               0.305077865               0.351053896               0.000000000               0.327148221               0.375878247               0.000000000               0.349218577               0.400702598               0.000000000               0.371288933               0.425526948               0.000000000               0.393359288               0.450351299               0.000000000               0.415429644               0.475175649               0.000000000               0.437500000               0.500000000               0.000000000               0.073890841               0.110585458               0.000000000               0.092710163               0.134923867               0.000000000               0.111529486               0.159262276               0.000000000               0.130348808               0.183600685               0.000000000               0.149168131               0.207939094               0.000000000               0.167987453               0.232277503               0.000000000               0.186806776               0.256615912               0.000000000               0.205626098               0.280954320               0.000000000               0.224445420               0.305292729               0.000000000               0.243264743               0.329631138               0.000000000               0.262084065               0.353969547               0.000000000               0.280903388               0.378307956               0.000000000               0.299722710               0.402646365               0.000000000               0.318542033               0.426984773               0.000000000               0.337361355               0.451323182               0.000000000               0.356180678               0.475661591               0.000000000               0.375000000               0.500000000               0.000000000               0.062695766               0.117295528               0.000000000               0.078308531               0.141214558               0.000000000               0.093921295               0.165133587               0.000000000               0.109534060               0.189052617               0.000000000               0.125146824               0.212971646               0.000000000               0.140759589               0.236890676               0.000000000               0.156372354               0.260809705               0.000000000               0.171985118               0.284728735               0.000000000               0.187597883               0.308647764               0.000000000               0.203210648               0.332566794               0.000000000               0.218823412               0.356485823               0.000000000               0.234436177               0.380404853               0.000000000               0.250048941               0.404323882               0.000000000               0.265661706               0.428242912               0.000000000               0.281274471               0.452161941               0.000000000               0.296887235               0.476080971               0.000000000               0.312500000               0.500000000               0.000000000               0.050896897               0.122875978               0.000000000               0.063340840               0.146446229               0.000000000               0.075784784               0.170016481               0.000000000               0.088228728               0.193586732               0.000000000               0.100672672               0.217156983               0.000000000               0.113116616               0.240727235               0.000000000               0.125560560               0.264297486               0.000000000               0.138004504               0.287867738               0.000000000               0.150448448               0.311437989               0.000000000               0.162892392               0.335008240               0.000000000               0.175336336               0.358578492               0.000000000               0.187780280               0.382148743               0.000000000               0.200224224               0.405718994               0.000000000               0.212668168               0.429289246               0.000000000               0.225112112               0.452859497               0.000000000               0.237556056               0.476429749               0.000000000               0.250000000               0.500000000               0.000000000               0.038607862               0.127273065               0.000000000               0.047913621               0.150568498               0.000000000               0.057219379               0.173863932               0.000000000               0.066525138               0.197159365               0.000000000               0.075830897               0.220454798               0.000000000               0.085136655               0.243750232               0.000000000               0.094442414               0.267045665               0.000000000               0.103748172               0.290341099               0.000000000               0.113053931               0.313636532               0.000000000               0.122359690               0.336931966               0.000000000               0.131665448               0.360227399               0.000000000               0.140971207               0.383522833               0.000000000               0.150276966               0.406818266               0.000000000               0.159582724               0.430113700               0.000000000               0.168888483               0.453409133               0.000000000               0.178194241               0.476704567               0.000000000               0.187500000               0.500000000               0.000000000               0.025947013               0.130444442               0.000000000               0.032137825               0.153541665               0.000000000               0.038328636               0.176638887               0.000000000               0.044519448               0.199736109               0.000000000               0.050710260               0.222833332               0.000000000               0.056901071               0.245930554               0.000000000               0.063091883               0.269027776               0.000000000               0.069282695               0.292124999               0.000000000               0.075473506               0.315222221               0.000000000               0.081664318               0.338319444               0.000000000               0.087855130               0.361416666               0.000000000               0.094045942               0.384513888               0.000000000               0.100236753               0.407611111               0.000000000               0.106427565               0.430708333               0.000000000               0.112618377               0.453805555               0.000000000               0.118809188               0.476902778               0.000000000               0.125000000               0.500000000               0.000000000               0.013036280               0.132359569               0.000000000               0.016127762               0.155337096               0.000000000               0.019219245               0.178314623               0.000000000               0.022310727               0.201292150               0.000000000               0.025402210               0.224269676               0.000000000               0.028493692               0.247247203               0.000000000               0.031585175               0.270224730               0.000000000               0.034676657               0.293202257               0.000000000               0.037768140               0.316179784               0.000000000               0.040859622               0.339157311               0.000000000               0.043951105               0.362134838               0.000000000               0.047042587               0.385112365               0.000000000               0.050134070               0.408089892               0.000000000               0.053225552               0.431067419               0.000000000               0.056317035               0.454044946               0.000000000               0.059408517               0.477022473               0.000000000               0.062500000               0.500000000               0.000000000               0.000000000               0.133000000               0.000000000               0.000000000               0.155937500               0.000000000               0.000000000               0.178875000               0.000000000               0.000000000               0.201812500               0.000000000               0.000000000               0.224750000               0.000000000               0.000000000               0.247687500               0.000000000               0.000000000               0.270625000               0.000000000               0.000000000               0.293562500               0.000000000               0.000000000               0.316500000               0.000000000               0.000000000               0.339437500               0.000000000               0.000000000               0.362375000               0.000000000               0.000000000               0.385312500               0.000000000               0.000000000               0.408250000               0.000000000               0.000000000               0.431187500               0.000000000               0.000000000               0.454125000               0.000000000               0.000000000               0.477062500               0.000000000               0.000000000               0.500000000               0.000000000               0.133000000               0.000000000               0.000000000               0.155937500               0.000000000               0.000000000               0.178875000               0.000000000               0.000000000               0.201812500               0.000000000               0.000000000               0.224750000               0.000000000               0.000000000               0.247687500               0.000000000               0.000000000               0.270625000               0.000000000               0.000000000               0.293562500               0.000000000               0.000000000               0.316500000               0.000000000               0.000000000               0.339437500               0.000000000               0.000000000               0.362375000               0.000000000               0.000000000               0.385312500               0.000000000               0.000000000               0.408250000               0.000000000               0.000000000               0.431187500               0.000000000               0.000000000               0.454125000               0.000000000               0.000000000               0.477062500               0.000000000               0.000000000               0.500000000               0.000000000               0.000000000               0.132359569              -0.013036280               0.000000000               0.155337096              -0.016127762               0.000000000               0.178314623              -0.019219245               0.000000000               0.201292150              -0.022310727               0.000000000               0.224269676              -0.025402210               0.000000000               0.247247203              -0.028493692               0.000000000               0.270224730              -0.031585175               0.000000000               0.293202257              -0.034676657               0.000000000               0.316179784              -0.037768140               0.000000000               0.339157311              -0.040859622               0.000000000               0.362134838              -0.043951105               0.000000000               0.385112365              -0.047042587               0.000000000               0.408089892              -0.050134070               0.000000000               0.431067419              -0.053225552               0.000000000               0.454044946              -0.056317035               0.000000000               0.477022473              -0.059408517               0.000000000               0.500000000              -0.062500000               0.000000000               0.130444442              -0.025947013               0.000000000               0.153541665              -0.032137825               0.000000000               0.176638887              -0.038328636               0.000000000               0.199736109              -0.044519448               0.000000000               0.222833332              -0.050710260               0.000000000               0.245930554              -0.056901071               0.000000000               0.269027776              -0.063091883               0.000000000               0.292124999              -0.069282695               0.000000000               0.315222221              -0.075473506               0.000000000               0.338319444              -0.081664318               0.000000000               0.361416666              -0.087855130               0.000000000               0.384513888              -0.094045942               0.000000000               0.407611111              -0.100236753               0.000000000               0.430708333              -0.106427565               0.000000000               0.453805555              -0.112618377               0.000000000               0.476902778              -0.118809188               0.000000000               0.500000000              -0.125000000               0.000000000               0.127273065              -0.038607862               0.000000000               0.150568498              -0.047913621               0.000000000               0.173863932              -0.057219379               0.000000000               0.197159365              -0.066525138               0.000000000               0.220454798              -0.075830897               0.000000000               0.243750232              -0.085136655               0.000000000               0.267045665              -0.094442414               0.000000000               0.290341099              -0.103748172               0.000000000               0.313636532              -0.113053931               0.000000000               0.336931966              -0.122359690               0.000000000               0.360227399              -0.131665448               0.000000000               0.383522833              -0.140971207               0.000000000               0.406818266              -0.150276966               0.000000000               0.430113700              -0.159582724               0.000000000               0.453409133              -0.168888483               0.000000000               0.476704567              -0.178194241               0.000000000               0.500000000              -0.187500000               0.000000000               0.122875978              -0.050896897               0.000000000               0.146446229              -0.063340840               0.000000000               0.170016481              -0.075784784               0.000000000               0.193586732              -0.088228728               0.000000000               0.217156983              -0.100672672               0.000000000               0.240727235              -0.113116616               0.000000000               0.264297486              -0.125560560               0.000000000               0.287867738              -0.138004504               0.000000000               0.311437989              -0.150448448               0.000000000               0.335008240              -0.162892392               0.000000000               0.358578492              -0.175336336               0.000000000               0.382148743              -0.187780280               0.000000000               0.405718994              -0.200224224               0.000000000               0.429289246              -0.212668168               0.000000000               0.452859497              -0.225112112               0.000000000               0.476429749              -0.237556056               0.000000000               0.500000000              -0.250000000               0.000000000               0.117295528              -0.062695766               0.000000000               0.141214558              -0.078308531               0.000000000               0.165133587              -0.093921295               0.000000000               0.189052617              -0.109534060               0.000000000               0.212971646              -0.125146824               0.000000000               0.236890676              -0.140759589               0.000000000               0.260809705              -0.156372354               0.000000000               0.284728735              -0.171985118               0.000000000               0.308647764              -0.187597883               0.000000000               0.332566794              -0.203210648               0.000000000               0.356485823              -0.218823412               0.000000000               0.380404853              -0.234436177               0.000000000               0.404323882              -0.250048941               0.000000000               0.428242912              -0.265661706               0.000000000               0.452161941              -0.281274471               0.000000000               0.476080971              -0.296887235               0.000000000               0.500000000              -0.312500000               0.000000000               0.110585458              -0.073890841               0.000000000               0.134923867              -0.092710163               0.000000000               0.159262276              -0.111529486               0.000000000               0.183600685              -0.130348808               0.000000000               0.207939094              -0.149168131               0.000000000               0.232277503              -0.167987453               0.000000000               0.256615912              -0.186806776               0.000000000               0.280954320              -0.205626098               0.000000000               0.305292729              -0.224445420               0.000000000               0.329631138              -0.243264743               0.000000000               0.353969547              -0.262084065               0.000000000               0.378307956              -0.280903388               0.000000000               0.402646365              -0.299722710               0.000000000               0.426984773              -0.318542033               0.000000000               0.451323182              -0.337361355               0.000000000               0.475661591              -0.356180678               0.000000000               0.500000000              -0.375000000               0.000000000               0.102810390              -0.084374307               0.000000000               0.127634741              -0.106444663               0.000000000               0.152459092              -0.128515018               0.000000000               0.177283442              -0.150585374               0.000000000               0.202107793              -0.172655730               0.000000000               0.226932143              -0.194726086               0.000000000               0.251756494              -0.216796442               0.000000000               0.276580845              -0.238866798               0.000000000               0.301405195              -0.260937153               0.000000000               0.326229546              -0.283007509               0.000000000               0.351053896              -0.305077865               0.000000000               0.375878247              -0.327148221               0.000000000               0.400702598              -0.349218577               0.000000000               0.425526948              -0.371288933               0.000000000               0.450351299              -0.393359288               0.000000000               0.475175649              -0.415429644               0.000000000               0.500000000              -0.437500000               0.000000000               0.094045202              -0.094045202               0.000000000               0.119417377              -0.119417377               0.000000000               0.144789552              -0.144789552               0.000000000               0.170161727              -0.170161727               0.000000000               0.195533901              -0.195533901               0.000000000               0.220906076              -0.220906076               0.000000000               0.246278251              -0.246278251               0.000000000               0.271650426              -0.271650426               0.000000000               0.297022601              -0.297022601               0.000000000               0.322394776              -0.322394776               0.000000000               0.347766951              -0.347766951               0.000000000               0.373139126              -0.373139126               0.000000000               0.398511300              -0.398511300               0.000000000               0.423883475              -0.423883475               0.000000000               0.449255650              -0.449255650               0.000000000               0.474627825              -0.474627825               0.000000000               0.500000000              -0.500000000               0.000000000               0.084374307              -0.102810390               0.000000000               0.106444663              -0.127634741               0.000000000               0.128515018              -0.152459092               0.000000000               0.150585374              -0.177283442               0.000000000               0.172655730              -0.202107793               0.000000000               0.194726086              -0.226932143               0.000000000               0.216796442              -0.251756494               0.000000000               0.238866798              -0.276580845               0.000000000               0.260937153              -0.301405195               0.000000000               0.283007509              -0.326229546               0.000000000               0.305077865              -0.351053896               0.000000000               0.327148221              -0.375878247               0.000000000               0.349218577              -0.400702598               0.000000000               0.371288933              -0.425526948               0.000000000               0.393359288              -0.450351299               0.000000000               0.415429644              -0.475175649               0.000000000               0.437500000              -0.500000000               0.000000000               0.073890841              -0.110585458               0.000000000               0.092710163              -0.134923867               0.000000000               0.111529486              -0.159262276               0.000000000               0.130348808              -0.183600685               0.000000000               0.149168131              -0.207939094               0.000000000               0.167987453              -0.232277503               0.000000000               0.186806776              -0.256615912               0.000000000               0.205626098              -0.280954320               0.000000000               0.224445420              -0.305292729               0.000000000               0.243264743              -0.329631138               0.000000000               0.262084065              -0.353969547               0.000000000               0.280903388              -0.378307956               0.000000000               0.299722710              -0.402646365               0.000000000               0.318542033              -0.426984773               0.000000000               0.337361355              -0.451323182               0.000000000               0.356180678              -0.475661591               0.000000000               0.375000000              -0.500000000               0.000000000               0.062695766              -0.117295528               0.000000000               0.078308531              -0.141214558               0.000000000               0.093921295              -0.165133587               0.000000000               0.109534060              -0.189052617               0.000000000               0.125146824              -0.212971646               0.000000000               0.140759589              -0.236890676               0.000000000               0.156372354              -0.260809705               0.000000000               0.171985118              -0.284728735               0.000000000               0.187597883              -0.308647764               0.000000000               0.203210648              -0.332566794               0.000000000               0.218823412              -0.356485823               0.000000000               0.234436177              -0.380404853               0.000000000               0.250048941              -0.404323882               0.000000000               0.265661706              -0.428242912               0.000000000               0.281274471              -0.452161941               0.000000000               0.296887235              -0.476080971               0.000000000               0.312500000              -0.500000000               0.000000000               0.050896897              -0.122875978               0.000000000               0.063340840              -0.146446229               0.000000000               0.075784784              -0.170016481               0.000000000               0.088228728              -0.193586732               0.000000000               0.100672672              -0.217156983               0.000000000               0.113116616              -0.240727235               0.000000000               0.125560560              -0.264297486               0.000000000               0.138004504              -0.287867738               0.000000000               0.150448448              -0.311437989               0.000000000               0.162892392              -0.335008240               0.000000000               0.175336336              -0.358578492               0.000000000               0.187780280              -0.382148743               0.000000000               0.200224224              -0.405718994               0.000000000               0.212668168              -0.429289246               0.000000000               0.225112112              -0.452859497               0.000000000               0.237556056              -0.476429749               0.000000000               0.250000000              -0.500000000               0.000000000               0.038607862              -0.127273065               0.000000000               0.047913621              -0.150568498               0.000000000               0.057219379              -0.173863932               0.000000000               0.066525138              -0.197159365               0.000000000               0.075830897              -0.220454798               0.000000000               0.085136655              -0.243750232               0.000000000               0.094442414              -0.267045665               0.000000000               0.103748172              -0.290341099               0.000000000               0.113053931              -0.313636532               0.000000000               0.122359690              -0.336931966               0.000000000               0.131665448              -0.360227399               0.000000000               0.140971207              -0.383522833               0.000000000               0.150276966              -0.406818266               0.000000000               0.159582724              -0.430113700               0.000000000               0.168888483              -0.453409133               0.000000000               0.178194241              -0.476704567               0.000000000               0.187500000              -0.500000000               0.000000000               0.025947013              -0.130444442               0.000000000               0.032137825              -0.153541665               0.000000000               0.038328636              -0.176638887               0.000000000               0.044519448              -0.199736109               0.000000000               0.050710260              -0.222833332               0.000000000               0.056901071              -0.245930554               0.000000000               0.063091883              -0.269027776               0.000000000               0.069282695              -0.292124999               0.000000000               0.075473506              -0.315222221               0.000000000               0.081664318              -0.338319444               0.000000000               0.087855130              -0.361416666               0.000000000               0.094045942              -0.384513888               0.000000000               0.100236753              -0.407611111               0.000000000               0.106427565              -0.430708333               0.000000000               0.112618377              -0.453805555               0.000000000               0.118809188              -0.476902778               0.000000000               0.125000000              -0.500000000               0.000000000               0.013036280              -0.132359569               0.000000000               0.016127762              -0.155337096               0.000000000               0.019219245              -0.178314623               0.000000000               0.022310727              -0.201292150               0.000000000               0.025402210              -0.224269676               0.000000000               0.028493692              -0.247247203               0.000000000               0.031585175              -0.270224730               0.000000000               0.034676657              -0.293202257               0.000000000               0.037768140              -0.316179784               0.000000000               0.040859622              -0.339157311               0.000000000               0.043951105              -0.362134838               0.000000000               0.047042587              -0.385112365               0.000000000               0.050134070              -0.408089892               0.000000000               0.053225552              -0.431067419               0.000000000               0.056317035              -0.454044946               0.000000000               0.059408517              -0.477022473               0.000000000               0.062500000              -0.500000000               0.000000000               0.000000000              -0.133000000               0.000000000               0.000000000              -0.155937500               0.000000000               0.000000000              -0.178875000               0.000000000               0.000000000              -0.201812500               0.000000000               0.000000000              -0.224750000               0.000000000               0.000000000              -0.247687500               0.000000000               0.000000000              -0.270625000               0.000000000               0.000000000              -0.293562500               0.000000000               0.000000000              -0.316500000               0.000000000               0.000000000              -0.339437500               0.000000000               0.000000000              -0.362375000               0.000000000               0.000000000              -0.385312500               0.000000000               0.000000000              -0.408250000               0.000000000               0.000000000              -0.431187500               0.000000000               0.000000000              -0.454125000               0.000000000               0.000000000              -0.477062500               0.000000000               0.000000000              -0.500000000               0.000000000              -0.133000000               0.000000000               0.000000000              -0.155937500               0.000000000               0.000000000              -0.178875000               0.000000000               0.000000000              -0.201812500               0.000000000               0.000000000              -0.224750000               0.000000000               0.000000000              -0.247687500               0.000000000               0.000000000              -0.270625000               0.000000000               0.000000000              -0.293562500               0.000000000               0.000000000              -0.316500000               0.000000000               0.000000000              -0.339437500               0.000000000               0.000000000              -0.362375000               0.000000000               0.000000000              -0.385312500               0.000000000               0.000000000              -0.408250000               0.000000000               0.000000000              -0.431187500               0.000000000               0.000000000              -0.454125000               0.000000000               0.000000000              -0.477062500               0.000000000               0.000000000              -0.500000000               0.000000000               0.000000000              -0.132359569              -0.013036280               0.000000000              -0.155337096              -0.016127762               0.000000000              -0.178314623              -0.019219245               0.000000000              -0.201292150              -0.022310727               0.000000000              -0.224269676              -0.025402210               0.000000000              -0.247247203              -0.028493692               0.000000000              -0.270224730              -0.031585175               0.000000000              -0.293202257              -0.034676657               0.000000000              -0.316179784              -0.037768140               0.000000000              -0.339157311              -0.040859622               0.000000000              -0.362134838              -0.043951105               0.000000000              -0.385112365              -0.047042587               0.000000000              -0.408089892              -0.050134070               0.000000000              -0.431067419              -0.053225552               0.000000000              -0.454044946              -0.056317035               0.000000000              -0.477022473              -0.059408517               0.000000000              -0.500000000              -0.062500000               0.000000000              -0.130444442              -0.025947013               0.000000000              -0.153541665              -0.032137825               0.000000000              -0.176638887              -0.038328636               0.000000000              -0.199736109              -0.044519448               0.000000000              -0.222833332              -0.050710260               0.000000000              -0.245930554              -0.056901071               0.000000000              -0.269027776              -0.063091883               0.000000000              -0.292124999              -0.069282695               0.000000000              -0.315222221              -0.075473506               0.000000000              -0.338319444              -0.081664318               0.000000000              -0.361416666              -0.087855130               0.000000000              -0.384513888              -0.094045942               0.000000000              -0.407611111              -0.100236753               0.000000000              -0.430708333              -0.106427565               0.000000000              -0.453805555              -0.112618377               0.000000000              -0.476902778              -0.118809188               0.000000000              -0.500000000              -0.125000000               0.000000000              -0.127273065              -0.038607862               0.000000000              -0.150568498              -0.047913621               0.000000000              -0.173863932              -0.057219379               0.000000000              -0.197159365              -0.066525138               0.000000000              -0.220454798              -0.075830897               0.000000000              -0.243750232              -0.085136655               0.000000000              -0.267045665              -0.094442414               0.000000000              -0.290341099              -0.103748172               0.000000000              -0.313636532              -0.113053931               0.000000000              -0.336931966              -0.122359690               0.000000000              -0.360227399              -0.131665448               0.000000000              -0.383522833              -0.140971207               0.000000000              -0.406818266              -0.150276966               0.000000000              -0.430113700              -0.159582724               0.000000000              -0.453409133              -0.168888483               0.000000000              -0.476704567              -0.178194241               0.000000000              -0.500000000              -0.187500000               0.000000000              -0.122875978              -0.050896897               0.000000000              -0.146446229              -0.063340840               0.000000000              -0.170016481              -0.075784784               0.000000000              -0.193586732              -0.088228728               0.000000000              -0.217156983              -0.100672672               0.000000000              -0.240727235              -0.113116616               0.000000000              -0.264297486              -0.125560560               0.000000000              -0.287867738              -0.138004504               0.000000000              -0.311437989              -0.150448448               0.000000000              -0.335008240              -0.162892392               0.000000000              -0.358578492              -0.175336336               0.000000000              -0.382148743              -0.187780280               0.000000000              -0.405718994              -0.200224224               0.000000000              -0.429289246              -0.212668168               0.000000000              -0.452859497              -0.225112112               0.000000000              -0.476429749              -0.237556056               0.000000000              -0.500000000              -0.250000000               0.000000000              -0.117295528              -0.062695766               0.000000000              -0.141214558              -0.078308531               0.000000000              -0.165133587              -0.093921295               0.000000000              -0.189052617              -0.109534060               0.000000000              -0.212971646              -0.125146824               0.000000000              -0.236890676              -0.140759589               0.000000000              -0.260809705              -0.156372354               0.000000000              -0.284728735              -0.171985118               0.000000000              -0.308647764              -0.187597883               0.000000000              -0.332566794              -0.203210648               0.000000000              -0.356485823              -0.218823412               0.000000000              -0.380404853              -0.234436177               0.000000000              -0.404323882              -0.250048941               0.000000000              -0.428242912              -0.265661706               0.000000000              -0.452161941              -0.281274471               0.000000000              -0.476080971              -0.296887235               0.000000000              -0.500000000              -0.312500000               0.000000000              -0.110585458              -0.073890841               0.000000000              -0.134923867              -0.092710163               0.000000000              -0.159262276              -0.111529486               0.000000000              -0.183600685              -0.130348808               0.000000000              -0.207939094              -0.149168131               0.000000000              -0.232277503              -0.167987453               0.000000000              -0.256615912              -0.186806776               0.000000000              -0.280954320              -0.205626098               0.000000000              -0.305292729              -0.224445420               0.000000000              -0.329631138              -0.243264743               0.000000000              -0.353969547              -0.262084065               0.000000000              -0.378307956              -0.280903388               0.000000000              -0.402646365              -0.299722710               0.000000000              -0.426984773              -0.318542033               0.000000000              -0.451323182              -0.337361355               0.000000000              -0.475661591              -0.356180678               0.000000000              -0.500000000              -0.375000000               0.000000000              -0.102810390              -0.084374307               0.000000000              -0.127634741              -0.106444663               0.000000000              -0.152459092              -0.128515018               0.000000000              -0.177283442              -0.150585374               0.000000000              -0.202107793              -0.172655730               0.000000000              -0.226932143              -0.194726086               0.000000000              -0.251756494              -0.216796442               0.000000000              -0.276580845              -0.238866798               0.000000000              -0.301405195              -0.260937153               0.000000000              -0.326229546              -0.283007509               0.000000000              -0.351053896              -0.305077865               0.000000000              -0.375878247              -0.327148221               0.000000000              -0.400702598              -0.349218577               0.000000000              -0.425526948              -0.371288933               0.000000000              -0.450351299              -0.393359288               0.000000000              -0.475175649              -0.415429644               0.000000000              -0.500000000              -0.437500000               0.000000000              -0.094045202              -0.094045202               0.000000000              -0.119417377              -0.119417377               0.000000000              -0.144789552              -0.144789552               0.000000000              -0.170161727              -0.170161727               0.000000000              -0.195533901              -0.195533901               0.000000000              -0.220906076              -0.220906076               0.000000000              -0.246278251              -0.246278251               0.000000000              -0.271650426              -0.271650426               0.000000000              -0.297022601              -0.297022601               0.000000000              -0.322394776              -0.322394776               0.000000000              -0.347766951              -0.347766951               0.000000000              -0.373139126              -0.373139126               0.000000000              -0.398511300              -0.398511300               0.000000000              -0.423883475              -0.423883475               0.000000000              -0.449255650              -0.449255650               0.000000000              -0.474627825              -0.474627825               0.000000000              -0.500000000              -0.500000000               0.000000000              -0.084374307              -0.102810390               0.000000000              -0.106444663              -0.127634741               0.000000000              -0.128515018              -0.152459092               0.000000000              -0.150585374              -0.177283442               0.000000000              -0.172655730              -0.202107793               0.000000000              -0.194726086              -0.226932143               0.000000000              -0.216796442              -0.251756494               0.000000000              -0.238866798              -0.276580845               0.000000000              -0.260937153              -0.301405195               0.000000000              -0.283007509              -0.326229546               0.000000000              -0.305077865              -0.351053896               0.000000000              -0.327148221              -0.375878247               0.000000000              -0.349218577              -0.400702598               0.000000000              -0.371288933              -0.425526948               0.000000000              -0.393359288              -0.450351299               0.000000000              -0.415429644              -0.475175649               0.000000000              -0.437500000              -0.500000000               0.000000000              -0.073890841              -0.110585458               0.000000000              -0.092710163              -0.134923867               0.000000000              -0.111529486              -0.159262276               0.000000000              -0.130348808              -0.183600685               0.000000000              -0.149168131              -0.207939094               0.000000000              -0.167987453              -0.232277503               0.000000000              -0.186806776              -0.256615912               0.000000000              -0.205626098              -0.280954320               0.000000000              -0.224445420              -0.305292729               0.000000000              -0.243264743              -0.329631138               0.000000000              -0.262084065              -0.353969547               0.000000000              -0.280903388              -0.378307956               0.000000000              -0.299722710              -0.402646365               0.000000000              -0.318542033              -0.426984773               0.000000000              -0.337361355              -0.451323182               0.000000000              -0.356180678              -0.475661591               0.000000000              -0.375000000              -0.500000000               0.000000000              -0.062695766              -0.117295528               0.000000000              -0.078308531              -0.141214558               0.000000000              -0.093921295              -0.165133587               0.000000000              -0.109534060              -0.189052617               0.000000000              -0.125146824              -0.212971646               0.000000000              -0.140759589              -0.236890676               0.000000000              -0.156372354              -0.260809705               0.000000000              -0.171985118              -0.284728735               0.000000000              -0.187597883              -0.308647764               0.000000000              -0.203210648              -0.332566794               0.000000000              -0.218823412              -0.356485823               0.000000000              -0.234436177              -0.380404853               0.000000000              -0.250048941              -0.404323882               0.000000000              -0.265661706              -0.428242912               0.000000000              -0.281274471              -0.452161941               0.000000000              -0.296887235              -0.476080971               0.000000000              -0.312500000              -0.500000000               0.000000000              -0.050896897              -0.122875978               0.000000000              -0.063340840              -0.146446229               0.000000000              -0.075784784              -0.170016481               0.000000000              -0.088228728              -0.193586732               0.000000000              -0.100672672              -0.217156983               0.000000000              -0.113116616              -0.240727235               0.000000000              -0.125560560              -0.264297486               0.000000000              -0.138004504              -0.287867738               0.000000000              -0.150448448              -0.311437989               0.000000000              -0.162892392              -0.335008240               0.000000000              -0.175336336              -0.358578492               0.000000000              -0.187780280              -0.382148743               0.000000000              -0.200224224              -0.405718994               0.000000000              -0.212668168              -0.429289246               0.000000000              -0.225112112              -0.452859497               0.000000000              -0.237556056              -0.476429749               0.000000000              -0.250000000              -0.500000000               0.000000000              -0.038607862              -0.127273065               0.000000000              -0.047913621              -0.150568498               0.000000000              -0.057219379              -0.173863932               0.000000000              -0.066525138              -0.197159365               0.000000000              -0.075830897              -0.220454798               0.000000000              -0.085136655              -0.243750232               0.000000000              -0.094442414              -0.267045665               0.000000000              -0.103748172              -0.290341099               0.000000000              -0.113053931              -0.313636532               0.000000000              -0.122359690              -0.336931966               0.000000000              -0.131665448              -0.360227399               0.000000000              -0.140971207              -0.383522833               0.000000000              -0.150276966              -0.406818266               0.000000000              -0.159582724              -0.430113700               0.000000000              -0.168888483              -0.453409133               0.000000000              -0.178194241              -0.476704567               0.000000000              -0.187500000              -0.500000000               0.000000000              -0.025947013              -0.130444442               0.000000000              -0.032137825              -0.153541665               0.000000000              -0.038328636              -0.176638887               0.000000000              -0.044519448              -0.199736109               0.000000000              -0.050710260              -0.222833332               0.000000000              -0.056901071              -0.245930554               0.000000000              -0.063091883              -0.269027776               0.000000000              -0.069282695              -0.292124999               0.000000000              -0.075473506              -0.315222221               0.000000000              -0.081664318              -0.338319444               0.000000000              -0.087855130              -0.361416666               0.000000000              -0.094045942              -0.384513888               0.000000000              -0.100236753              -0.407611111               0.000000000              -0.106427565              -0.430708333               0.000000000              -0.112618377              -0.453805555               0.000000000              -0.118809188              -0.476902778               0.000000000              -0.125000000              -0.500000000               0.000000000              -0.013036280              -0.132359569               0.000000000              -0.016127762              -0.155337096               0.000000000              -0.019219245              -0.178314623               0.000000000              -0.022310727              -0.201292150               0.000000000              -0.025402210              -0.224269676               0.000000000              -0.028493692              -0.247247203               0.000000000              -0.031585175              -0.270224730               0.000000000              -0.034676657              -0.293202257               0.000000000              -0.037768140              -0.316179784               0.000000000              -0.040859622              -0.339157311               0.000000000              -0.043951105              -0.362134838               0.000000000              -0.047042587              -0.385112365               0.000000000              -0.050134070              -0.408089892               0.000000000              -0.053225552              -0.431067419               0.000000000              -0.056317035              -0.454044946               0.000000000              -0.059408517              -0.477022473               0.000000000              -0.062500000              -0.500000000               0.000000000               0.000000000              -0.133000000               0.000000000               0.000000000              -0.155937500               0.000000000               0.000000000              -0.178875000               0.000000000               0.000000000              -0.201812500               0.000000000               0.000000000              -0.224750000               0.000000000               0.000000000              -0.247687500               0.000000000               0.000000000              -0.270625000               0.000000000               0.000000000              -0.293562500               0.000000000               0.000000000              -0.316500000               0.000000000               0.000000000              -0.339437500               0.000000000               0.000000000              -0.362375000               0.000000000               0.000000000              -0.385312500               0.000000000               0.000000000              -0.408250000               0.000000000               0.000000000              -0.431187500               0.000000000               0.000000000              -0.454125000               0.000000000               0.000000000              -0.477062500               0.000000000               0.000000000              -0.500000000               0.000000000              -0.133000000               0.000000000               0.000000000              -0.155937500               0.000000000               0.000000000              -0.178875000               0.000000000               0.000000000              -0.201812500               0.000000000               0.000000000              -0.224750000               0.000000000               0.000000000              -0.247687500               0.000000000               0.000000000              -0.270625000               0.000000000               0.000000000              -0.293562500               0.000000000               0.000000000              -0.316500000               0.000000000               0.000000000              -0.339437500               0.000000000               0.000000000              -0.362375000               0.000000000               0.000000000              -0.385312500               0.000000000               0.000000000              -0.408250000               0.000000000               0.000000000              -0.431187500               0.000000000               0.000000000              -0.454125000               0.000000000               0.000000000              -0.477062500               0.000000000               0.000000000              -0.500000000               0.000000000               0.000000000              -0.132359569               0.013036280               0.000000000              -0.155337096               0.016127762               0.000000000              -0.178314623               0.019219245               0.000000000              -0.201292150               0.022310727               0.000000000              -0.224269676               0.025402210               0.000000000              -0.247247203               0.028493692               0.000000000              -0.270224730               0.031585175               0.000000000              -0.293202257               0.034676657               0.000000000              -0.316179784               0.037768140               0.000000000              -0.339157311               0.040859622               0.000000000              -0.362134838               0.043951105               0.000000000              -0.385112365               0.047042587               0.000000000              -0.408089892               0.050134070               0.000000000              -0.431067419               0.053225552               0.000000000              -0.454044946               0.056317035               0.000000000              -0.477022473               0.059408517               0.000000000              -0.500000000               0.062500000               0.000000000              -0.130444442               0.025947013               0.000000000              -0.153541665               0.032137825               0.000000000              -0.176638887               0.038328636               0.000000000              -0.199736109               0.044519448               0.000000000              -0.222833332               0.050710260               0.000000000              -0.245930554               0.056901071               0.000000000              -0.269027776               0.063091883               0.000000000              -0.292124999               0.069282695               0.000000000              -0.315222221               0.075473506               0.000000000              -0.338319444               0.081664318               0.000000000              -0.361416666               0.087855130               0.000000000              -0.384513888               0.094045942               0.000000000              -0.407611111               0.100236753               0.000000000              -0.430708333               0.106427565               0.000000000              -0.453805555               0.112618377               0.000000000              -0.476902778               0.118809188               0.000000000              -0.500000000               0.125000000               0.000000000              -0.127273065               0.038607862               0.000000000              -0.150568498               0.047913621               0.000000000              -0.173863932               0.057219379               0.000000000              -0.197159365               0.066525138               0.000000000              -0.220454798               0.075830897               0.000000000              -0.243750232               0.085136655               0.000000000              -0.267045665               0.094442414               0.000000000              -0.290341099               0.103748172               0.000000000              -0.313636532               0.113053931               0.000000000              -0.336931966               0.122359690               0.000000000              -0.360227399               0.131665448               0.000000000              -0.383522833               0.140971207               0.000000000              -0.406818266               0.150276966               0.000000000              -0.430113700               0.159582724               0.000000000              -0.453409133               0.168888483               0.000000000              -0.476704567               0.178194241               0.000000000              -0.500000000               0.187500000               0.000000000              -0.122875978               0.050896897               0.000000000              -0.146446229               0.063340840               0.000000000              -0.170016481               0.075784784               0.000000000              -0.193586732               0.088228728               0.000000000              -0.217156983               0.100672672               0.000000000              -0.240727235               0.113116616               0.000000000              -0.264297486               0.125560560               0.000000000              -0.287867738               0.138004504               0.000000000              -0.311437989               0.150448448               0.000000000              -0.335008240               0.162892392               0.000000000              -0.358578492               0.175336336               0.000000000              -0.382148743               0.187780280               0.000000000              -0.405718994               0.200224224               0.000000000              -0.429289246               0.212668168               0.000000000              -0.452859497               0.225112112               0.000000000              -0.476429749               0.237556056               0.000000000              -0.500000000               0.250000000               0.000000000              -0.117295528               0.062695766               0.000000000              -0.141214558               0.078308531               0.000000000              -0.165133587               0.093921295               0.000000000              -0.189052617               0.109534060               0.000000000              -0.212971646               0.125146824               0.000000000              -0.236890676               0.140759589               0.000000000              -0.260809705               0.156372354               0.000000000              -0.284728735               0.171985118               0.000000000              -0.308647764               0.187597883               0.000000000              -0.332566794               0.203210648               0.000000000              -0.356485823               0.218823412               0.000000000              -0.380404853               0.234436177               0.000000000              -0.404323882               0.250048941               0.000000000              -0.428242912               0.265661706               0.000000000              -0.452161941               0.281274471               0.000000000              -0.476080971               0.296887235               0.000000000              -0.500000000               0.312500000               0.000000000              -0.110585458               0.073890841               0.000000000              -0.134923867               0.092710163               0.000000000              -0.159262276               0.111529486               0.000000000              -0.183600685               0.130348808               0.000000000              -0.207939094               0.149168131               0.000000000              -0.232277503               0.167987453               0.000000000              -0.256615912               0.186806776               0.000000000              -0.280954320               0.205626098               0.000000000              -0.305292729               0.224445420               0.000000000              -0.329631138               0.243264743               0.000000000              -0.353969547               0.262084065               0.000000000              -0.378307956               0.280903388               0.000000000              -0.402646365               0.299722710               0.000000000              -0.426984773               0.318542033               0.000000000              -0.451323182               0.337361355               0.000000000              -0.475661591               0.356180678               0.000000000              -0.500000000               0.375000000               0.000000000              -0.102810390               0.084374307               0.000000000              -0.127634741               0.106444663               0.000000000              -0.152459092               0.128515018               0.000000000              -0.177283442               0.150585374               0.000000000              -0.202107793               0.172655730               0.000000000              -0.226932143               0.194726086               0.000000000              -0.251756494               0.216796442               0.000000000              -0.276580845               0.238866798               0.000000000              -0.301405195               0.260937153               0.000000000              -0.326229546               0.283007509               0.000000000              -0.351053896               0.305077865               0.000000000              -0.375878247               0.327148221               0.000000000              -0.400702598               0.349218577               0.000000000              -0.425526948               0.371288933               0.000000000              -0.450351299               0.393359288               0.000000000              -0.475175649               0.415429644               0.000000000              -0.500000000               0.437500000               0.000000000              -0.094045202               0.094045202               0.000000000              -0.119417377               0.119417377               0.000000000              -0.144789552               0.144789552               0.000000000              -0.170161727               0.170161727               0.000000000              -0.195533901               0.195533901               0.000000000              -0.220906076               0.220906076               0.000000000              -0.246278251               0.246278251               0.000000000              -0.271650426               0.271650426               0.000000000              -0.297022601               0.297022601               0.000000000              -0.322394776               0.322394776               0.000000000              -0.347766951               0.347766951               0.000000000              -0.373139126               0.373139126               0.000000000              -0.398511300               0.398511300               0.000000000              -0.423883475               0.423883475               0.000000000              -0.449255650               0.449255650               0.000000000              -0.474627825               0.474627825               0.000000000              -0.500000000               0.500000000               0.000000000              -0.084374307               0.102810390               0.000000000              -0.106444663               0.127634741               0.000000000              -0.128515018               0.152459092               0.000000000              -0.150585374               0.177283442               0.000000000              -0.172655730               0.202107793               0.000000000              -0.194726086               0.226932143               0.000000000              -0.216796442               0.251756494               0.000000000              -0.238866798               0.276580845               0.000000000              -0.260937153               0.301405195               0.000000000              -0.283007509               0.326229546               0.000000000              -0.305077865               0.351053896               0.000000000              -0.327148221               0.375878247               0.000000000              -0.349218577               0.400702598               0.000000000              -0.371288933               0.425526948               0.000000000              -0.393359288               0.450351299               0.000000000              -0.415429644               0.475175649               0.000000000              -0.437500000               0.500000000               0.000000000              -0.073890841               0.110585458               0.000000000              -0.092710163               0.134923867               0.000000000              -0.111529486               0.159262276               0.000000000              -0.130348808               0.183600685               0.000000000              -0.149168131               0.207939094               0.000000000              -0.167987453               0.232277503               0.000000000              -0.186806776               0.256615912               0.000000000              -0.205626098               0.280954320               0.000000000              -0.224445420               0.305292729               0.000000000              -0.243264743               0.329631138               0.000000000              -0.262084065               0.353969547               0.000000000              -0.280903388               0.378307956               0.000000000              -0.299722710               0.402646365               0.000000000              -0.318542033               0.426984773               0.000000000              -0.337361355               0.451323182               0.000000000              -0.356180678               0.475661591               0.000000000              -0.375000000               0.500000000               0.000000000              -0.062695766               0.117295528               0.000000000              -0.078308531               0.141214558               0.000000000              -0.093921295               0.165133587               0.000000000              -0.109534060               0.189052617               0.000000000              -0.125146824               0.212971646               0.000000000              -0.140759589               0.236890676               0.000000000              -0.156372354               0.260809705               0.000000000              -0.171985118               0.284728735               0.000000000              -0.187597883               0.308647764               0.000000000              -0.203210648               0.332566794               0.000000000              -0.218823412               0.356485823               0.000000000              -0.234436177               0.380404853               0.000000000              -0.250048941               0.404323882               0.000000000              -0.265661706               0.428242912               0.000000000              -0.281274471               0.452161941               0.000000000              -0.296887235               0.476080971               0.000000000              -0.312500000               0.500000000               0.000000000              -0.050896897               0.122875978               0.000000000              -0.063340840               0.146446229               0.000000000              -0.075784784               0.170016481               0.000000000              -0.088228728               0.193586732               0.000000000              -0.100672672               0.217156983               0.000000000              -0.113116616               0.240727235               0.000000000              -0.125560560               0.264297486               0.000000000              -0.138004504               0.287867738               0.000000000              -0.150448448               0.311437989               0.000000000              -0.162892392               0.335008240               0.000000000              -0.175336336               0.358578492               0.000000000              -0.187780280               0.382148743               0.000000000              -0.200224224               0.405718994               0.000000000              -0.212668168               0.429289246               0.000000000              -0.225112112               0.452859497               0.000000000              -0.237556056               0.476429749               0.000000000              -0.250000000               0.500000000               0.000000000              -0.038607862               0.127273065               0.000000000              -0.047913621               0.150568498               0.000000000              -0.057219379               0.173863932               0.000000000              -0.066525138               0.197159365               0.000000000              -0.075830897               0.220454798               0.000000000              -0.085136655               0.243750232               0.000000000              -0.094442414               0.267045665               0.000000000              -0.103748172               0.290341099               0.000000000              -0.113053931               0.313636532               0.000000000              -0.122359690               0.336931966               0.000000000              -0.131665448               0.360227399               0.000000000              -0.140971207               0.383522833               0.000000000              -0.150276966               0.406818266               0.000000000              -0.159582724               0.430113700               0.000000000              -0.168888483               0.453409133               0.000000000              -0.178194241               0.476704567               0.000000000              -0.187500000               0.500000000               0.000000000              -0.025947013               0.130444442               0.000000000              -0.032137825               0.153541665               0.000000000              -0.038328636               0.176638887               0.000000000              -0.044519448               0.199736109               0.000000000              -0.050710260               0.222833332               0.000000000              -0.056901071               0.245930554               0.000000000              -0.063091883               0.269027776               0.000000000              -0.069282695               0.292124999               0.000000000              -0.075473506               0.315222221               0.000000000              -0.081664318               0.338319444               0.000000000              -0.087855130               0.361416666               0.000000000              -0.094045942               0.384513888               0.000000000              -0.100236753               0.407611111               0.000000000              -0.106427565               0.430708333               0.000000000              -0.112618377               0.453805555               0.000000000              -0.118809188               0.476902778               0.000000000              -0.125000000               0.500000000               0.000000000              -0.013036280               0.132359569               0.000000000              -0.016127762               0.155337096               0.000000000              -0.019219245               0.178314623               0.000000000              -0.022310727               0.201292150               0.000000000              -0.025402210               0.224269676               0.000000000              -0.028493692               0.247247203               0.000000000              -0.031585175               0.270224730               0.000000000              -0.034676657               0.293202257               0.000000000              -0.037768140               0.316179784               0.000000000              -0.040859622               0.339157311               0.000000000              -0.043951105               0.362134838               0.000000000              -0.047042587               0.385112365               0.000000000              -0.050134070               0.408089892               0.000000000              -0.053225552               0.431067419               0.000000000              -0.056317035               0.454044946               0.000000000              -0.059408517               0.477022473               0.000000000              -0.062500000               0.500000000               0.000000000               0.000000000               0.133000000               0.000000000               0.000000000               0.155937500               0.000000000               0.000000000               0.178875000               0.000000000               0.000000000               0.201812500               0.000000000               0.000000000               0.224750000               0.000000000               0.000000000               0.247687500               0.000000000               0.000000000               0.270625000               0.000000000               0.000000000               0.293562500               0.000000000               0.000000000               0.316500000               0.000000000               0.000000000               0.339437500               0.000000000               0.000000000               0.362375000               0.000000000               0.000000000               0.385312500               0.000000000               0.000000000               0.408250000               0.000000000               0.000000000               0.431187500               0.000000000               0.000000000               0.454125000               0.000000000               0.000000000               0.477062500               0.000000000               0.000000000               0.500000000               0.000000000 </DataArray>
</Points>
<Cells>
<DataArray type="Int32"                                    Name="connectivity"                                                      NumberOfComponents=" 1" format="ascii">
         0          1         18         17          1          2         19         18          2          3         20         19          3          4         21         20          4          5         22         21          5          6         23         22          6          7         24         23          7          8         25         24          8          9         26         25          9         10         27         26         10         11         28         27         11         12         29         28         12         13         30         29         13         14         31         30         14         15         32         31         15         16         33         32         17         18         35         34         18         19         36         35         19         20         37         36         20         21         38         37         21         22         39         38         22         23         40         39         23         24         41         40         24         25         42         41         25         26         43         42         26         27         44         43         27         28         45         44         28         29         46         45         29         30         47         46         30         31         48         47         31         32         49         48         32         33         50         49         34         35         52         51         35         36         53         52         36         37         54         53         37         38         55         54         38         39         56         55         39         40         57         56         40         41         58         57         41         42         59         58         42         43         60         59         43         44         61         60         44         45         62         61         45         46         63         62         46         47         64         63         47         48         65         64         48         49         66         65         49         50         67         66         51         52         69         68         52         53         70         69         53         54         71         70         54         55         72         71         55         56         73         72         56         57         74         73         57         58         75         74         58         59         76         75         59         60         77         76         60         61         78         77         61         62         79         78         62         63         80         79         63         64         81         80         64         65         82         81         65         66         83         82         66         67         84         83         68         69         86         85         69         70         87         86         70         71         88         87         71         72         89         88         72         73         90         89         73         74         91         90         74         75         92         91         75         76         93         92         76         77         94         93         77         78         95         94         78         79         96         95         79         80         97         96         80         81         98         97         81         82         99         98         82         83        100         99         83         84        101        100         85         86        103        102         86         87        104        103         87         88        105        104         88         89        106        105         89         90        107        106         90         91        108        107         91         92        109        108         92         93        110        109         93         94        111        110         94         95        112        111         95         96        113        112         96         97        114        113         97         98        115        114         98         99        116        115         99        100        117        116        100        101        118        117        102        103        120        119        103        104        121        120        104        105        122        121        105        106        123        122        106        107        124        123        107        108        125        124        108        109        126        125        109        110        127        126        110        111        128        127        111        112        129        128        112        113        130        129        113        114        131        130        114        115        132        131        115        116        133        132        116        117        134        133        117        118        135        134        119        120        137        136        120        121        138        137        121        122        139        138        122        123        140        139        123        124        141        140        124        125        142        141        125        126        143        142        126        127        144        143        127        128        145        144        128        129        146        145        129        130        147        146        130        131        148        147        131        132        149        148        132        133        150        149        133        134        151        150        134        135        152        151        136        137        154        153        137        138        155        154        138        139        156        155        139        140        157        156        140        141        158        157        141        142        159        158        142        143        160        159        143        144        161        160        144        145        162        161        145        146        163        162        146        147        164        163        147        148        165        164        148        149        166        165        149        150        167        166        150        151        168        167        151        152        169        168        153        154        171        170        154        155        172        171        155        156        173        172        156        157        174        173        157        158        175        174        158        159        176        175        159        160        177        176        160        161        178        177        161        162        179        178        162        163        180        179        163        164        181        180        164        165        182        181        165        166        183        182        166        167        184        183        167        168        185        184        168        169        186        185        170        171        188        187        171        172        189        188        172        173        190        189        173        174        191        190        174        175        192        191        175        176        193        192        176        177        194        193        177        178        195        194        178        179        196        195        179        180        197        196        180        181        198        197        181        182        199        198        182        183        200        199        183        184        201        200        184        185        202        201        185        186        203        202        187        188        205        204        188        189        206        205        189        190        207        206        190        191        208        207        191        192        209        208        192        193        210        209        193        194        211        210        194        195        212        211        195        196        213        212        196        197        214        213        197        198        215        214        198        199        216        215        199        200        217        216        200        201        218        217        201        202        219        218        202        203        220        219        204        205        222        221        205        206        223        222        206        207        224        223        207        208        225        224        208        209        226        225        209        210        227        226        210        211        228        227        211        212        229        228        212        213        230        229        213        214        231        230        214        215        232        231        215        216        233        232        216        217        234        233        217        218        235        234        218        219        236        235        219        220        237        236        221        222        239        238        222        223        240        239        223        224        241        240        224        225        242        241        225        226        243        242        226        227        244        243        227        228        245        244        228        229        246        245        229        230        247        246        230        231        248        247        231        232        249        248        232        233        250        249        233        234        251        250        234        235        252        251        235        236        253        252        236        237        254        253        238        239        256        255        239        240        257        256        240        241        258        257        241        242        259        258        242        243        260        259        243        244        261        260        244        245        262        261        245        246        263        262        246        247        264        263        247        248        265        264        248        249        266        265        249        250        267        266        250        251        268        267        251        252        269        268        252        253        270        269        253        254        271        270        255        256        273        272        256        257        274        273        257        258        275        274        258        259        276        275        259        260        277        276        260        261        278        277        261        262        279        278        262        263        280        279        263        264        281        280        264        265        282        281        265        266        283        282        266        267        284        283        267        268        285        284        268        269        286        285        269        270        287        286        270        271        288        287        306        307          1          0        307        308          2          1        308        309          3          2        309        310          4          3        310        311          5          4        311        312          6          5        312        313          7          6        313        314          8          7        314        315          9          8        315        316         10          9        316        317         11         10        317        318         12         11        318        319         13         12        319        320         14         13        320        321         15         14        321        322         16         15        323        324        307        306        324        325        308        307        325        326        309        308        326        327        310        309        327        328        311        310        328        329        312        311        329        330        313        312        330        331        314        313        331        332        315        314        332        333        316        315        333        334        317        316        334        335        318        317        335        336        319        318        336        337        320        319        337        338        321        320        338        339        322        321        340        341        324        323        341        342        325        324        342        343        326        325        343        344        327        326        344        345        328        327        345        346        329        328        346        347        330        329        347        348        331        330        348        349        332        331        349        350        333        332        350        351        334        333        351        352        335        334        352        353        336        335        353        354        337        336        354        355        338        337        355        356        339        338        357        358        341        340        358        359        342        341        359        360        343        342        360        361        344        343        361        362        345        344        362        363        346        345        363        364        347        346        364        365        348        347        365        366        349        348        366        367        350        349        367        368        351        350        368        369        352        351        369        370        353        352        370        371        354        353        371        372        355        354        372        373        356        355        374        375        358        357        375        376        359        358        376        377        360        359        377        378        361        360        378        379        362        361        379        380        363        362        380        381        364        363        381        382        365        364        382        383        366        365        383        384        367        366        384        385        368        367        385        386        369        368        386        387        370        369        387        388        371        370        388        389        372        371        389        390        373        372        391        392        375        374        392        393        376        375        393        394        377        376        394        395        378        377        395        396        379        378        396        397        380        379        397        398        381        380        398        399        382        381        399        400        383        382        400        401        384        383        401        402        385        384        402        403        386        385        403        404        387        386        404        405        388        387        405        406        389        388        406        407        390        389        408        409        392        391        409        410        393        392        410        411        394        393        411        412        395        394        412        413        396        395        413        414        397        396        414        415        398        397        415        416        399        398        416        417        400        399        417        418        401        400        418        419        402        401        419        420        403        402        420        421        404        403        421        422        405        404        422        423        406        405        423        424        407        406        425        426        409        408        426        427        410        409        427        428        411        410        428        429        412        411        429        430        413        412        430        431        414        413        431        432        415        414        432        433        416        415        433        434        417        416        434        435        418        417        435        436        419        418        436        437        420        419        437        438        421        420        438        439        422        421        439        440        423        422        440        441        424        423        442        443        426        425        443        444        427        426        444        445        428        427        445        446        429        428        446        447        430        429        447        448        431        430        448        449        432        431        449        450        433        432        450        451        434        433        451        452        435        434        452        453        436        435        453        454        437        436        454        455        438        437        455        456        439        438        456        457        440        439        457        458        441        440        459        460        443        442        460        461        444        443        461        462        445        444        462        463        446        445        463        464        447        446        464        465        448        447        465        466        449        448        466        467        450        449        467        468        451        450        468        469        452        451        469        470        453        452        470        471        454        453        471        472        455        454        472        473        456        455        473        474        457        456        474        475        458        457        476        477        460        459        477        478        461        460        478        479        462        461        479        480        463        462        480        481        464        463        481        482        465        464        482        483        466        465        483        484        467        466        484        485        468        467        485        486        469        468        486        487        470        469        487        488        471        470        488        489        472        471        489        490        473        472        490        491        474        473        491        492        475        474        493        494        477        476        494        495        478        477        495        496        479        478        496        497        480        479        497        498        481        480        498        499        482        481        499        500        483        482        500        501        484        483        501        502        485        484        502        503        486        485        503        504        487        486        504        505        488        487        505        506        489        488        506        507        490        489        507        508        491        490        508        509        492        491        510        511        494        493        511        512        495        494        512        513        496        495        513        514        497        496        514        515        498        497        515        516        499        498        516        517        500        499        517        518        501        500        518        519        502        501        519        520        503        502        520        521        504        503        521        522        505        504        522        523        506        505        523        524        507        506        524        525        508        507        525        526        509        508        527        528        511        510        528        529        512        511        529        530        513        512        530        531        514        513        531        532        515        514        532        533        516        515        533        534        517        516        534        535        518        517        535        536        519        518        536        537        520        519        537        538        521        520        538        539        522        521        539        540        523        522        540        541        524        523        541        542        525        524        542        543        526        525        544        545        528        527        545        546        529        528        546        547        530        529        547        548        531        530        548        549        532        531        549        550        533        532        550        551        534        533        551        552        535        534        552        553        536        535        553        554        537        536        554        555        538        537        555        556        539        538        556        557        540        539        557        558        541        540        558        559        542        541        559        560        543        542        561        562        545        544        562        563        546        545        563        564        547        546        564        565        548        547        565        566        549        548        566        567        550        549        567        568        551        550        568        569        552        551        569        570        553        552        570        571        554        553        571        572        555        554        572        573        556        555        573        574        557        556        574        575        558        557        575        576        559        558        576        577        560        559        578        579        596        595        579        580        597        596        580        581        598        597        581        582        599        598        582        583        600        599        583        584        601        600        584        585        602        601        585        586        603        602        586        587        604        603        587        588        605        604        588        589        606        605        589        590        607        606        590        591        608        607        591        592        609        608        592        593        610        609        593        594        611        610        595        596        613        612        596        597        614        613        597        598        615        614        598        599        616        615        599        600        617        616        600        601        618        617        601        602        619        618        602        603        620        619        603        604        621        620        604        605        622        621        605        606        623        622        606        607        624        623        607        608        625        624        608        609        626        625        609        610        627        626        610        611        628        627        612        613        630        629        613        614        631        630        614        615        632        631        615        616        633        632        616        617        634        633        617        618        635        634        618        619        636        635        619        620        637        636        620        621        638        637        621        622        639        638        622        623        640        639        623        624        641        640        624        625        642        641        625        626        643        642        626        627        644        643        627        628        645        644        629        630        647        646        630        631        648        647        631        632        649        648        632        633        650        649        633        634        651        650        634        635        652        651        635        636        653        652        636        637        654        653        637        638        655        654        638        639        656        655        639        640        657        656        640        641        658        657        641        642        659        658        642        643        660        659        643        644        661        660        644        645        662        661        646        647        664        663        647        648        665        664        648        649        666        665        649        650        667        666        650        651        668        667        651        652        669        668        652        653        670        669        653        654        671        670        654        655        672        671        655        656        673        672        656        657        674        673        657        658        675        674        658        659        676        675        659        660        677        676        660        661        678        677        661        662        679        678        663        664        681        680        664        665        682        681        665        666        683        682        666        667        684        683        667        668        685        684        668        669        686        685        669        670        687        686        670        671        688        687        671        672        689        688        672        673        690        689        673        674        691        690        674        675        692        691        675        676        693        692        676        677        694        693        677        678        695        694        678        679        696        695        680        681        698        697        681        682        699        698        682        683        700        699        683        684        701        700        684        685        702        701        685        686        703        702        686        687        704        703        687        688        705        704        688        689        706        705        689        690        707        706        690        691        708        707        691        692        709        708        692        693        710        709        693        694        711        710        694        695        712        711        695        696        713        712        697        698        715        714        698        699        716        715        699        700        717        716        700        701        718        717        701        702        719        718        702        703        720        719        703        704        721        720        704        705        722        721        705        706        723        722        706        707        724        723        707        708        725        724        708        709        726        725        709        710        727        726        710        711        728        727        711        712        729        728        712        713        730        729        714        715        732        731        715        716        733        732        716        717        734        733        717        718        735        734        718        719        736        735        719        720        737        736        720        721        738        737        721        722        739        738        722        723        740        739        723        724        741        740        724        725        742        741        725        726        743        742        726        727        744        743        727        728        745        744        728        729        746        745        729        730        747        746        731        732        749        748        732        733        750        749        733        734        751        750        734        735        752        751        735        736        753        752        736        737        754        753        737        738        755        754        738        739        756        755        739        740        757        756        740        741        758        757        741        742        759        758        742        743        760        759        743        744        761        760        744        745        762        761        745        746        763        762        746        747        764        763        748        749        766        765        749        750        767        766        750        751        768        767        751        752        769        768        752        753        770        769        753        754        771        770        754        755        772        771        755        756        773        772        756        757        774        773        757        758        775        774        758        759        776        775        759        760        777        776        760        761        778        777        761        762        779        778        762        763        780        779        763        764        781        780        765        766        783        782        766        767        784        783        767        768        785        784        768        769        786        785        769        770        787        786        770        771        788        787        771        772        789        788        772        773        790        789        773        774        791        790        774        775        792        791        775        776        793        792        776        777        794        793        777        778        795        794        778        779        796        795        779        780        797        796        780        781        798        797        782        783        800        799        783        784        801        800        784        785        802        801        785        786        803        802        786        787        804        803        787        788        805        804        788        789        806        805        789        790        807        806        790        791        808        807        791        792        809        808        792        793        810        809        793        794        811        810        794        795        812        811        795        796        813        812        796        797        814        813        797        798        815        814        799        800        817        816        800        801        818        817        801        802        819        818        802        803        820        819        803        804        821        820        804        805        822        821        805        806        823        822        806        807        824        823        807        808        825        824        808        809        826        825        809        810        827        826        810        811        828        827        811        812        829        828        812        813        830        829        813        814        831        830        814        815        832        831        816        817        834        833        817        818        835        834        818        819        836        835        819        820        837        836        820        821        838        837        821        822        839        838        822        823        840        839        823        824        841        840        824        825        842        841        825        826        843        842        826        827        844        843        827        828        845        844        828        829        846        845        829        830        847        846        830        831        848        847        831        832        849        848        833        834        562        561        834        835        563        562        835        836        564        563        836        837        565        564        837        838        566        565        838        839        567        566        839        840        568        567        840        841        569        568        841        842        570        569        842        843        571        570        843        844        572        571        844        845        573        572        845        846        574        573        846        847        575        574        847        848        576        575        848        849        577        576        884        885        579        578        885        886        580        579        886        887        581        580        887        888        582        581        888        889        583        582        889        890        584        583        890        891        585        584        891        892        586        585        892        893        587        586        893        894        588        587        894        895        589        588        895        896        590        589        896        897        591        590        897        898        592        591        898        899        593        592        899        900        594        593        901        902        885        884        902        903        886        885        903        904        887        886        904        905        888        887        905        906        889        888        906        907        890        889        907        908        891        890        908        909        892        891        909        910        893        892        910        911        894        893        911        912        895        894        912        913        896        895        913        914        897        896        914        915        898        897        915        916        899        898        916        917        900        899        918        919        902        901        919        920        903        902        920        921        904        903        921        922        905        904        922        923        906        905        923        924        907        906        924        925        908        907        925        926        909        908        926        927        910        909        927        928        911        910        928        929        912        911        929        930        913        912        930        931        914        913        931        932        915        914        932        933        916        915        933        934        917        916        935        936        919        918        936        937        920        919        937        938        921        920        938        939        922        921        939        940        923        922        940        941        924        923        941        942        925        924        942        943        926        925        943        944        927        926        944        945        928        927        945        946        929        928        946        947        930        929        947        948        931        930        948        949        932        931        949        950        933        932        950        951        934        933        952        953        936        935        953        954        937        936        954        955        938        937        955        956        939        938        956        957        940        939        957        958        941        940        958        959        942        941        959        960        943        942        960        961        944        943        961        962        945        944        962        963        946        945        963        964        947        946        964        965        948        947        965        966        949        948        966        967        950        949        967        968        951        950        969        970        953        952        970        971        954        953        971        972        955        954        972        973        956        955        973        974        957        956        974        975        958        957        975        976        959        958        976        977        960        959        977        978        961        960        978        979        962        961        979        980        963        962        980        981        964        963        981        982        965        964        982        983        966        965        983        984        967        966        984        985        968        967        986        987        970        969        987        988        971        970        988        989        972        971        989        990        973        972        990        991        974        973        991        992        975        974        992        993        976        975        993        994        977        976        994        995        978        977        995        996        979        978        996        997        980        979        997        998        981        980        998        999        982        981        999       1000        983        982       1000       1001        984        983       1001       1002        985        984       1003       1004        987        986       1004       1005        988        987       1005       1006        989        988       1006       1007        990        989       1007       1008        991        990       1008       1009        992        991       1009       1010        993        992       1010       1011        994        993       1011       1012        995        994       1012       1013        996        995       1013       1014        997        996       1014       1015        998        997       1015       1016        999        998       1016       1017       1000        999       1017       1018       1001       1000       1018       1019       1002       1001       1020       1021       1004       1003       1021       1022       1005       1004       1022       1023       1006       1005       1023       1024       1007       1006       1024       1025       1008       1007       1025       1026       1009       1008       1026       1027       1010       1009       1027       1028       1011       1010       1028       1029       1012       1011       1029       1030       1013       1012       1030       1031       1014       1013       1031       1032       1015       1014       1032       1033       1016       1015       1033       1034       1017       1016       1034       1035       1018       1017       1035       1036       1019       1018       1037       1038       1021       1020       1038       1039       1022       1021       1039       1040       1023       1022       1040       1041       1024       1023       1041       1042       1025       1024       1042       1043       1026       1025       1043       1044       1027       1026       1044       1045       1028       1027       1045       1046       1029       1028       1046       1047       1030       1029       1047       1048       1031       1030       1048       1049       1032       1031       1049       1050       1033       1032       1050       1051       1034       1033       1051       1052       1035       1034       1052       1053       1036       1035       1054       1055       1038       1037       1055       1056       1039       1038       1056       1057       1040       1039       1057       1058       1041       1040       1058       1059       1042       1041       1059       1060       1043       1042       1060       1061       1044       1043       1061       1062       1045       1044       1062       1063       1046       1045       1063       1064       1047       1046       1064       1065       1048       1047       1065       1066       1049       1048       1066       1067       1050       1049       1067       1068       1051       1050       1068       1069       1052       1051       1069       1070       1053       1052       1071       1072       1055       1054       1072       1073       1056       1055       1073       1074       1057       1056       1074       1075       1058       1057       1075       1076       1059       1058       1076       1077       1060       1059       1077       1078       1061       1060       1078       1079       1062       1061       1079       1080       1063       1062       1080       1081       1064       1063       1081       1082       1065       1064       1082       1083       1066       1065       1083       1084       1067       1066       1084       1085       1068       1067       1085       1086       1069       1068       1086       1087       1070       1069       1088       1089       1072       1071       1089       1090       1073       1072       1090       1091       1074       1073       1091       1092       1075       1074       1092       1093       1076       1075       1093       1094       1077       1076       1094       1095       1078       1077       1095       1096       1079       1078       1096       1097       1080       1079       1097       1098       1081       1080       1098       1099       1082       1081       1099       1100       1083       1082       1100       1101       1084       1083       1101       1102       1085       1084       1102       1103       1086       1085       1103       1104       1087       1086       1105       1106       1089       1088       1106       1107       1090       1089       1107       1108       1091       1090       1108       1109       1092       1091       1109       1110       1093       1092       1110       1111       1094       1093       1111       1112       1095       1094       1112       1113       1096       1095       1113       1114       1097       1096       1114       1115       1098       1097       1115       1116       1099       1098       1116       1117       1100       1099       1117       1118       1101       1100       1118       1119       1102       1101       1119       1120       1103       1102       1120       1121       1104       1103       1122       1123       1106       1105       1123       1124       1107       1106       1124       1125       1108       1107       1125       1126       1109       1108       1126       1127       1110       1109       1127       1128       1111       1110       1128       1129       1112       1111       1129       1130       1113       1112       1130       1131       1114       1113       1131       1132       1115       1114       1132       1133       1116       1115       1133       1134       1117       1116       1134       1135       1118       1117       1135       1136       1119       1118       1136       1137       1120       1119       1137       1138       1121       1120        272        273       1123       1122        273        274       1124       1123        274        275       1125       1124        275        276       1126       1125        276        277       1127       1126        277        278       1128       1127        278        279       1129       1128        279        280       1130       1129        280        281       1131       1130        281        282       1132       1131        282        283       1133       1132        283        284       1134       1133        284        285       1135       1134        285        286       1136       1135        286        287       1137       1136        287        288       1138       1137 </DataArray>
<DataArray type="Int32"                                    Name="offsets"                                                      NumberOfComponents=" 1" format="ascii">
         4          8         12         16         20         24         28         32         36         40         44         48         52         56         60         64         68         72         76         80         84         88         92         96        100        104        108        112        116        120        124        128        132        136        140        144        148        152        156        160        164        168        172        176        180        184        188        192        196        200        204        208        212        216        220        224        228        232        236        240        244        248        252        256        260        264        268        272        276        280        284        288        292        296        300        304        308        312        316        320        324        328        332        336        340        344        348        352        356        360        364        368        372        376        380        384        388        392        396        400        404        408        412        416        420        424        428        432        436        440        444        448        452        456        460        464        468        472        476        480        484        488        492        496        500        504        508        512        516        520        524        528        532        536        540        544        548        552        556        560        564        568        572        576        580        584        588        592        596        600        604        608        612        616        620        624        628        632        636        640        644        648        652        656        660        664        668        672        676        680        684        688        692        696        700        704        708        712        716        720        724        728        732        736        740        744        748        752        756        760        764        768        772        776        780        784        788        792        796        800        804        808        812        816        820        824        828        832        836        840        844        848        852        856        860        864        868        872        876        880        884        888        892        896        900        904        908        912        916        920        924        928        932        936        940        944        948        952        956        960        964        968        972        976        980        984        988        992        996       1000       1004       1008       1012       1016       1020       1024       1028       1032       1036       1040       1044       1048       1052       1056       1060       1064       1068       1072       1076       1080       1084       1088       1092       1096       1100       1104       1108       1112       1116       1120       1124       1128       1132       1136       1140       1144       1148       1152       1156       1160       1164       1168       1172       1176       1180       1184       1188       1192       1196       1200       1204       1208       1212       1216       1220       1224       1228       1232       1236       1240       1244       1248       1252       1256       1260       1264       1268       1272       1276       1280       1284       1288       1292       1296       1300       1304       1308       1312       1316       1320       1324       1328       1332       1336       1340       1344       1348       1352       1356       1360       1364       1368       1372       1376       1380       1384       1388       1392       1396       1400       1404       1408       1412       1416       1420       1424       1428       1432       1436       1440       1444       1448       1452       1456       1460       1464       1468       1472       1476       1480       1484       1488       1492       1496       1500       1504       1508       1512       1516       1520       1524       1528       1532       1536       1540       1544       1548       1552       1556       1560       1564       1568       1572       1576       1580       1584       1588       1592       1596       1600       1604       1608       1612       1616       1620       1624       1628       1632       1636       1640       1644       1648       1652       1656       1660       1664       1668       1672       1676       1680       1684       1688       1692       1696       1700       1704       1708       1712       1716       1720       1724       1728       1732       1736       1740       1744       1748       1752       1756       1760       1764       1768       1772       1776       1780       1784       1788       1792       1796       1800       1804       1808       1812       1816       1820       1824       1828       1832       1836       1840       1844       1848       1852       1856       1860       1864       1868       1872       1876       1880       1884       1888       1892       1896       1900       1904       1908       1912       1916       1920       1924       1928       1932       1936       1940       1944       1948       1952       1956       1960       1964       1968       1972       1976       1980       1984       1988       1992       1996       2000       2004       2008       2012       2016       2020       2024       2028       2032       2036       2040       2044       2048       2052       2056       2060       2064       2068       2072       2076       2080       2084       2088       2092       2096       2100       2104       2108       2112       2116       2120       2124       2128       2132       2136       2140       2144       2148       2152       2156       2160       2164       2168       2172       2176       2180       2184       2188       2192       2196       2200       2204       2208       2212       2216       2220       2224       2228       2232       2236       2240       2244       2248       2252       2256       2260       2264       2268       2272       2276       2280       2284       2288       2292       2296       2300       2304       2308       2312       2316       2320       2324       2328       2332       2336       2340       2344       2348       2352       2356       2360       2364       2368       2372       2376       2380       2384       2388       2392       2396       2400       2404       2408       2412       2416       2420       2424       2428       2432       2436       2440       2444       2448       2452       2456       2460       2464       2468       2472       2476       2480       2484       2488       2492       2496       2500       2504       2508       2512       2516       2520       2524       2528       2532       2536       2540       2544       2548       2552       2556       2560       2564       2568       2572       2576       2580       2584       2588       2592       2596       2600       2604       2608       2612       2616       2620       2624       2628       2632       2636       2640       2644       2648       2652       2656       2660       2664       2668       2672       2676       2680       2684       2688       2692       2696       2700       2704       2708       2712       2716       2720       2724       2728       2732       2736       2740       2744       2748       2752       2756       2760       2764       2768       2772       2776       2780       2784       2788       2792       2796       2800       2804       2808       2812       2816       2820       2824       2828       2832       2836       2840       2844       2848       2852       2856       2860       2864       2868       2872       2876       2880       2884       2888       2892       2896       2900       2904       2908       2912       2916       2920       2924       2928       2932       2936       2940       2944       2948       2952       2956       2960       2964       2968       2972       2976       2980       2984       2988       2992       2996       3000       3004       3008       3012       3016       3020       3024       3028       3032       3036       3040       3044       3048       3052       3056       3060       3064       3068       3072       3076       3080       3084       3088       3092       3096       3100       3104       3108       3112       3116       3120       3124       3128       3132       3136       3140       3144       3148       3152       3156       3160       3164       3168       3172       3176       3180       3184       3188       3192       3196       3200       3204       3208       3212       3216       3220       3224       3228       3232       3236       3240       3244       3248       3252       3256       3260       3264       3268       3272       3276       3280       3284       3288       3292       3296       3300       3304       3308       3312       3316       3320       3324       3328       3332       3336       3340       3344       3348       3352       3356       3360       3364       3368       3372       3376       3380       3384       3388       3392       3396       3400       3404       3408       3412       3416       3420       3424       3428       3432       3436       3440       3444       3448       3452       3456       3460       3464       3468       3472       3476       3480       3484       3488       3492       3496       3500       3504       3508       3512       3516       3520       3524       3528       3532       3536       3540       3544       3548       3552       3556       3560       3564       3568       3572       3576       3580       3584       3588       3592       3596       3600       3604       3608       3612       3616       3620       3624       3628       3632       3636       3640       3644       3648       3652       3656       3660       3664       3668       3672       3676       3680       3684       3688       3692       3696       3700       3704       3708       3712       3716       3720       3724       3728       3732       3736       3740       3744       3748       3752       3756       3760       3764       3768       3772       3776       3780       3784       3788       3792       3796       3800       3804       3808       3812       3816       3820       3824       3828       3832       3836       3840       3844       3848       3852       3856       3860       3864       3868       3872       3876       3880       3884       3888       3892       3896       3900       3904       3908       3912       3916       3920       3924       3928       3932       3936       3940       3944       3948       3952       3956       3960       3964       3968       3972       3976       3980       3984       3988       3992       3996       4000       4004       4008       4012       4016       4020       4024       4028       4032       4036       4040       4044       4048       4052       4056       4060       4064       4068       4072       4076       4080       4084       4088       4092       4096 </DataArray>
<DataArray type="UInt8"                                    Name="types"                                                      NumberOfComponents=" 1" format="ascii">
         9          9          9          9          9          9          9          9          9          9          9          9          9          9          9          9          9          9          9          9          9          9          9          9          9          9          9          9          9          9          9          9          9          9          9          9          9          9          9          9          9          9          9          9          9          9          9          9          9          9          9          9          9          9          9          9          9          9          9          9          9          9          9          9          9          9          9          9          9          9          9          9          9          9          9          9          9          9          9          9          9          9          9          9          9          9          9          9          9          9          9          9          9          9          9          9          9          9          9          9          9          9          9          9          9          9          9          9          9          9          9          9          9          9          9          9          9          9          9          9          9          9          9          9          9          9          9          9          9          9          9          9          9          9          9          9          9          9          9          9          9          9          9          9          9          9          9          9          9          9          9          9          9          9          9          9          9          9          9          9          9          9          9          9          9          9          9          9          9          9          9          9          9          9          9          9          9          9          9          9          9          9          9          9          9          9          9          9          9          9          9          9          9          9          9          9          9          9          9          9          9          9          9          9          9          9          9          9          9          9          9          9          9          9          9          9          9          9          9          9          9          9          9          9          9          9          9          9          9          9          9          9          9          9          9          9          9          9          9          9          9          9          9          9          9          9          9          9          9          9          9          9          9          9          9          9          9          9          9          9          9          9          9          9          9          9          9          9          9          9          9          9          9          9          9          9          9          9          9          9          9          9          9          9          9          9          9          9          9          9          9          9          9          9          9          9          9          9          9          9          9          9          9          9          9          9          9          9          9          9          9          9          9          9          9          9          9          9          9          9          9          9          9          9          9          9          9          9          9          9          9          9          9          9          9          9          9          9          9          9          9          9          9          9          9          9          9          9          9          9          9          9          9          9          9          9          9          9          9          9          9          9          9          9          9          9          9          9          9          9          9          9          9          9          9          9          9          9          9          9          9          9          9          9          9          9          9          9          9          9          9          9          9          9          9          9          9          9          9          9          9          9          9          9          9          9          9          9          9          9          9          9          9          9          9          9          9          9          9          9          9          9          9          9          9          9          9          9          9          9          9          9          9          9          9          9          9          9          9          9          9          9          9          9          9          9          9          9          9          9          9          9          9          9          9          9          9          9          9          9          9          9          9          9          9          9          9          9          9          9          9          9          9          9          9          9          9          9          9          9          9          9          9          9          9          9          9          9          9          9          9          9          9          9          9          9          9          9          9          9          9          9          9          9          9          9          9          9          9          9          9          9          9          9          9          9          9          9          9          9          9          9          9          9          9          9          9          9          9          9          9          9          9          9          9          9          9          9          9          9          9          9          9          9          9          9          9          9          9          9          9          9          9          9          9          9          9          9          9          9          9          9          9          9          9          9          9          9          9          9          9          9          9          9          9          9          9          9          9          9          9          9          9          9          9          9          9          9          9          9          9          9          9          9          9          9          9          9          9          9          9          9          9          9          9          9          9          9          9          9          9          9          9          9          9          9          9          9          9          9          9          9          9          9          9          9          9          9          9          9          9          9          9          9          9          9          9          9          9          9          9          9          9          9          9          9          9          9          9          9          9          9          9          9          9          9          9          9          9          9          9          9          9          9          9          9          9          9          9          9          9          9          9          9          9          9          9          9          9          9          9          9          9          9          9          9          9          9          9          9          9          9          9          9          9          9          9          9          9          9          9          9          9          9          9          9          9          9          9          9          9          9          9          9          9          9          9          9          9          9          9          9          9          9          9          9          9          9          9          9          9          9          9          9          9          9          9          9          9          9          9          9          9          9          9          9          9          9          9          9          9          9          9          9          9          9          9          9          9          9          9          9          9          9          9          9          9          9          9          9          9          9          9          9          9          9          9          9          9          9          9          9          9          9          9          9          9          9          9          9          9          9          9          9          9          9          9          9          9          9          9          9          9          9          9          9          9          9          9          9          9          9          9          9          9          9          9          9          9          9          9          9          9          9          9          9          9          9          9          9          9          9          9          9          9          9          9          9          9          9          9          9          9          9          9          9          9          9          9          9          9          9          9          9          9          9          9          9          9          9          9          9          9          9          9          9          9          9          9          9          9          9          9          9          9          9          9          9          9          9          9          9          9          9          9          9          9          9          9          9          9          9          9          9          9          9          9          9          9          9          9          9          9          9          9          9          9          9          9          9          9          9          9          9          9          9          9          9          9          9          9          9          9          9          9          9          9          9          9          9          9          9          9          9          9          9          9          9          9          9          9          9          9          9          9          9          9          9          9          9          9          9          9          9          9          9          9          9          9          9          9          9          9          9          9          9          9          9          9          9          9          9          9          9          9          9          9          9          9          9          9          9          9          9          9          9          9          9          9          9          9          9          9          9          9          9          9          9          9          9          9          9          9          9          9          9          9          9          9          9          9          9          9          9          9          9          9          9          9          9          9          9          9          9 </DataArray>
</Cells>
<CellData>
<DataArray type="Int32"                                    Name="material"                                                      NumberOfComponents=" 1" format="ascii">
         1          1          1          1          1          1          1          1          1          1          1          1          1          1          1          1          1          1          1          1          1          1          1          1          1          1          1          1          1          1          1          1          1          1          1          1          1          1          1          1          1          1          1          1          1          1          1          1          1          1          1          1          1          1          1          1          1          1          1          1          1          1          1          1          1          1          1          1          1          1          1          1          1          1          1          1          1          1          1          1          1          1          1          1          1          1          1          1          1          1          1          1          1          1          1          1          1          1          1          1          1          1          1          1          1          1          1          1          1          1          1          1          1          1          1          1          1          1          1          1          1          1          1          1          1          1          1          1          1          1          1          1          1          1          1          1          1          1          1          1          1          1          1          1          1          1          1          1          1          1          1          1          1          1          1          1          1          1          1          1          1          1          1          1          1          1          1          1          1          1          1          1          1          1          1          1          1          1          1          1          1          1          1          1          1          1          1          1          1          1          1          1          1          1          1          1          1          1          1          1          1          1          1          1          1          1          1          1          1          1          1          1          1          1          1          1          1          1          1          1          1          1          1          1          1          1          1          1          1          1          1          1          1          1          1          1          1          1          1          1          1          1          1          1          1          1          1          1          1          1          1          1          1          1          1          1          1          1          1          1          1          1          1          1          1          1          1          1          1          1          1          1          1          1          1          1          1          1          1          1          1          1          1          1          1          1          1          1          1          1          1          1          1          1          1          1          1          1          1          1          1          1          1          1          1          1          1          1          1          1          1          1          1          1          1          1          1          1          1          1          1          1          1          1          1          1          1          1          1          1          1          1          1          1          1          1          1          1          1          1          1          1          1          1          1          1          1          1          1          1          1          1          1          1          1          1          1          1          1          1          1          1          1          1          1          1          1          1          1          1          1          1          1          1          1          1          1          1          1          1          1          1          1          1          1          1          1          1          1          1          1          1          1          1          1          1          1          1          1          1          1          1          1          1          1          1          1          1          1          1          1          1          1          1          1          1          1          1          1          1          1          1          1          1          1          1          1          1          1          1          1          1          1          1          1          1          1          1          1          1          1          1          1          1          1          1          1          1          1          1          1          1          1          1          1          1          1          1          1          1          1          1          1          1          1          1          1          1          1          1          1          1          1          1          1          1          1          1          1          1          1          1          1          1          1          1          1          1          1          1          1          1          1          1          1          1          1          1          1          1          1          1          1          1          1          1          1          1          1          1          1          1          1          1          1          1          1          1          1          1          1          1          1          1          1          1          1          1          1          1          1          1          1          1          1          1          1          1          1          1          1          1          1          1          1          1          1          1          1          1          1          1          1          1          1          1          1          1          1          1          1          1          1          1          1          1          1          1          1          1          1          1          1          1          1          1          1          1          1          1          1          1          1          1          1          1          1          1          1          1          1          1          1          1          1          1          1          1          1          1          1          1          1          1          1          1          1          1          1          1          1          1          1          1          1          1          1          1          1          1          1          1          1          1          1          1          1          1          1          1          1          1          1          1          1          1          1          1          1          1          1          1          1          1          1          1          1          1          1          1          1          1          1          1          1          1          1          1          1          1          1          1          1          1          1          1          1          1          1          1          1          1          1          1          1          1          1          1          1          1          1          1          1          1          1          1          1          1          1          1          1          1          1          1          1          1          1          1          1          1          1          1          1          1          1          1          1          1          1          1          1          1          1          1          1          1          1          1          1          1          1          1          1          1          1          1          1          1          1          1          1          1          1          1          1          1          1          1          1          1          1          1          1          1          1          1          1          1          1          1          1          1          1          1          1          1          1          1          1          1          1          1          1          1          1          1          1          1          1          1          1          1          1          1          1          1          1          1          1          1          1          1          1          1          1          1          1          1          1          1          1          1          1          1          1          1          1          1          1          1          1          1          1          1          1          1          1          1          1          1          1          1          1          1          1          1          1          1          1          1          1          1          1          1          1          1          1          1          1          1          1          1          1          1          1          1          1          1          1          1          1          1          1          1          1          1          1          1          1          1          1          1          1          1          1          1          1          1          1          1          1          1          1          1          1          1          1          1          1          1          1          1          1          1          1          1          1          1          1          1          1          1          1          1          1          1          1          1          1          1          1          1          1          1          1          1          1          1          1          1          1          1          1          1          1          1          1          1          1          1          1          1          1          1          1          1          1          1          1          1          1          1          1          1          1          1          1          1          1          1          1          1          1          1          1          1          1          1          1          1          1          1          1          1          1          1          1          1          1          1          1          1          1          1          1          1          1          1          1          1          1          1          1          1          1          1          1          1          1          1          1          1          1          1          1          1          1          1          1          1          1          1          1          1          1          1          1          1          1          1          1          1          1          1          1          1          1          1          1          1          1          1          1          1          1          1          1          1          1          1          1          1          1          1          1          1          1          1          1          1          1          1          1          1 </DataArray>
</CellData>
<PointData>
<DataArray type="Float64"                                    Name="u"                                                      NumberOfComponents=" 3" format="ascii">
             -0.000810908              -0.000000000               0.999999984              -0.000862421               0.000000000               0.999999984              -0.000884648               0.000000000               0.999999984              -0.000897014               0.000000000               0.999999984              -0.000906758               0.000000000               0.999999984              -0.000916587               0.000000000               0.999999984              -0.000927314               0.000000000               0.999999984              -0.000939253              -0.000000000               0.999999984              -0.000952444               0.000000000               0.999999984              -0.000966616              -0.000000000               0.999999984              -0.000981483               0.000000000               0.999999984              -0.000996801               0.000000000               0.999999984              -0.001012074               0.000000000               0.999999984              -0.001026744              -0.000000000               0.999999984              -0.001040163               0.000000000               0.999999984              -0.001051565               0.000000000               0.999999984              -0.001059930               0.000000000               0.999999984              -0.000806377               0.000133773               0.999999984              -0.000853890               0.000107676               0.999999984              -0.000873534               0.000095979               0.999999984              -0.000884263               0.000091334               0.999999984              -0.000892906               0.000090282               0.999999984              -0.000901859               0.000090902               0.999999984              -0.000911925               0.000092437               0.999999984              -0.000923175               0.000094229               0.999999984              -0.000935670               0.000096070               0.999999984              -0.000949133               0.000097323               0.999999984              -0.000963013               0.000097664               0.999999984              -0.000976938               0.000096773               0.999999984              -0.000990430               0.000094095               0.999999984              -0.001002934               0.000089237               0.999999984              -0.001013943               0.000081279               0.999999984              -0.001022780               0.000069346               0.999999984              -0.001028714               0.000052476               0.999999984              -0.000793031               0.000266229               0.999999984              -0.000828741               0.000214932               0.999999984              -0.000841168               0.000192696               0.999999984              -0.000847525               0.000184530               0.999999984              -0.000853303               0.000183094               0.999999984              -0.000860085               0.000184992               0.999999984              -0.000868382               0.000188452               0.999999984              -0.000877970               0.000192468               0.999999984              -0.000888464               0.000196206               0.999999984              -0.000899305               0.000198609               0.999999984              -0.000910013               0.000199047               0.999999984              -0.000920015               0.000196960               0.999999984              -0.000928727               0.000191548               0.999999984              -0.000935716               0.000181973               0.999999984              -0.000940504               0.000167169               0.999999984              -0.000942874               0.000145835               0.999999984              -0.000942673               0.000116793               0.999999984              -0.000771139               0.000396186               0.999999984              -0.000788187               0.000321314               0.999999984              -0.000790117               0.000290848               0.999999984              -0.000790493               0.000280927               0.999999984              -0.000792495               0.000280444               0.999999984              -0.000796658               0.000284431               0.999999984              -0.000802598               0.000290506               0.999999984              -0.000809680               0.000297017               0.999999984              -0.000817121               0.000302544               0.999999984              -0.000824134               0.000305752               0.999999984              -0.000829912               0.000305922               0.999999984              -0.000833844               0.000302325               0.999999984              -0.000835503               0.000294083               0.999999984              -0.000834526               0.000280553               0.999999984              -0.000830798               0.000260756               0.999999984              -0.000824585               0.000233866               0.999999984              -0.000816227               0.000199213               0.999999984              -0.000741063               0.000522567               0.999999984              -0.000734413               0.000426599               0.999999984              -0.000724605               0.000390734               0.999999984              -0.000718961               0.000381070               0.999999984              -0.000717611               0.000382771               0.999999984              -0.000719368               0.000389695               0.999999984              -0.000722955               0.000398582               0.999999984              -0.000727126               0.000407391               0.999999984              -0.000730653               0.000414434               0.999999984              -0.000732549               0.000417964               0.999999984              -0.000732057               0.000417318               0.999999984              -0.000728681               0.000411929               0.999999984              -0.000722189               0.000401148               0.999999984              -0.000712523               0.000384446               0.999999984              -0.000699895               0.000361550               0.999999984              -0.000684785               0.000332454               0.999999984              -0.000667813               0.000297514               0.999999984              -0.000703467               0.000644170               0.999999984              -0.000670042               0.000530931               0.999999984              -0.000649400               0.000492470               0.999999984              -0.000639338               0.000484539               0.999999984              -0.000635758               0.000489256               0.999999984              -0.000635837               0.000499334               0.999999984              -0.000637261               0.000510769               0.999999984              -0.000638076               0.000521519               0.999999984              -0.000636990               0.000529228               0.999999984              -0.000633022               0.000532476               0.999999984              -0.000625580               0.000530616               0.999999984              -0.000614393               0.000523283               0.999999984              -0.000599396               0.000510225               0.999999984              -0.000580797               0.000491378               0.999999984              -0.000559156               0.000466849               0.999999984              -0.000535102               0.000437649               0.999999984              -0.000509369               0.000404786               0.999999984              -0.000659010               0.000759800               0.999999984              -0.000598323               0.000634307               0.999999984              -0.000569449               0.000595659               0.999999984              -0.000557259               0.000590247               0.999999984              -0.000553130               0.000598044               0.999999984              -0.000552264               0.000610876               0.999999984              -0.000551443               0.000624329               0.999999984              -0.000548706               0.000636076               0.999999984              -0.000542516               0.000643865               0.999999984              -0.000532072               0.000646232               0.999999984              -0.000516883               0.000642971               0.999999984              -0.000497019               0.000633924               0.999999984              -0.000472669               0.000619318               0.999999984              -0.000444422               0.000599446               0.999999984              -0.000413132               0.000574934               0.999999984              -0.000379716               0.000547197               0.999999984              -0.000344973               0.000517595               0.999999984              -0.000608499               0.000868319               0.999999984              -0.000522745               0.000736439               0.999999984              -0.000489325               0.000699242               0.999999984              -0.000477704               0.000696308               0.999999984              -0.000474256               0.000706750               0.999999984              -0.000472792               0.000721632               0.999999984              -0.000469751               0.000736211               0.999999984              -0.000462964               0.000748224               0.999999984              -0.000450959               0.000755465               0.999999984              -0.000433026               0.000756725               0.999999984              -0.000408987               0.000752175               0.999999984              -0.000379236               0.000741997               0.999999984              -0.000344521               0.000726564               0.999999984              -0.000305928               0.000706839               0.999999984              -0.000264577               0.000683838               0.999999984              -0.000221525               0.000658878               0.999999984              -0.000177733               0.000633270               0.999999984              -0.000553742               0.000967677               0.999999984              -0.000445893               0.000837239               0.999999984              -0.000413136               0.000801714               0.999999984              -0.000403947               0.000800566               0.999999984              -0.000401861               0.000812869               0.999999984              -0.000399816               0.000829154               0.999999984              -0.000394060               0.000844386               0.999999984              -0.000382436               0.000856116               0.999999984              -0.000363649               0.000862380               0.999999984              -0.000336971               0.000862518               0.999999984              -0.000302749               0.000856906               0.999999984              -0.000261948               0.000846029               0.999999984              -0.000215995               0.000830754               0.999999984              -0.000166411               0.000812326               0.999999984              -0.000114601               0.000792080               0.999999984              -0.000061890               0.000771100               0.999999984              -0.000009074               0.000750047               0.999999984              -0.000497153               0.001061553               0.999999984              -0.000381705               0.000949763               0.999999984              -0.000346103               0.000910068               0.999999984              -0.000335903               0.000903403               0.999999984              -0.000333804               0.000911491               0.999999984              -0.000332526               0.000925805               0.999999984              -0.000328580               0.000941216               0.999999984              -0.000320010               0.000955074               0.999999984              -0.000305296               0.000965767               0.999999984              -0.000283392               0.000972189               0.999999984              -0.000254026               0.000974060               0.999999984              -0.000217729               0.000971654               0.999999984              -0.000175245               0.000965288               0.999999984              -0.000127938               0.000955934               0.999999984              -0.000077231               0.000944297               0.999999984              -0.000024338               0.000931656               0.999999984               0.000029279               0.000918551               0.999999984              -0.000435106               0.001147029               0.999999984              -0.000320355               0.001058657               0.999999984              -0.000282022               0.001021250               0.999999984              -0.000270049               0.001011478               0.999999984              -0.000267178               0.001016625               0.999999984              -0.000266048               0.001029186               0.999999984              -0.000263387               0.001044815               0.999999984              -0.000257026               0.001060701               0.999999984              -0.000245761               0.001075039               0.999999984              -0.000228308               0.001086709               0.999999984              -0.000203952               0.001095038               0.999999984              -0.000172581               0.001099951               0.999999984              -0.000134294               0.001101559               0.999999984              -0.000090003               0.001100326               0.999999984              -0.000041042               0.001096912               0.999999984               0.000011523               0.001092132               0.999999984               0.000065994               0.001086772               0.999999984              -0.000368983               0.001221951               0.999999984              -0.000261866               0.001160444               0.999999984              -0.000222646               0.001130011               0.999999984              -0.000208784               0.001120682               0.999999984              -0.000204597               0.001124707               0.999999984              -0.000203111               0.001136477               0.999999984              -0.000201025               0.001152527               0.999999984              -0.000196452               0.001170309               0.999999984              -0.000187837               0.001188161               0.999999984              -0.000174118               0.001204717               0.999999984              -0.000154424               0.001219115               0.999999984              -0.000128101               0.001230804               0.999999984              -0.000094839               0.001239733               0.999999984              -0.000054759               0.001246006               0.999999984              -0.000008472               0.001250048               0.999999984               0.000043052               0.001252558               0.999999984               0.000098515               0.001254400               0.999999984              -0.000299513               0.001284956               0.999999984              -0.000206156               0.001250937               0.999999984              -0.000168763               0.001230884               0.999999984              -0.000153937               0.001225207               0.999999984              -0.000148528               0.001230258               0.999999984              -0.000146452               0.001242659               0.999999984              -0.000144450               0.001259813               0.999999984              -0.000140926               0.001279757               0.999999984              -0.000134424               0.001300893               0.999999984              -0.000123961               0.001321996               0.999999984              -0.000108612               0.001342062               0.999999984              -0.000087412               0.001360436               0.999999984              -0.000059798               0.001376585               0.999999984              -0.000025202               0.001390406               0.999999984               0.000016823               0.001402101               0.999999984               0.000066104               0.001412054               0.999999984               0.000121984               0.001420989               0.999999984              -0.000227257               0.001334988               0.999999984              -0.000152768               0.001326133               0.999999984              -0.000120507               0.001317935               0.999999984              -0.000106494               0.001317873               0.999999984              -0.000100587               0.001325895               0.999999984              -0.000098008               0.001340408               0.999999984              -0.000096063               0.001359508               0.999999984              -0.000093133               0.001381837               0.999999984              -0.000088281               0.001406220               0.999999984              -0.000080617               0.001431623               0.999999984              -0.000069285               0.001457128               0.999999984              -0.000053256               0.001481919               0.999999984              -0.000031878               0.001505315               0.999999984              -0.000004019               0.001526974               0.999999984               0.000031396               0.001546721               0.999999984               0.000075269               0.001564592               0.999999984               0.000128479               0.001580829               0.999999984              -0.000152768               0.001371319               0.999999984              -0.000101055               0.001382468               0.999999984              -0.000077262               0.001385236               0.999999984              -0.000066149               0.001391287               0.999999984              -0.000061043               0.001403023               0.999999984              -0.000058666               0.001420226               0.999999984              -0.000056939               0.001441901               0.999999984              -0.000054715               0.001466867               0.999999984              -0.000051284               0.001494279               0.999999984              -0.000046101               0.001523459               0.999999984              -0.000038591               0.001553681               0.999999984              -0.000027925               0.001584189               0.999999984              -0.000013062               0.001614285               0.999999984               0.000006939               0.001643557               0.999999984               0.000033019               0.001671451               0.999999984               0.000066733               0.001697476               0.999999984               0.000110147               0.001721224               0.999999984              -0.000076761               0.001393413               0.999999984              -0.000050319               0.001417363               0.999999984              -0.000037658               0.001427809               0.999999984              -0.000031506               0.001438564               0.999999984              -0.000028584               0.001453426               0.999999984              -0.000027002               0.001472992               0.999999984              -0.000025967               0.001496772               0.999999984              -0.000024822               0.001523965               0.999999984              -0.000023017               0.001553883               0.999999984              -0.000020255               0.001585863               0.999999984              -0.000016487               0.001619447               0.999999984              -0.000011024               0.001654031               0.999999984              -0.000003291               0.001688925               0.999999984               0.000007213               0.001723636               0.999999984               0.000021154               0.001757475               0.999999984               0.000039522               0.001789715               0.999999984               0.000064172               0.001819444               0.999999984              -0.000000000               0.001400845               0.999999984               0.000000000               0.001429228               0.999999984              -0.000000000               0.001442403               0.999999984              -0.000000000               0.001454856               0.999999984              -0.000000000               0.001470984               0.999999984               0.000000000               0.001491454               0.999999984               0.000000000               0.001516006               0.999999984              -0.000000000               0.001544097               0.999999984              -0.000000000               0.001575046               0.999999984              -0.000000000               0.001608163               0.999999984              -0.000000000               0.001643030               0.999999984               0.000000000               0.001679132               0.999999984               0.000000000               0.001715702               0.999999984              -0.000000000               0.001752295               0.999999984               0.000000000               0.001788223               0.999999984               0.000000000               0.001822753               0.999999984              -0.000000000               0.001854823               0.999999984              -0.000810908              -0.000000000               0.999999984              -0.000862421               0.000000000               0.999999984              -0.000884648               0.000000000               0.999999984              -0.000897014               0.000000000               0.999999984              -0.000906758               0.000000000               0.999999984              -0.000916587               0.000000000               0.999999984              -0.000927314               0.000000000               0.999999984              -0.000939253              -0.000000000               0.999999984              -0.000952444               0.000000000               0.999999984              -0.000966616              -0.000000000               0.999999984              -0.000981483               0.000000000               0.999999984              -0.000996801               0.000000000               0.999999984              -0.001012074               0.000000000               0.999999984              -0.001026744              -0.000000000               0.999999984              -0.001040163               0.000000000               0.999999984              -0.001051565               0.000000000               0.999999984              -0.001059930               0.000000000               0.999999984              -0.000806377              -0.000133773               0.999999984              -0.000853890              -0.000107676               0.999999984              -0.000873534              -0.000095979               0.999999984              -0.000884263              -0.000091334               0.999999984              -0.000892906              -0.000090282               0.999999984              -0.000901859              -0.000090902               0.999999984              -0.000911925              -0.000092437               0.999999984              -0.000923175              -0.000094229               0.999999984              -0.000935670              -0.000096070               0.999999984              -0.000949133              -0.000097323               0.999999984              -0.000963013              -0.000097664               0.999999984              -0.000976938              -0.000096773               0.999999984              -0.000990430              -0.000094095               0.999999984              -0.001002934              -0.000089237               0.999999984              -0.001013943              -0.000081279               0.999999984              -0.001022780              -0.000069346               0.999999984              -0.001028714              -0.000052476               0.999999984              -0.000793031              -0.000266229               0.999999984              -0.000828741              -0.000214932               0.999999984              -0.000841168              -0.000192696               0.999999984              -0.000847525              -0.000184530               0.999999984              -0.000853303              -0.000183094               0.999999984              -0.000860085              -0.000184992               0.999999984              -0.000868382              -0.000188452               0.999999984              -0.000877970              -0.000192468               0.999999984              -0.000888464              -0.000196206               0.999999984              -0.000899305              -0.000198609               0.999999984              -0.000910013              -0.000199047               0.999999984              -0.000920015              -0.000196960               0.999999984              -0.000928727              -0.000191548               0.999999984              -0.000935716              -0.000181973               0.999999984              -0.000940504              -0.000167169               0.999999984              -0.000942874              -0.000145835               0.999999984              -0.000942673              -0.000116793               0.999999984              -0.000771139              -0.000396186               0.999999984              -0.000788187              -0.000321314               0.999999984              -0.000790117              -0.000290848               0.999999984              -0.000790493              -0.000280927               0.999999984              -0.000792495              -0.000280444               0.999999984              -0.000796658              -0.000284431               0.999999984              -0.000802598              -0.000290506               0.999999984              -0.000809680              -0.000297017               0.999999984              -0.000817121              -0.000302544               0.999999984              -0.000824134              -0.000305752               0.999999984              -0.000829912              -0.000305922               0.999999984              -0.000833844              -0.000302325               0.999999984              -0.000835503              -0.000294083               0.999999984              -0.000834526              -0.000280553               0.999999984              -0.000830798              -0.000260756               0.999999984              -0.000824585              -0.000233866               0.999999984              -0.000816227              -0.000199213               0.999999984              -0.000741063              -0.000522567               0.999999984              -0.000734413              -0.000426599               0.999999984              -0.000724605              -0.000390734               0.999999984              -0.000718961              -0.000381070               0.999999984              -0.000717611              -0.000382771               0.999999984              -0.000719368              -0.000389695               0.999999984              -0.000722955              -0.000398582               0.999999984              -0.000727126              -0.000407391               0.999999984              -0.000730653              -0.000414434               0.999999984              -0.000732549              -0.000417964               0.999999984              -0.000732057              -0.000417318               0.999999984              -0.000728681              -0.000411929               0.999999984              -0.000722189              -0.000401148               0.999999984              -0.000712523              -0.000384446               0.999999984              -0.000699895              -0.000361550               0.999999984              -0.000684785              -0.000332454               0.999999984              -0.000667813              -0.000297514               0.999999984              -0.000703467              -0.000644170               0.999999984              -0.000670042              -0.000530931               0.999999984              -0.000649400              -0.000492470               0.999999984              -0.000639338              -0.000484539               0.999999984              -0.000635758              -0.000489256               0.999999984              -0.000635837              -0.000499334               0.999999984              -0.000637261              -0.000510769               0.999999984              -0.000638076              -0.000521519               0.999999984              -0.000636990              -0.000529228               0.999999984              -0.000633022              -0.000532476               0.999999984              -0.000625580              -0.000530616               0.999999984              -0.000614393              -0.000523283               0.999999984              -0.000599396              -0.000510225               0.999999984              -0.000580797              -0.000491378               0.999999984              -0.000559156              -0.000466849               0.999999984              -0.000535102              -0.000437649               0.999999984              -0.000509369              -0.000404786               0.999999984              -0.000659010              -0.000759800               0.999999984              -0.000598323              -0.000634307               0.999999984              -0.000569449              -0.000595659               0.999999984              -0.000557259              -0.000590247               0.999999984              -0.000553130              -0.000598044               0.999999984              -0.000552264              -0.000610876               0.999999984              -0.000551443              -0.000624329               0.999999984              -0.000548706              -0.000636076               0.999999984              -0.000542516              -0.000643865               0.999999984              -0.000532072              -0.000646232               0.999999984              -0.000516883              -0.000642971               0.999999984              -0.000497019              -0.000633924               0.999999984              -0.000472669              -0.000619318               0.999999984              -0.000444422              -0.000599446               0.999999984              -0.000413132              -0.000574934               0.999999984              -0.000379716              -0.000547197               0.999999984              -0.000344973              -0.000517595               0.999999984              -0.000608499              -0.000868319               0.999999984              -0.000522745              -0.000736439               0.999999984              -0.000489325              -0.000699242               0.999999984              -0.000477704              -0.000696308               0.999999984              -0.000474256              -0.000706750               0.999999984              -0.000472792              -0.000721632               0.999999984              -0.000469751              -0.000736211               0.999999984              -0.000462964              -0.000748224               0.999999984              -0.000450959              -0.000755465               0.999999984              -0.000433026              -0.000756725               0.999999984              -0.000408987              -0.000752175               0.999999984              -0.000379236              -0.000741997               0.999999984              -0.000344521              -0.000726564               0.999999984              -0.000305928              -0.000706839               0.999999984              -0.000264577              -0.000683838               0.999999984              -0.000221525              -0.000658878               0.999999984              -0.000177733              -0.000633270               0.999999984              -0.000553742              -0.000967677               0.999999984              -0.000445893              -0.000837239               0.999999984              -0.000413136              -0.000801714               0.999999984              -0.000403947              -0.000800566               0.999999984              -0.000401861              -0.000812869               0.999999984              -0.000399816              -0.000829154               0.999999984              -0.000394060              -0.000844386               0.999999984              -0.000382436              -0.000856116               0.999999984              -0.000363649              -0.000862380               0.999999984              -0.000336971              -0.000862518               0.999999984              -0.000302749              -0.000856906               0.999999984              -0.000261948              -0.000846029               0.999999984              -0.000215995              -0.000830754               0.999999984              -0.000166411              -0.000812326               0.999999984              -0.000114601              -0.000792080               0.999999984              -0.000061890              -0.000771100               0.999999984              -0.000009074              -0.000750047               0.999999984              -0.000497153              -0.001061553               0.999999984              -0.000381705              -0.000949763               0.999999984              -0.000346103              -0.000910068               0.999999984              -0.000335903              -0.000903403               0.999999984              -0.000333804              -0.000911491               0.999999984              -0.000332526              -0.000925805               0.999999984              -0.000328580              -0.000941216               0.999999984              -0.000320010              -0.000955074               0.999999984              -0.000305296              -0.000965767               0.999999984              -0.000283392              -0.000972189               0.999999984              -0.000254026              -0.000974060               0.999999984              -0.000217729              -0.000971654               0.999999984              -0.000175245              -0.000965288               0.999999984              -0.000127938              -0.000955934               0.999999984              -0.000077231              -0.000944297               0.999999984              -0.000024338              -0.000931656               0.999999984               0.000029279              -0.000918551               0.999999984              -0.000435106              -0.001147029               0.999999984              -0.000320355              -0.001058657               0.999999984              -0.000282022              -0.001021250               0.999999984              -0.000270049              -0.001011478               0.999999984              -0.000267178              -0.001016625               0.999999984              -0.000266048              -0.001029186               0.999999984              -0.000263387              -0.001044815               0.999999984              -0.000257026              -0.001060701               0.999999984              -0.000245761              -0.001075039               0.999999984              -0.000228308              -0.001086709               0.999999984              -0.000203952              -0.001095038               0.999999984              -0.000172581              -0.001099951               0.999999984              -0.000134294              -0.001101559               0.999999984              -0.000090003              -0.001100326               0.999999984              -0.000041042              -0.001096912               0.999999984               0.000011523              -0.001092132               0.999999984               0.000065994              -0.001086772               0.999999984              -0.000368983              -0.001221951               0.999999984              -0.000261866              -0.001160444               0.999999984              -0.000222646              -0.001130011               0.999999984              -0.000208784              -0.001120682               0.999999984              -0.000204597              -0.001124707               0.999999984              -0.000203111              -0.001136477               0.999999984              -0.000201025              -0.001152527               0.999999984              -0.000196452              -0.001170309               0.999999984              -0.000187837              -0.001188161               0.999999984              -0.000174118              -0.001204717               0.999999984              -0.000154424              -0.001219115               0.999999984              -0.000128101              -0.001230804               0.999999984              -0.000094839              -0.001239733               0.999999984              -0.000054759              -0.001246006               0.999999984              -0.000008472              -0.001250048               0.999999984               0.000043052              -0.001252558               0.999999984               0.000098515              -0.001254400               0.999999984              -0.000299513              -0.001284956               0.999999984              -0.000206156              -0.001250937               0.999999984              -0.000168763              -0.001230884               0.999999984              -0.000153937              -0.001225207               0.999999984              -0.000148528              -0.001230258               0.999999984              -0.000146452              -0.001242659               0.999999984              -0.000144450              -0.001259813               0.999999984              -0.000140926              -0.001279757               0.999999984              -0.000134424              -0.001300893               0.999999984              -0.000123961              -0.001321996               0.999999984              -0.000108612              -0.001342062               0.999999984              -0.000087412              -0.001360436               0.999999984              -0.000059798              -0.001376585               0.999999984              -0.000025202              -0.001390406               0.999999984               0.000016823              -0.001402101               0.999999984               0.000066104              -0.001412054               0.999999984               0.000121984              -0.001420989               0.999999984              -0.000227257              -0.001334988               0.999999984              -0.000152768              -0.001326133               0.999999984              -0.000120507              -0.001317935               0.999999984              -0.000106494              -0.001317873               0.999999984              -0.000100587              -0.001325895               0.999999984              -0.000098008              -0.001340408               0.999999984              -0.000096063              -0.001359508               0.999999984              -0.000093133              -0.001381837               0.999999984              -0.000088281              -0.001406220               0.999999984              -0.000080617              -0.001431623               0.999999984              -0.000069285              -0.001457128               0.999999984              -0.000053256              -0.001481919               0.999999984              -0.000031878              -0.001505315               0.999999984              -0.000004019              -0.001526974               0.999999984               0.000031396              -0.001546721               0.999999984               0.000075269              -0.001564592               0.999999984               0.000128479              -0.001580829               0.999999984              -0.000152768              -0.001371319               0.999999984              -0.000101055              -0.001382468               0.999999984              -0.000077262              -0.001385236               0.999999984              -0.000066149              -0.001391287               0.999999984              -0.000061043              -0.001403023               0.999999984              -0.000058666              -0.001420226               0.999999984              -0.000056939              -0.001441901               0.999999984              -0.000054715              -0.001466867               0.999999984              -0.000051284              -0.001494279               0.999999984              -0.000046101              -0.001523459               0.999999984              -0.000038591              -0.001553681               0.999999984              -0.000027925              -0.001584189               0.999999984              -0.000013062              -0.001614285               0.999999984               0.000006939              -0.001643557               0.999999984               0.000033019              -0.001671451               0.999999984               0.000066733              -0.001697476               0.999999984               0.000110147              -0.001721224               0.999999984              -0.000076761              -0.001393413               0.999999984              -0.000050319              -0.001417363               0.999999984              -0.000037658              -0.001427809               0.999999984              -0.000031506              -0.001438564               0.999999984              -0.000028584              -0.001453426               0.999999984              -0.000027002              -0.001472992               0.999999984              -0.000025967              -0.001496772               0.999999984              -0.000024822              -0.001523965               0.999999984              -0.000023017              -0.001553883               0.999999984              -0.000020255              -0.001585863               0.999999984              -0.000016487              -0.001619447               0.999999984              -0.000011024              -0.001654031               0.999999984              -0.000003291              -0.001688925               0.999999984               0.000007213              -0.001723636               0.999999984               0.000021154              -0.001757475               0.999999984               0.000039522              -0.001789715               0.999999984               0.000064172              -0.001819444               0.999999984              -0.000000000              -0.001400845               0.999999984               0.000000000              -0.001429228               0.999999984              -0.000000000              -0.001442403               0.999999984               0.000000000              -0.001454856               0.999999984               0.000000000              -0.001470984               0.999999984               0.000000000              -0.001491454               0.999999984              -0.000000000              -0.001516006               0.999999984               0.000000000              -0.001544097               0.999999984               0.000000000              -0.001575046               0.999999984              -0.000000000              -0.001608163               0.999999984               0.000000000              -0.001643030               0.999999984              -0.000000000              -0.001679132               0.999999984               0.000000000              -0.001715702               0.999999984               0.000000000              -0.001752295               0.999999984              -0.000000000              -0.001788223               0.999999984               0.000000000              -0.001822753               0.999999984              -0.000000000              -0.001854823               0.999999984               0.000810908              -0.000000000               0.999999984               0.000862421              -0.000000000               0.999999984               0.000884648              -0.000000000               0.999999984               0.000897014               0.000000000               0.999999984               0.000906758               0.000000000               0.999999984               0.000916587              -0.000000000               0.999999984               0.000927314               0.000000000               0.999999984               0.000939253              -0.000000000               0.999999984               0.000952444               0.000000000               0.999999984               0.000966616               0.000000000               0.999999984               0.000981483               0.000000000               0.999999984               0.000996801              -0.000000000               0.999999984               0.001012074              -0.000000000               0.999999984               0.001026744               0.000000000               0.999999984               0.001040163              -0.000000000               0.999999984               0.001051565               0.000000000               0.999999984               0.001059930               0.000000000               0.999999984               0.000806377              -0.000133773               0.999999984               0.000853890              -0.000107676               0.999999984               0.000873534              -0.000095979               0.999999984               0.000884263              -0.000091334               0.999999984               0.000892906              -0.000090282               0.999999984               0.000901859              -0.000090902               0.999999984               0.000911925              -0.000092437               0.999999984               0.000923175              -0.000094229               0.999999984               0.000935670              -0.000096070               0.999999984               0.000949133              -0.000097323               0.999999984               0.000963013              -0.000097664               0.999999984               0.000976938              -0.000096773               0.999999984               0.000990430              -0.000094095               0.999999984               0.001002934              -0.000089237               0.999999984               0.001013943              -0.000081279               0.999999984               0.001022780              -0.000069346               0.999999984               0.001028714              -0.000052476               0.999999984               0.000793031              -0.000266229               0.999999984               0.000828741              -0.000214932               0.999999984               0.000841168              -0.000192696               0.999999984               0.000847525              -0.000184530               0.999999984               0.000853303              -0.000183094               0.999999984               0.000860085              -0.000184992               0.999999984               0.000868382              -0.000188452               0.999999984               0.000877970              -0.000192468               0.999999984               0.000888464              -0.000196206               0.999999984               0.000899305              -0.000198609               0.999999984               0.000910013              -0.000199047               0.999999984               0.000920015              -0.000196960               0.999999984               0.000928727              -0.000191548               0.999999984               0.000935716              -0.000181973               0.999999984               0.000940504              -0.000167169               0.999999984               0.000942874              -0.000145835               0.999999984               0.000942673              -0.000116793               0.999999984               0.000771139              -0.000396186               0.999999984               0.000788187              -0.000321314               0.999999984               0.000790117              -0.000290848               0.999999984               0.000790493              -0.000280927               0.999999984               0.000792495              -0.000280444               0.999999984               0.000796658              -0.000284431               0.999999984               0.000802598              -0.000290506               0.999999984               0.000809680              -0.000297017               0.999999984               0.000817121              -0.000302544               0.999999984               0.000824134              -0.000305752               0.999999984               0.000829912              -0.000305922               0.999999984               0.000833844              -0.000302325               0.999999984               0.000835503              -0.000294083               0.999999984               0.000834526              -0.000280553               0.999999984               0.000830798              -0.000260756               0.999999984               0.000824585              -0.000233866               0.999999984               0.000816227              -0.000199213               0.999999984               0.000741063              -0.000522567               0.999999984               0.000734413              -0.000426599               0.999999984               0.000724605              -0.000390734               0.999999984               0.000718961              -0.000381070               0.999999984               0.000717611              -0.000382771               0.999999984               0.000719368              -0.000389695               0.999999984               0.000722955              -0.000398582               0.999999984               0.000727126              -0.000407391               0.999999984               0.000730653              -0.000414434               0.999999984               0.000732549              -0.000417964               0.999999984               0.000732057              -0.000417318               0.999999984               0.000728681              -0.000411929               0.999999984               0.000722189              -0.000401148               0.999999984               0.000712523              -0.000384446               0.999999984               0.000699895              -0.000361550               0.999999984               0.000684785              -0.000332454               0.999999984               0.000667813              -0.000297514               0.999999984               0.000703467              -0.000644170               0.999999984               0.000670042              -0.000530931               0.999999984               0.000649400              -0.000492470               0.999999984               0.000639338              -0.000484539               0.999999984               0.000635758              -0.000489256               0.999999984               0.000635837              -0.000499334               0.999999984               0.000637261              -0.000510769               0.999999984               0.000638076              -0.000521519               0.999999984               0.000636990              -0.000529228               0.999999984               0.000633022              -0.000532476               0.999999984               0.000625580              -0.000530616               0.999999984               0.000614393              -0.000523283               0.999999984               0.000599396              -0.000510225               0.999999984               0.000580797              -0.000491378               0.999999984               0.000559156              -0.000466849               0.999999984               0.000535102              -0.000437649               0.999999984               0.000509369              -0.000404786               0.999999984               0.000659010              -0.000759800               0.999999984               0.000598323              -0.000634307               0.999999984               0.000569449              -0.000595659               0.999999984               0.000557259              -0.000590247               0.999999984               0.000553130              -0.000598044               0.999999984               0.000552264              -0.000610876               0.999999984               0.000551443              -0.000624329               0.999999984               0.000548706              -0.000636076               0.999999984               0.000542516              -0.000643865               0.999999984               0.000532072              -0.000646232               0.999999984               0.000516883              -0.000642971               0.999999984               0.000497019              -0.000633924               0.999999984               0.000472669              -0.000619318               0.999999984               0.000444422              -0.000599446               0.999999984               0.000413132              -0.000574934               0.999999984               0.000379716              -0.000547197               0.999999984               0.000344973              -0.000517595               0.999999984               0.000608499              -0.000868319               0.999999984               0.000522745              -0.000736439               0.999999984               0.000489325              -0.000699242               0.999999984               0.000477704              -0.000696308               0.999999984               0.000474256              -0.000706750               0.999999984               0.000472792              -0.000721632               0.999999984               0.000469751              -0.000736211               0.999999984               0.000462964              -0.000748224               0.999999984               0.000450959              -0.000755465               0.999999984               0.000433026              -0.000756725               0.999999984               0.000408987              -0.000752175               0.999999984               0.000379236              -0.000741997               0.999999984               0.000344521              -0.000726564               0.999999984               0.000305928              -0.000706839               0.999999984               0.000264577              -0.000683838               0.999999984               0.000221525              -0.000658878               0.999999984               0.000177733              -0.000633270               0.999999984               0.000553742              -0.000967677               0.999999984               0.000445893              -0.000837239               0.999999984               0.000413136              -0.000801714               0.999999984               0.000403947              -0.000800566               0.999999984               0.000401861              -0.000812869               0.999999984               0.000399816              -0.000829154               0.999999984               0.000394060              -0.000844386               0.999999984               0.000382436              -0.000856116               0.999999984               0.000363649              -0.000862380               0.999999984               0.000336971              -0.000862518               0.999999984               0.000302749              -0.000856906               0.999999984               0.000261948              -0.000846029               0.999999984               0.000215995              -0.000830754               0.999999984               0.000166411              -0.000812326               0.999999984               0.000114601              -0.000792080               0.999999984               0.000061890              -0.000771100               0.999999984               0.000009074              -0.000750047               0.999999984               0.000497153              -0.001061553               0.999999984               0.000381705              -0.000949763               0.999999984               0.000346103              -0.000910068               0.999999984               0.000335903              -0.000903403               0.999999984               0.000333804              -0.000911491               0.999999984               0.000332526              -0.000925805               0.999999984               0.000328580              -0.000941216               0.999999984               0.000320010              -0.000955074               0.999999984               0.000305296              -0.000965767               0.999999984               0.000283392              -0.000972189               0.999999984               0.000254026              -0.000974060               0.999999984               0.000217729              -0.000971654               0.999999984               0.000175245              -0.000965288               0.999999984               0.000127938              -0.000955934               0.999999984               0.000077231              -0.000944297               0.999999984               0.000024338              -0.000931656               0.999999984              -0.000029279              -0.000918551               0.999999984               0.000435106              -0.001147029               0.999999984               0.000320355              -0.001058657               0.999999984               0.000282022              -0.001021250               0.999999984               0.000270049              -0.001011478               0.999999984               0.000267178              -0.001016625               0.999999984               0.000266048              -0.001029186               0.999999984               0.000263387              -0.001044815               0.999999984               0.000257026              -0.001060701               0.999999984               0.000245761              -0.001075039               0.999999984               0.000228308              -0.001086709               0.999999984               0.000203952              -0.001095038               0.999999984               0.000172581              -0.001099951               0.999999984               0.000134294              -0.001101559               0.999999984               0.000090003              -0.001100326               0.999999984               0.000041042              -0.001096912               0.999999984              -0.000011523              -0.001092132               0.999999984              -0.000065994              -0.001086772               0.999999984               0.000368983              -0.001221951               0.999999984               0.000261866              -0.001160444               0.999999984               0.000222646              -0.001130011               0.999999984               0.000208784              -0.001120682               0.999999984               0.000204597              -0.001124707               0.999999984               0.000203111              -0.001136477               0.999999984               0.000201025              -0.001152527               0.999999984               0.000196452              -0.001170309               0.999999984               0.000187837              -0.001188161               0.999999984               0.000174118              -0.001204717               0.999999984               0.000154424              -0.001219115               0.999999984               0.000128101              -0.001230804               0.999999984               0.000094839              -0.001239733               0.999999984               0.000054759              -0.001246006               0.999999984               0.000008472              -0.001250048               0.999999984              -0.000043052              -0.001252558               0.999999984              -0.000098515              -0.001254400               0.999999984               0.000299513              -0.001284956               0.999999984               0.000206156              -0.001250937               0.999999984               0.000168763              -0.001230884               0.999999984               0.000153937              -0.001225207               0.999999984               0.000148528              -0.001230258               0.999999984               0.000146452              -0.001242659               0.999999984               0.000144450              -0.001259813               0.999999984               0.000140926              -0.001279757               0.999999984               0.000134424              -0.001300893               0.999999984               0.000123961              -0.001321996               0.999999984               0.000108612              -0.001342062               0.999999984               0.000087412              -0.001360436               0.999999984               0.000059798              -0.001376585               0.999999984               0.000025202              -0.001390406               0.999999984              -0.000016823              -0.001402101               0.999999984              -0.000066104              -0.001412054               0.999999984              -0.000121984              -0.001420989               0.999999984               0.000227257              -0.001334988               0.999999984               0.000152768              -0.001326133               0.999999984               0.000120507              -0.001317935               0.999999984               0.000106494              -0.001317873               0.999999984               0.000100587              -0.001325895               0.999999984               0.000098008              -0.001340408               0.999999984               0.000096063              -0.001359508               0.999999984               0.000093133              -0.001381837               0.999999984               0.000088281              -0.001406220               0.999999984               0.000080617              -0.001431623               0.999999984               0.000069285              -0.001457128               0.999999984               0.000053256              -0.001481919               0.999999984               0.000031878              -0.001505315               0.999999984               0.000004019              -0.001526974               0.999999984              -0.000031396              -0.001546721               0.999999984              -0.000075269              -0.001564592               0.999999984              -0.000128479              -0.001580829               0.999999984               0.000152768              -0.001371319               0.999999984               0.000101055              -0.001382468               0.999999984               0.000077262              -0.001385236               0.999999984               0.000066149              -0.001391287               0.999999984               0.000061043              -0.001403023               0.999999984               0.000058666              -0.001420226               0.999999984               0.000056939              -0.001441901               0.999999984               0.000054715              -0.001466867               0.999999984               0.000051284              -0.001494279               0.999999984               0.000046101              -0.001523459               0.999999984               0.000038591              -0.001553681               0.999999984               0.000027925              -0.001584189               0.999999984               0.000013062              -0.001614285               0.999999984              -0.000006939              -0.001643557               0.999999984              -0.000033019              -0.001671451               0.999999984              -0.000066733              -0.001697476               0.999999984              -0.000110147              -0.001721224               0.999999984               0.000076761              -0.001393413               0.999999984               0.000050319              -0.001417363               0.999999984               0.000037658              -0.001427809               0.999999984               0.000031506              -0.001438564               0.999999984               0.000028584              -0.001453426               0.999999984               0.000027002              -0.001472992               0.999999984               0.000025967              -0.001496772               0.999999984               0.000024822              -0.001523965               0.999999984               0.000023017              -0.001553883               0.999999984               0.000020255              -0.001585863               0.999999984               0.000016487              -0.001619447               0.999999984               0.000011024              -0.001654031               0.999999984               0.000003291              -0.001688925               0.999999984              -0.000007213              -0.001723636               0.999999984              -0.000021154              -0.001757475               0.999999984              -0.000039522              -0.001789715               0.999999984              -0.000064172              -0.001819444               0.999999984              -0.000000000              -0.001400845               0.999999984               0.000000000              -0.001429228               0.999999984              -0.000000000              -0.001442403               0.999999984               0.000000000              -0.001454856               0.999999984               0.000000000              -0.001470984               0.999999984               0.000000000              -0.001491454               0.999999984              -0.000000000              -0.001516006               0.999999984               0.000000000              -0.001544097               0.999999984               0.000000000              -0.001575046               0.999999984              -0.000000000              -0.001608163               0.999999984               0.000000000              -0.001643030               0.999999984              -0.000000000              -0.001679132               0.999999984               0.000000000              -0.001715702               0.999999984               0.000000000              -0.001752295               0.999999984              -0.000000000              -0.001788223               0.999999984               0.000000000              -0.001822753               0.999999984              -0.000000000              -0.001854823               0.999999984               0.000810908              -0.000000000               0.999999984               0.000862421              -0.000000000               0.999999984               0.000884648              -0.000000000               0.999999984               0.000897014               0.000000000               0.999999984               0.000906758               0.000000000               0.999999984               0.000916587              -0.000000000               0.999999984               0.000927314               0.000000000               0.999999984               0.000939253              -0.000000000               0.999999984               0.000952444               0.000000000               0.999999984               0.000966616               0.000000000               0.999999984               0.000981483               0.000000000               0.999999984               0.000996801              -0.000000000               0.999999984               0.001012074              -0.000000000               0.999999984               0.001026744               0.000000000               0.999999984               0.001040163              -0.000000000               0.999999984               0.001051565               0.000000000               0.999999984               0.001059930               0.000000000               0.999999984               0.000806377               0.000133773               0.999999984               0.000853890               0.000107676               0.999999984               0.000873534               0.000095979               0.999999984               0.000884263               0.000091334               0.999999984               0.000892906               0.000090282               0.999999984               0.000901859               0.000090902               0.999999984               0.000911925               0.000092437               0.999999984               0.000923175               0.000094229               0.999999984               0.000935670               0.000096070               0.999999984               0.000949133               0.000097323               0.999999984               0.000963013               0.000097664               0.999999984               0.000976938               0.000096773               0.999999984               0.000990430               0.000094095               0.999999984               0.001002934               0.000089237               0.999999984               0.001013943               0.000081279               0.999999984               0.001022780               0.000069346               0.999999984               0.001028714               0.000052476               0.999999984               0.000793031               0.000266229               0.999999984               0.000828741               0.000214932               0.999999984               0.000841168               0.000192696               0.999999984               0.000847525               0.000184530               0.999999984               0.000853303               0.000183094               0.999999984               0.000860085               0.000184992               0.999999984               0.000868382               0.000188452               0.999999984               0.000877970               0.000192468               0.999999984               0.000888464               0.000196206               0.999999984               0.000899305               0.000198609               0.999999984               0.000910013               0.000199047               0.999999984               0.000920015               0.000196960               0.999999984               0.000928727               0.000191548               0.999999984               0.000935716               0.000181973               0.999999984               0.000940504               0.000167169               0.999999984               0.000942874               0.000145835               0.999999984               0.000942673               0.000116793               0.999999984               0.000771139               0.000396186               0.999999984               0.000788187               0.000321314               0.999999984               0.000790117               0.000290848               0.999999984               0.000790493               0.000280927               0.999999984               0.000792495               0.000280444               0.999999984               0.000796658               0.000284431               0.999999984               0.000802598               0.000290506               0.999999984               0.000809680               0.000297017               0.999999984               0.000817121               0.000302544               0.999999984               0.000824134               0.000305752               0.999999984               0.000829912               0.000305922               0.999999984               0.000833844               0.000302325               0.999999984               0.000835503               0.000294083               0.999999984               0.000834526               0.000280553               0.999999984               0.000830798               0.000260756               0.999999984               0.000824585               0.000233866               0.999999984               0.000816227               0.000199213               0.999999984               0.000741063               0.000522567               0.999999984               0.000734413               0.000426599               0.999999984               0.000724605               0.000390734               0.999999984               0.000718961               0.000381070               0.999999984               0.000717611               0.000382771               0.999999984               0.000719368               0.000389695               0.999999984               0.000722955               0.000398582               0.999999984               0.000727126               0.000407391               0.999999984               0.000730653               0.000414434               0.999999984               0.000732549               0.000417964               0.999999984               0.000732057               0.000417318               0.999999984               0.000728681               0.000411929               0.999999984               0.000722189               0.000401148               0.999999984               0.000712523               0.000384446               0.999999984               0.000699895               0.000361550               0.999999984               0.000684785               0.000332454               0.999999984               0.000667813               0.000297514               0.999999984               0.000703467               0.000644170               0.999999984               0.000670042               0.000530931               0.999999984               0.000649400               0.000492470               0.999999984               0.000639338               0.000484539               0.999999984               0.000635758               0.000489256               0.999999984               0.000635837               0.000499334               0.999999984               0.000637261               0.000510769               0.999999984               0.000638076               0.000521519               0.999999984               0.000636990               0.000529228               0.999999984               0.000633022               0.000532476               0.999999984               0.000625580               0.000530616               0.999999984               0.000614393               0.000523283               0.999999984               0.000599396               0.000510225               0.999999984               0.000580797               0.000491378               0.999999984               0.000559156               0.000466849               0.999999984               0.000535102               0.000437649               0.999999984               0.000509369               0.000404786               0.999999984               0.000659010               0.000759800               0.999999984               0.000598323               0.000634307               0.999999984               0.000569449               0.000595659               0.999999984               0.000557259               0.000590247               0.999999984               0.000553130               0.000598044               0.999999984               0.000552264               0.000610876               0.999999984               0.000551443               0.000624329               0.999999984               0.000548706               0.000636076               0.999999984               0.000542516               0.000643865               0.999999984               0.000532072               0.000646232               0.999999984               0.000516883               0.000642971               0.999999984               0.000497019               0.000633924               0.999999984               0.000472669               0.000619318               0.999999984               0.000444422               0.000599446               0.999999984               0.000413132               0.000574934               0.999999984               0.000379716               0.000547197               0.999999984               0.000344973               0.000517595               0.999999984               0.000608499               0.000868319               0.999999984               0.000522745               0.000736439               0.999999984               0.000489325               0.000699242               0.999999984               0.000477704               0.000696308               0.999999984               0.000474256               0.000706750               0.999999984               0.000472792               0.000721632               0.999999984               0.000469751               0.000736211               0.999999984               0.000462964               0.000748224               0.999999984               0.000450959               0.000755465               0.999999984               0.000433026               0.000756725               0.999999984               0.000408987               0.000752175               0.999999984               0.000379236               0.000741997               0.999999984               0.000344521               0.000726564               0.999999984               0.000305928               0.000706839               0.999999984               0.000264577               0.000683838               0.999999984               0.000221525               0.000658878               0.999999984               0.000177733               0.000633270               0.999999984               0.000553742               0.000967677               0.999999984               0.000445893               0.000837239               0.999999984               0.000413136               0.000801714               0.999999984               0.000403947               0.000800566               0.999999984               0.000401861               0.000812869               0.999999984               0.000399816               0.000829154               0.999999984               0.000394060               0.000844386               0.999999984               0.000382436               0.000856116               0.999999984               0.000363649               0.000862380               0.999999984               0.000336971               0.000862518               0.999999984               0.000302749               0.000856906               0.999999984               0.000261948               0.000846029               0.999999984               0.000215995               0.000830754               0.999999984               0.000166411               0.000812326               0.999999984               0.000114601               0.000792080               0.999999984               0.000061890               0.000771100               0.999999984               0.000009074               0.000750047               0.999999984               0.000497153               0.001061553               0.999999984               0.000381705               0.000949763               0.999999984               0.000346103               0.000910068               0.999999984               0.000335903               0.000903403               0.999999984               0.000333804               0.000911491               0.999999984               0.000332526               0.000925805               0.999999984               0.000328580               0.000941216               0.999999984               0.000320010               0.000955074               0.999999984               0.000305296               0.000965767               0.999999984               0.000283392               0.000972189               0.999999984               0.000254026               0.000974060               0.999999984               0.000217729               0.000971654               0.999999984               0.000175245               0.000965288               0.999999984               0.000127938               0.000955934               0.999999984               0.000077231               0.000944297               0.999999984               0.000024338               0.000931656               0.999999984              -0.000029279               0.000918551               0.999999984               0.000435106               0.001147029               0.999999984               0.000320355               0.001058657               0.999999984               0.000282022               0.001021250               0.999999984               0.000270049               0.001011478               0.999999984               0.000267178               0.001016625               0.999999984               0.000266048               0.001029186               0.999999984               0.000263387               0.001044815               0.999999984               0.000257026               0.001060701               0.999999984               0.000245761               0.001075039               0.999999984               0.000228308               0.001086709               0.999999984               0.000203952               0.001095038               0.999999984               0.000172581               0.001099951               0.999999984               0.000134294               0.001101559               0.999999984               0.000090003               0.001100326               0.999999984               0.000041042               0.001096912               0.999999984              -0.000011523               0.001092132               0.999999984              -0.000065994               0.001086772               0.999999984               0.000368983               0.001221951               0.999999984               0.000261866               0.001160444               0.999999984               0.000222646               0.001130011               0.999999984               0.000208784               0.001120682               0.999999984               0.000204597               0.001124707               0.999999984               0.000203111               0.001136477               0.999999984               0.000201025               0.001152527               0.999999984               0.000196452               0.001170309               0.999999984               0.000187837               0.001188161               0.999999984               0.000174118               0.001204717               0.999999984               0.000154424               0.001219115               0.999999984               0.000128101               0.001230804               0.999999984               0.000094839               0.001239733               0.999999984               0.000054759               0.001246006               0.999999984               0.000008472               0.001250048               0.999999984              -0.000043052               0.001252558               0.999999984              -0.000098515               0.001254400               0.999999984               0.000299513               0.001284956               0.999999984               0.000206156               0.001250937               0.999999984               0.000168763               0.001230884               0.999999984               0.000153937               0.001225207               0.999999984               0.000148528               0.001230258               0.999999984               0.000146452               0.001242659               0.999999984               0.000144450               0.001259813               0.999999984               0.000140926               0.001279757               0.999999984               0.000134424               0.001300893               0.999999984               0.000123961               0.001321996               0.999999984               0.000108612               0.001342062               0.999999984               0.000087412               0.001360436               0.999999984               0.000059798               0.001376585               0.999999984               0.000025202               0.001390406               0.999999984              -0.000016823               0.001402101               0.999999984              -0.000066104               0.001412054               0.999999984              -0.000121984               0.001420989               0.999999984               0.000227257               0.001334988               0.999999984               0.000152768               0.001326133               0.999999984               0.000120507               0.001317935               0.999999984               0.000106494               0.001317873               0.999999984               0.000100587               0.001325895               0.999999984               0.000098008               0.001340408               0.999999984               0.000096063               0.001359508               0.999999984               0.000093133               0.001381837               0.999999984               0.000088281               0.001406220               0.999999984               0.000080617               0.001431623               0.999999984               0.000069285               0.001457128               0.999999984               0.000053256               0.001481919               0.999999984               0.000031878               0.001505315               0.999999984               0.000004019               0.001526974               0.999999984              -0.000031396               0.001546721               0.999999984              -0.000075269               0.001564592               0.999999984              -0.000128479               0.001580829               0.999999984               0.000152768               0.001371319               0.999999984               0.000101055               0.001382468               0.999999984               0.000077262               0.001385236               0.999999984               0.000066149               0.001391287               0.999999984               0.000061043               0.001403023               0.999999984               0.000058666               0.001420226               0.999999984               0.000056939               0.001441901               0.999999984               0.000054715               0.001466867               0.999999984               0.000051284               0.001494279               0.999999984               0.000046101               0.001523459               0.999999984               0.000038591               0.001553681               0.999999984               0.000027925               0.001584189               0.999999984               0.000013062               0.001614285               0.999999984              -0.000006939               0.001643557               0.999999984              -0.000033019               0.001671451               0.999999984              -0.000066733               0.001697476               0.999999984              -0.000110147               0.001721224               0.999999984               0.000076761               0.001393413               0.999999984               0.000050319               0.001417363               0.999999984               0.000037658               0.001427809               0.999999984               0.000031506               0.001438564               0.999999984               0.000028584               0.001453426               0.999999984               0.000027002               0.001472992               0.999999984               0.000025967               0.001496772               0.999999984               0.000024822               0.001523965               0.999999984               0.000023017               0.001553883               0.999999984               0.000020255               0.001585863               0.999999984               0.000016487               0.001619447               0.999999984               0.000011024               0.001654031               0.999999984               0.000003291               0.001688925               0.999999984              -0.000007213               0.001723636               0.999999984              -0.000021154               0.001757475               0.999999984              -0.000039522               0.001789715               0.999999984              -0.000064172               0.001819444               0.999999984              -0.000000000               0.001400845               0.999999984               0.000000000               0.001429228               0.999999984              -0.000000000               0.001442403               0.999999984              -0.000000000               0.001454856               0.999999984              -0.000000000               0.001470984               0.999999984               0.000000000               0.001491454               0.999999984               0.000000000               0.001516006               0.999999984              -0.000000000               0.001544097               0.999999984              -0.000000000               0.001575046               0.999999984              -0.000000000               0.001608163               0.999999984              -0.000000000               0.001643030               0.999999984               0.000000000               0.001679132               0.999999984               0.000000000               0.001715702               0.999999984              -0.000000000               0.001752295               0.999999984               0.000000000               0.001788223               0.999999984               0.000000000               0.001822753               0.999999984              -0.000000000               0.001854823               0.999999984 </DataArray>
<DataArray type="Float64"                                    Name="defo"                                                      NumberOfComponents=" 3" format="ascii">
             -0.000810908              -0.000000000               0.999999984              -0.000862421               0.000000000               0.999999984              -0.000884648               0.000000000               0.999999984              -0.000897014               0.000000000               0.999999984              -0.000906758               0.000000000               0.999999984              -0.000916587               0.000000000               0.999999984              -0.000927314               0.000000000               0.999999984              -0.000939253              -0.000000000               0.999999984              -0.000952444               0.000000000               0.999999984              -0.000966616              -0.000000000               0.999999984              -0.000981483               0.000000000               0.999999984              -0.000996801               0.000000000               0.999999984              -0.001012074               0.000000000               0.999999984              -0.001026744              -0.000000000               0.999999984              -0.001040163               0.000000000               0.999999984              -0.001051565               0.000000000               0.999999984              -0.001059930               0.000000000               0.999999984              -0.000806377               0.000133773               0.999999984              -0.000853890               0.000107676               0.999999984              -0.000873534               0.000095979               0.999999984              -0.000884263               0.000091334               0.999999984              -0.000892906               0.000090282               0.999999984              -0.000901859               0.000090902               0.999999984              -0.000911925               0.000092437               0.999999984              -0.000923175               0.000094229               0.999999984              -0.000935670               0.000096070               0.999999984              -0.000949133               0.000097323               0.999999984              -0.000963013               0.000097664               0.999999984              -0.000976938               0.000096773               0.999999984              -0.000990430               0.000094095               0.999999984              -0.001002934               0.000089237               0.999999984              -0.001013943               0.000081279               0.999999984              -0.001022780               0.000069346               0.999999984              -0.001028714               0.000052476               0.999999984              -0.000793031               0.000266229               0.999999984              -0.000828741               0.000214932               0.999999984              -0.000841168               0.000192696               0.999999984              -0.000847525               0.000184530               0.999999984              -0.000853303               0.000183094               0.999999984              -0.000860085               0.000184992               0.999999984              -0.000868382               0.000188452               0.999999984              -0.000877970               0.000192468               0.999999984              -0.000888464               0.000196206               0.999999984              -0.000899305               0.000198609               0.999999984              -0.000910013               0.000199047               0.999999984              -0.000920015               0.000196960               0.999999984              -0.000928727               0.000191548               0.999999984              -0.000935716               0.000181973               0.999999984              -0.000940504               0.000167169               0.999999984              -0.000942874               0.000145835               0.999999984              -0.000942673               0.000116793               0.999999984              -0.000771139               0.000396186               0.999999984              -0.000788187               0.000321314               0.999999984              -0.000790117               0.000290848               0.999999984              -0.000790493               0.000280927               0.999999984              -0.000792495               0.000280444               0.999999984              -0.000796658               0.000284431               0.999999984              -0.000802598               0.000290506               0.999999984              -0.000809680               0.000297017               0.999999984              -0.000817121               0.000302544               0.999999984              -0.000824134               0.000305752               0.999999984              -0.000829912               0.000305922               0.999999984              -0.000833844               0.000302325               0.999999984              -0.000835503               0.000294083               0.999999984              -0.000834526               0.000280553               0.999999984              -0.000830798               0.000260756               0.999999984              -0.000824585               0.000233866               0.999999984              -0.000816227               0.000199213               0.999999984              -0.000741063               0.000522567               0.999999984              -0.000734413               0.000426599               0.999999984              -0.000724605               0.000390734               0.999999984              -0.000718961               0.000381070               0.999999984              -0.000717611               0.000382771               0.999999984              -0.000719368               0.000389695               0.999999984              -0.000722955               0.000398582               0.999999984              -0.000727126               0.000407391               0.999999984              -0.000730653               0.000414434               0.999999984              -0.000732549               0.000417964               0.999999984              -0.000732057               0.000417318               0.999999984              -0.000728681               0.000411929               0.999999984              -0.000722189               0.000401148               0.999999984              -0.000712523               0.000384446               0.999999984              -0.000699895               0.000361550               0.999999984              -0.000684785               0.000332454               0.999999984              -0.000667813               0.000297514               0.999999984              -0.000703467               0.000644170               0.999999984              -0.000670042               0.000530931               0.999999984              -0.000649400               0.000492470               0.999999984              -0.000639338               0.000484539               0.999999984              -0.000635758               0.000489256               0.999999984              -0.000635837               0.000499334               0.999999984              -0.000637261               0.000510769               0.999999984              -0.000638076               0.000521519               0.999999984              -0.000636990               0.000529228               0.999999984              -0.000633022               0.000532476               0.999999984              -0.000625580               0.000530616               0.999999984              -0.000614393               0.000523283               0.999999984              -0.000599396               0.000510225               0.999999984              -0.000580797               0.000491378               0.999999984              -0.000559156               0.000466849               0.999999984              -0.000535102               0.000437649               0.999999984              -0.000509369               0.000404786               0.999999984              -0.000659010               0.000759800               0.999999984              -0.000598323               0.000634307               0.999999984              -0.000569449               0.000595659               0.999999984              -0.000557259               0.000590247               0.999999984              -0.000553130               0.000598044               0.999999984              -0.000552264               0.000610876               0.999999984              -0.000551443               0.000624329               0.999999984              -0.000548706               0.000636076               0.999999984              -0.000542516               0.000643865               0.999999984              -0.000532072               0.000646232               0.999999984              -0.000516883               0.000642971               0.999999984              -0.000497019               0.000633924               0.999999984              -0.000472669               0.000619318               0.999999984              -0.000444422               0.000599446               0.999999984              -0.000413132               0.000574934               0.999999984              -0.000379716               0.000547197               0.999999984              -0.000344973               0.000517595               0.999999984              -0.000608499               0.000868319               0.999999984              -0.000522745               0.000736439               0.999999984              -0.000489325               0.000699242               0.999999984              -0.000477704               0.000696308               0.999999984              -0.000474256               0.000706750               0.999999984              -0.000472792               0.000721632               0.999999984              -0.000469751               0.000736211               0.999999984              -0.000462964               0.000748224               0.999999984              -0.000450959               0.000755465               0.999999984              -0.000433026               0.000756725               0.999999984              -0.000408987               0.000752175               0.999999984              -0.000379236               0.000741997               0.999999984              -0.000344521               0.000726564               0.999999984              -0.000305928               0.000706839               0.999999984              -0.000264577               0.000683838               0.999999984              -0.000221525               0.000658878               0.999999984              -0.000177733               0.000633270               0.999999984              -0.000553742               0.000967677               0.999999984              -0.000445893               0.000837239               0.999999984              -0.000413136               0.000801714               0.999999984              -0.000403947               0.000800566               0.999999984              -0.000401861               0.000812869               0.999999984              -0.000399816               0.000829154               0.999999984              -0.000394060               0.000844386               0.999999984              -0.000382436               0.000856116               0.999999984              -0.000363649               0.000862380               0.999999984              -0.000336971               0.000862518               0.999999984              -0.000302749               0.000856906               0.999999984              -0.000261948               0.000846029               0.999999984              -0.000215995               0.000830754               0.999999984              -0.000166411               0.000812326               0.999999984              -0.000114601               0.000792080               0.999999984              -0.000061890               0.000771100               0.999999984              -0.000009074               0.000750047               0.999999984              -0.000497153               0.001061553               0.999999984              -0.000381705               0.000949763               0.999999984              -0.000346103               0.000910068               0.999999984              -0.000335903               0.000903403               0.999999984              -0.000333804               0.000911491               0.999999984              -0.000332526               0.000925805               0.999999984              -0.000328580               0.000941216               0.999999984              -0.000320010               0.000955074               0.999999984              -0.000305296               0.000965767               0.999999984              -0.000283392               0.000972189               0.999999984              -0.000254026               0.000974060               0.999999984              -0.000217729               0.000971654               0.999999984              -0.000175245               0.000965288               0.999999984              -0.000127938               0.000955934               0.999999984              -0.000077231               0.000944297               0.999999984              -0.000024338               0.000931656               0.999999984               0.000029279               0.000918551               0.999999984              -0.000435106               0.001147029               0.999999984              -0.000320355               0.001058657               0.999999984              -0.000282022               0.001021250               0.999999984              -0.000270049               0.001011478               0.999999984              -0.000267178               0.001016625               0.999999984              -0.000266048               0.001029186               0.999999984              -0.000263387               0.001044815               0.999999984              -0.000257026               0.001060701               0.999999984              -0.000245761               0.001075039               0.999999984              -0.000228308               0.001086709               0.999999984              -0.000203952               0.001095038               0.999999984              -0.000172581               0.001099951               0.999999984              -0.000134294               0.001101559               0.999999984              -0.000090003               0.001100326               0.999999984              -0.000041042               0.001096912               0.999999984               0.000011523               0.001092132               0.999999984               0.000065994               0.001086772               0.999999984              -0.000368983               0.001221951               0.999999984              -0.000261866               0.001160444               0.999999984              -0.000222646               0.001130011               0.999999984              -0.000208784               0.001120682               0.999999984              -0.000204597               0.001124707               0.999999984              -0.000203111               0.001136477               0.999999984              -0.000201025               0.001152527               0.999999984              -0.000196452               0.001170309               0.999999984              -0.000187837               0.001188161               0.999999984              -0.000174118               0.001204717               0.999999984              -0.000154424               0.001219115               0.999999984              -0.000128101               0.001230804               0.999999984              -0.000094839               0.001239733               0.999999984              -0.000054759               0.001246006               0.999999984              -0.000008472               0.001250048               0.999999984               0.000043052               0.001252558               0.999999984               0.000098515               0.001254400               0.999999984              -0.000299513               0.001284956               0.999999984              -0.000206156               0.001250937               0.999999984              -0.000168763               0.001230884               0.999999984              -0.000153937               0.001225207               0.999999984              -0.000148528               0.001230258               0.999999984              -0.000146452               0.001242659               0.999999984              -0.000144450               0.001259813               0.999999984              -0.000140926               0.001279757               0.999999984              -0.000134424               0.001300893               0.999999984              -0.000123961               0.001321996               0.999999984              -0.000108612               0.001342062               0.999999984              -0.000087412               0.001360436               0.999999984              -0.000059798               0.001376585               0.999999984              -0.000025202               0.001390406               0.999999984               0.000016823               0.001402101               0.999999984               0.000066104               0.001412054               0.999999984               0.000121984               0.001420989               0.999999984              -0.000227257               0.001334988               0.999999984              -0.000152768               0.001326133               0.999999984              -0.000120507               0.001317935               0.999999984              -0.000106494               0.001317873               0.999999984              -0.000100587               0.001325895               0.999999984              -0.000098008               0.001340408               0.999999984              -0.000096063               0.001359508               0.999999984              -0.000093133               0.001381837               0.999999984              -0.000088281               0.001406220               0.999999984              -0.000080617               0.001431623               0.999999984              -0.000069285               0.001457128               0.999999984              -0.000053256               0.001481919               0.999999984              -0.000031878               0.001505315               0.999999984              -0.000004019               0.001526974               0.999999984               0.000031396               0.001546721               0.999999984               0.000075269               0.001564592               0.999999984               0.000128479               0.001580829               0.999999984              -0.000152768               0.001371319               0.999999984              -0.000101055               0.001382468               0.999999984              -0.000077262               0.001385236               0.999999984              -0.000066149               0.001391287               0.999999984              -0.000061043               0.001403023               0.999999984              -0.000058666               0.001420226               0.999999984              -0.000056939               0.001441901               0.999999984              -0.000054715               0.001466867               0.999999984              -0.000051284               0.001494279               0.999999984              -0.000046101               0.001523459               0.999999984              -0.000038591               0.001553681               0.999999984              -0.000027925               0.001584189               0.999999984              -0.000013062               0.001614285               0.999999984               0.000006939               0.001643557               0.999999984               0.000033019               0.001671451               0.999999984               0.000066733               0.001697476               0.999999984               0.000110147               0.001721224               0.999999984              -0.000076761               0.001393413               0.999999984              -0.000050319               0.001417363               0.999999984              -0.000037658               0.001427809               0.999999984              -0.000031506               0.001438564               0.999999984              -0.000028584               0.001453426               0.999999984              -0.000027002               0.001472992               0.999999984              -0.000025967               0.001496772               0.999999984              -0.000024822               0.001523965               0.999999984              -0.000023017               0.001553883               0.999999984              -0.000020255               0.001585863               0.999999984              -0.000016487               0.001619447               0.999999984              -0.000011024               0.001654031               0.999999984              -0.000003291               0.001688925               0.999999984               0.000007213               0.001723636               0.999999984               0.000021154               0.001757475               0.999999984               0.000039522               0.001789715               0.999999984               0.000064172               0.001819444               0.999999984              -0.000000000               0.001400845               0.999999984               0.000000000               0.001429228               0.999999984              -0.000000000               0.001442403               0.999999984              -0.000000000               0.001454856               0.999999984              -0.000000000               0.001470984               0.999999984               0.000000000               0.001491454               0.999999984               0.000000000               0.001516006               0.999999984              -0.000000000               0.001544097               0.999999984              -0.000000000               0.001575046               0.999999984              -0.000000000               0.001608163               0.999999984              -0.000000000               0.001643030               0.999999984               0.000000000               0.001679132               0.999999984               0.000000000               0.001715702               0.999999984              -0.000000000               0.001752295               0.999999984               0.000000000               0.001788223               0.999999984               0.000000000               0.001822753               0.999999984              -0.000000000               0.001854823               0.999999984              -0.000810908              -0.000000000               0.999999984              -0.000862421               0.000000000               0.999999984              -0.000884648               0.000000000               0.999999984              -0.000897014               0.000000000               0.999999984              -0.000906758               0.000000000               0.999999984              -0.000916587               0.000000000               0.999999984              -0.000927314               0.000000000               0.999999984              -0.000939253              -0.000000000               0.999999984              -0.000952444               0.000000000               0.999999984              -0.000966616              -0.000000000               0.999999984              -0.000981483               0.000000000               0.999999984              -0.000996801               0.000000000               0.999999984              -0.001012074               0.000000000               0.999999984              -0.001026744              -0.000000000               0.999999984              -0.001040163               0.000000000               0.999999984              -0.001051565               0.000000000               0.999999984              -0.001059930               0.000000000               0.999999984              -0.000806377              -0.000133773               0.999999984              -0.000853890              -0.000107676               0.999999984              -0.000873534              -0.000095979               0.999999984              -0.000884263              -0.000091334               0.999999984              -0.000892906              -0.000090282               0.999999984              -0.000901859              -0.000090902               0.999999984              -0.000911925              -0.000092437               0.999999984              -0.000923175              -0.000094229               0.999999984              -0.000935670              -0.000096070               0.999999984              -0.000949133              -0.000097323               0.999999984              -0.000963013              -0.000097664               0.999999984              -0.000976938              -0.000096773               0.999999984              -0.000990430              -0.000094095               0.999999984              -0.001002934              -0.000089237               0.999999984              -0.001013943              -0.000081279               0.999999984              -0.001022780              -0.000069346               0.999999984              -0.001028714              -0.000052476               0.999999984              -0.000793031              -0.000266229               0.999999984              -0.000828741              -0.000214932               0.999999984              -0.000841168              -0.000192696               0.999999984              -0.000847525              -0.000184530               0.999999984              -0.000853303              -0.000183094               0.999999984              -0.000860085              -0.000184992               0.999999984              -0.000868382              -0.000188452               0.999999984              -0.000877970              -0.000192468               0.999999984              -0.000888464              -0.000196206               0.999999984              -0.000899305              -0.000198609               0.999999984              -0.000910013              -0.000199047               0.999999984              -0.000920015              -0.000196960               0.999999984              -0.000928727              -0.000191548               0.999999984              -0.000935716              -0.000181973               0.999999984              -0.000940504              -0.000167169               0.999999984              -0.000942874              -0.000145835               0.999999984              -0.000942673              -0.000116793               0.999999984              -0.000771139              -0.000396186               0.999999984              -0.000788187              -0.000321314               0.999999984              -0.000790117              -0.000290848               0.999999984              -0.000790493              -0.000280927               0.999999984              -0.000792495              -0.000280444               0.999999984              -0.000796658              -0.000284431               0.999999984              -0.000802598              -0.000290506               0.999999984              -0.000809680              -0.000297017               0.999999984              -0.000817121              -0.000302544               0.999999984              -0.000824134              -0.000305752               0.999999984              -0.000829912              -0.000305922               0.999999984              -0.000833844              -0.000302325               0.999999984              -0.000835503              -0.000294083               0.999999984              -0.000834526              -0.000280553               0.999999984              -0.000830798              -0.000260756               0.999999984              -0.000824585              -0.000233866               0.999999984              -0.000816227              -0.000199213               0.999999984              -0.000741063              -0.000522567               0.999999984              -0.000734413              -0.000426599               0.999999984              -0.000724605              -0.000390734               0.999999984              -0.000718961              -0.000381070               0.999999984              -0.000717611              -0.000382771               0.999999984              -0.000719368              -0.000389695               0.999999984              -0.000722955              -0.000398582               0.999999984              -0.000727126              -0.000407391               0.999999984              -0.000730653              -0.000414434               0.999999984              -0.000732549              -0.000417964               0.999999984              -0.000732057              -0.000417318               0.999999984              -0.000728681              -0.000411929               0.999999984              -0.000722189              -0.000401148               0.999999984              -0.000712523              -0.000384446               0.999999984              -0.000699895              -0.000361550               0.999999984              -0.000684785              -0.000332454               0.999999984              -0.000667813              -0.000297514               0.999999984              -0.000703467              -0.000644170               0.999999984              -0.000670042              -0.000530931               0.999999984              -0.000649400              -0.000492470               0.999999984              -0.000639338              -0.000484539               0.999999984              -0.000635758              -0.000489256               0.999999984              -0.000635837              -0.000499334               0.999999984              -0.000637261              -0.000510769               0.999999984              -0.000638076              -0.000521519               0.999999984              -0.000636990              -0.000529228               0.999999984              -0.000633022              -0.000532476               0.999999984              -0.000625580              -0.000530616               0.999999984              -0.000614393              -0.000523283               0.999999984              -0.000599396              -0.000510225               0.999999984              -0.000580797              -0.000491378               0.999999984              -0.000559156              -0.000466849               0.999999984              -0.000535102              -0.000437649               0.999999984              -0.000509369              -0.000404786               0.999999984              -0.000659010              -0.000759800               0.999999984              -0.000598323              -0.000634307               0.999999984              -0.000569449              -0.000595659               0.999999984              -0.000557259              -0.000590247               0.999999984              -0.000553130              -0.000598044               0.999999984              -0.000552264              -0.000610876               0.999999984              -0.000551443              -0.000624329               0.999999984              -0.000548706              -0.000636076               0.999999984              -0.000542516              -0.000643865               0.999999984              -0.000532072              -0.000646232               0.999999984              -0.000516883              -0.000642971               0.999999984              -0.000497019              -0.000633924               0.999999984              -0.000472669              -0.000619318               0.999999984              -0.000444422              -0.000599446               0.999999984              -0.000413132              -0.000574934               0.999999984              -0.000379716              -0.000547197               0.999999984              -0.000344973              -0.000517595               0.999999984              -0.000608499              -0.000868319               0.999999984              -0.000522745              -0.000736439               0.999999984              -0.000489325              -0.000699242               0.999999984              -0.000477704              -0.000696308               0.999999984              -0.000474256              -0.000706750               0.999999984              -0.000472792              -0.000721632               0.999999984              -0.000469751              -0.000736211               0.999999984              -0.000462964              -0.000748224               0.999999984              -0.000450959              -0.000755465               0.999999984              -0.000433026              -0.000756725               0.999999984              -0.000408987              -0.000752175               0.999999984              -0.000379236              -0.000741997               0.999999984              -0.000344521              -0.000726564               0.999999984              -0.000305928              -0.000706839               0.999999984              -0.000264577              -0.000683838               0.999999984              -0.000221525              -0.000658878               0.999999984              -0.000177733              -0.000633270               0.999999984              -0.000553742              -0.000967677               0.999999984              -0.000445893              -0.000837239               0.999999984              -0.000413136              -0.000801714               0.999999984              -0.000403947              -0.000800566               0.999999984              -0.000401861              -0.000812869               0.999999984              -0.000399816              -0.000829154               0.999999984              -0.000394060              -0.000844386               0.999999984              -0.000382436              -0.000856116               0.999999984              -0.000363649              -0.000862380               0.999999984              -0.000336971              -0.000862518               0.999999984              -0.000302749              -0.000856906               0.999999984              -0.000261948              -0.000846029               0.999999984              -0.000215995              -0.000830754               0.999999984              -0.000166411              -0.000812326               0.999999984              -0.000114601              -0.000792080               0.999999984              -0.000061890              -0.000771100               0.999999984              -0.000009074              -0.000750047               0.999999984              -0.000497153              -0.001061553               0.999999984              -0.000381705              -0.000949763               0.999999984              -0.000346103              -0.000910068               0.999999984              -0.000335903              -0.000903403               0.999999984              -0.000333804              -0.000911491               0.999999984              -0.000332526              -0.000925805               0.999999984              -0.000328580              -0.000941216               0.999999984              -0.000320010              -0.000955074               0.999999984              -0.000305296              -0.000965767               0.999999984              -0.000283392              -0.000972189               0.999999984              -0.000254026              -0.000974060               0.999999984              -0.000217729              -0.000971654               0.999999984              -0.000175245              -0.000965288               0.999999984              -0.000127938              -0.000955934               0.999999984              -0.000077231              -0.000944297               0.999999984              -0.000024338              -0.000931656               0.999999984               0.000029279              -0.000918551               0.999999984              -0.000435106              -0.001147029               0.999999984              -0.000320355              -0.001058657               0.999999984              -0.000282022              -0.001021250               0.999999984              -0.000270049              -0.001011478               0.999999984              -0.000267178              -0.001016625               0.999999984              -0.000266048              -0.001029186               0.999999984              -0.000263387              -0.001044815               0.999999984              -0.000257026              -0.001060701               0.999999984              -0.000245761              -0.001075039               0.999999984              -0.000228308              -0.001086709               0.999999984              -0.000203952              -0.001095038               0.999999984              -0.000172581              -0.001099951               0.999999984              -0.000134294              -0.001101559               0.999999984              -0.000090003              -0.001100326               0.999999984              -0.000041042              -0.001096912               0.999999984               0.000011523              -0.001092132               0.999999984               0.000065994              -0.001086772               0.999999984              -0.000368983              -0.001221951               0.999999984              -0.000261866              -0.001160444               0.999999984              -0.000222646              -0.001130011               0.999999984              -0.000208784              -0.001120682               0.999999984              -0.000204597              -0.001124707               0.999999984              -0.000203111              -0.001136477               0.999999984              -0.000201025              -0.001152527               0.999999984              -0.000196452              -0.001170309               0.999999984              -0.000187837              -0.001188161               0.999999984              -0.000174118              -0.001204717               0.999999984              -0.000154424              -0.001219115               0.999999984              -0.000128101              -0.001230804               0.999999984              -0.000094839              -0.001239733               0.999999984              -0.000054759              -0.001246006               0.999999984              -0.000008472              -0.001250048               0.999999984               0.000043052              -0.001252558               0.999999984               0.000098515              -0.001254400               0.999999984              -0.000299513              -0.001284956               0.999999984              -0.000206156              -0.001250937               0.999999984              -0.000168763              -0.001230884               0.999999984              -0.000153937              -0.001225207               0.999999984              -0.000148528              -0.001230258               0.999999984              -0.000146452              -0.001242659               0.999999984              -0.000144450              -0.001259813               0.999999984              -0.000140926              -0.001279757               0.999999984              -0.000134424              -0.001300893               0.999999984              -0.000123961              -0.001321996               0.999999984              -0.000108612              -0.001342062               0.999999984              -0.000087412              -0.001360436               0.999999984              -0.000059798              -0.001376585               0.999999984              -0.000025202              -0.001390406               0.999999984               0.000016823              -0.001402101               0.999999984               0.000066104              -0.001412054               0.999999984               0.000121984              -0.001420989               0.999999984              -0.000227257              -0.001334988               0.999999984              -0.000152768              -0.001326133               0.999999984              -0.000120507              -0.001317935               0.999999984              -0.000106494              -0.001317873               0.999999984              -0.000100587              -0.001325895               0.999999984              -0.000098008              -0.001340408               0.999999984              -0.000096063              -0.001359508               0.999999984              -0.000093133              -0.001381837               0.999999984              -0.000088281              -0.001406220               0.999999984              -0.000080617              -0.001431623               0.999999984              -0.000069285              -0.001457128               0.999999984              -0.000053256              -0.001481919               0.999999984              -0.000031878              -0.001505315               0.999999984              -0.000004019              -0.001526974               0.999999984               0.000031396              -0.001546721               0.999999984               0.000075269              -0.001564592               0.999999984               0.000128479              -0.001580829               0.999999984              -0.000152768              -0.001371319               0.999999984              -0.000101055              -0.001382468               0.999999984              -0.000077262              -0.001385236               0.999999984              -0.000066149              -0.001391287               0.999999984              -0.000061043              -0.001403023               0.999999984              -0.000058666              -0.001420226               0.999999984              -0.000056939              -0.001441901               0.999999984              -0.000054715              -0.001466867               0.999999984              -0.000051284              -0.001494279               0.999999984              -0.000046101              -0.001523459               0.999999984              -0.000038591              -0.001553681               0.999999984              -0.000027925              -0.001584189               0.999999984              -0.000013062              -0.001614285               0.999999984               0.000006939              -0.001643557               0.999999984               0.000033019              -0.001671451               0.999999984               0.000066733              -0.001697476               0.999999984               0.000110147              -0.001721224               0.999999984              -0.000076761              -0.001393413               0.999999984              -0.000050319              -0.001417363               0.999999984              -0.000037658              -0.001427809               0.999999984              -0.000031506              -0.001438564               0.999999984              -0.000028584              -0.001453426               0.999999984              -0.000027002              -0.001472992               0.999999984              -0.000025967              -0.001496772               0.999999984              -0.000024822              -0.001523965               0.999999984              -0.000023017              -0.001553883               0.999999984              -0.000020255              -0.001585863               0.999999984              -0.000016487              -0.001619447               0.999999984              -0.000011024              -0.001654031               0.999999984              -0.000003291              -0.001688925               0.999999984               0.000007213              -0.001723636               0.999999984               0.000021154              -0.001757475               0.999999984               0.000039522              -0.001789715               0.999999984               0.000064172              -0.001819444               0.999999984              -0.000000000              -0.001400845               0.999999984               0.000000000              -0.001429228               0.999999984              -0.000000000              -0.001442403               0.999999984               0.000000000              -0.001454856               0.999999984               0.000000000              -0.001470984               0.999999984               0.000000000              -0.001491454               0.999999984              -0.000000000              -0.001516006               0.999999984               0.000000000              -0.001544097               0.999999984               0.000000000              -0.001575046               0.999999984              -0.000000000              -0.001608163               0.999999984               0.000000000              -0.001643030               0.999999984              -0.000000000              -0.001679132               0.999999984               0.000000000              -0.001715702               0.999999984               0.000000000              -0.001752295               0.999999984              -0.000000000              -0.001788223               0.999999984               0.000000000              -0.001822753               0.999999984              -0.000000000              -0.001854823               0.999999984               0.000810908              -0.000000000               0.999999984               0.000862421              -0.000000000               0.999999984               0.000884648              -0.000000000               0.999999984               0.000897014               0.000000000               0.999999984               0.000906758               0.000000000               0.999999984               0.000916587              -0.000000000               0.999999984               0.000927314               0.000000000               0.999999984               0.000939253              -0.000000000               0.999999984               0.000952444               0.000000000               0.999999984               0.000966616               0.000000000               0.999999984               0.000981483               0.000000000               0.999999984               0.000996801              -0.000000000               0.999999984               0.001012074              -0.000000000               0.999999984               0.001026744               0.000000000               0.999999984               0.001040163              -0.000000000               0.999999984               0.001051565               0.000000000               0.999999984               0.001059930               0.000000000               0.999999984               0.000806377              -0.000133773               0.999999984               0.000853890              -0.000107676               0.999999984               0.000873534              -0.000095979               0.999999984               0.000884263              -0.000091334               0.999999984               0.000892906              -0.000090282               0.999999984               0.000901859              -0.000090902               0.999999984               0.000911925              -0.000092437               0.999999984               0.000923175              -0.000094229               0.999999984               0.000935670              -0.000096070               0.999999984               0.000949133              -0.000097323               0.999999984               0.000963013              -0.000097664               0.999999984               0.000976938              -0.000096773               0.999999984               0.000990430              -0.000094095               0.999999984               0.001002934              -0.000089237               0.999999984               0.001013943              -0.000081279               0.999999984               0.001022780              -0.000069346               0.999999984               0.001028714              -0.000052476               0.999999984               0.000793031              -0.000266229               0.999999984               0.000828741              -0.000214932               0.999999984               0.000841168              -0.000192696               0.999999984               0.000847525              -0.000184530               0.999999984               0.000853303              -0.000183094               0.999999984               0.000860085              -0.000184992               0.999999984               0.000868382              -0.000188452               0.999999984               0.000877970              -0.000192468               0.999999984               0.000888464              -0.000196206               0.999999984               0.000899305              -0.000198609               0.999999984               0.000910013              -0.000199047               0.999999984               0.000920015              -0.000196960               0.999999984               0.000928727              -0.000191548               0.999999984               0.000935716              -0.000181973               0.999999984               0.000940504              -0.000167169               0.999999984               0.000942874              -0.000145835               0.999999984               0.000942673              -0.000116793               0.999999984               0.000771139              -0.000396186               0.999999984               0.000788187              -0.000321314               0.999999984               0.000790117              -0.000290848               0.999999984               0.000790493              -0.000280927               0.999999984               0.000792495              -0.000280444               0.999999984               0.000796658              -0.000284431               0.999999984               0.000802598              -0.000290506               0.999999984               0.000809680              -0.000297017               0.999999984               0.000817121              -0.000302544               0.999999984               0.000824134              -0.000305752               0.999999984               0.000829912              -0.000305922               0.999999984               0.000833844              -0.000302325               0.999999984               0.000835503              -0.000294083               0.999999984               0.000834526              -0.000280553               0.999999984               0.000830798              -0.000260756               0.999999984               0.000824585              -0.000233866               0.999999984               0.000816227              -0.000199213               0.999999984               0.000741063              -0.000522567               0.999999984               0.000734413              -0.000426599               0.999999984               0.000724605              -0.000390734               0.999999984               0.000718961              -0.000381070               0.999999984               0.000717611              -0.000382771               0.999999984               0.000719368              -0.000389695               0.999999984               0.000722955              -0.000398582               0.999999984               0.000727126              -0.000407391               0.999999984               0.000730653              -0.000414434               0.999999984               0.000732549              -0.000417964               0.999999984               0.000732057              -0.000417318               0.999999984               0.000728681              -0.000411929               0.999999984               0.000722189              -0.000401148               0.999999984               0.000712523              -0.000384446               0.999999984               0.000699895              -0.000361550               0.999999984               0.000684785              -0.000332454               0.999999984               0.000667813              -0.000297514               0.999999984               0.000703467              -0.000644170               0.999999984               0.000670042              -0.000530931               0.999999984               0.000649400              -0.000492470               0.999999984               0.000639338              -0.000484539               0.999999984               0.000635758              -0.000489256               0.999999984               0.000635837              -0.000499334               0.999999984               0.000637261              -0.000510769               0.999999984               0.000638076              -0.000521519               0.999999984               0.000636990              -0.000529228               0.999999984               0.000633022              -0.000532476               0.999999984               0.000625580              -0.000530616               0.999999984               0.000614393              -0.000523283               0.999999984               0.000599396              -0.000510225               0.999999984               0.000580797              -0.000491378               0.999999984               0.000559156              -0.000466849               0.999999984               0.000535102              -0.000437649               0.999999984               0.000509369              -0.000404786               0.999999984               0.000659010              -0.000759800               0.999999984               0.000598323              -0.000634307               0.999999984               0.000569449              -0.000595659               0.999999984               0.000557259              -0.000590247               0.999999984               0.000553130              -0.000598044               0.999999984               0.000552264              -0.000610876               0.999999984               0.000551443              -0.000624329               0.999999984               0.000548706              -0.000636076               0.999999984               0.000542516              -0.000643865               0.999999984               0.000532072              -0.000646232               0.999999984               0.000516883              -0.000642971               0.999999984               0.000497019              -0.000633924               0.999999984               0.000472669              -0.000619318               0.999999984               0.000444422              -0.000599446               0.999999984               0.000413132              -0.000574934               0.999999984               0.000379716              -0.000547197               0.999999984               0.000344973              -0.000517595               0.999999984               0.000608499              -0.000868319               0.999999984               0.000522745              -0.000736439               0.999999984               0.000489325              -0.000699242               0.999999984               0.000477704              -0.000696308               0.999999984               0.000474256              -0.000706750               0.999999984               0.000472792              -0.000721632               0.999999984               0.000469751              -0.000736211               0.999999984               0.000462964              -0.000748224               0.999999984               0.000450959              -0.000755465               0.999999984               0.000433026              -0.000756725               0.999999984               0.000408987              -0.000752175               0.999999984               0.000379236              -0.000741997               0.999999984               0.000344521              -0.000726564               0.999999984               0.000305928              -0.000706839               0.999999984               0.000264577              -0.000683838               0.999999984               0.000221525              -0.000658878               0.999999984               0.000177733              -0.000633270               0.999999984               0.000553742              -0.000967677               0.999999984               0.000445893              -0.000837239               0.999999984               0.000413136              -0.000801714               0.999999984               0.000403947              -0.000800566               0.999999984               0.000401861              -0.000812869               0.999999984               0.000399816              -0.000829154               0.999999984               0.000394060              -0.000844386               0.999999984               0.000382436              -0.000856116               0.999999984               0.000363649              -0.000862380               0.999999984               0.000336971              -0.000862518               0.999999984               0.000302749              -0.000856906               0.999999984               0.000261948              -0.000846029               0.999999984               0.000215995              -0.000830754               0.999999984               0.000166411              -0.000812326               0.999999984               0.000114601              -0.000792080               0.999999984               0.000061890              -0.000771100               0.999999984               0.000009074              -0.000750047               0.999999984               0.000497153              -0.001061553               0.999999984               0.000381705              -0.000949763               0.999999984               0.000346103              -0.000910068               0.999999984               0.000335903              -0.000903403               0.999999984               0.000333804              -0.000911491               0.999999984               0.000332526              -0.000925805               0.999999984               0.000328580              -0.000941216               0.999999984               0.000320010              -0.000955074               0.999999984               0.000305296              -0.000965767               0.999999984               0.000283392              -0.000972189               0.999999984               0.000254026              -0.000974060               0.999999984               0.000217729              -0.000971654               0.999999984               0.000175245              -0.000965288               0.999999984               0.000127938              -0.000955934               0.999999984               0.000077231              -0.000944297               0.999999984               0.000024338              -0.000931656               0.999999984              -0.000029279              -0.000918551               0.999999984               0.000435106              -0.001147029               0.999999984               0.000320355              -0.001058657               0.999999984               0.000282022              -0.001021250               0.999999984               0.000270049              -0.001011478               0.999999984               0.000267178              -0.001016625               0.999999984               0.000266048              -0.001029186               0.999999984               0.000263387              -0.001044815               0.999999984               0.000257026              -0.001060701               0.999999984               0.000245761              -0.001075039               0.999999984               0.000228308              -0.001086709               0.999999984               0.000203952              -0.001095038               0.999999984               0.000172581              -0.001099951               0.999999984               0.000134294              -0.001101559               0.999999984               0.000090003              -0.001100326               0.999999984               0.000041042              -0.001096912               0.999999984              -0.000011523              -0.001092132               0.999999984              -0.000065994              -0.001086772               0.999999984               0.000368983              -0.001221951               0.999999984               0.000261866              -0.001160444               0.999999984               0.000222646              -0.001130011               0.999999984               0.000208784              -0.001120682               0.999999984               0.000204597              -0.001124707               0.999999984               0.000203111              -0.001136477               0.999999984               0.000201025              -0.001152527               0.999999984               0.000196452              -0.001170309               0.999999984               0.000187837              -0.001188161               0.999999984               0.000174118              -0.001204717               0.999999984               0.000154424              -0.001219115               0.999999984               0.000128101              -0.001230804               0.999999984               0.000094839              -0.001239733               0.999999984               0.000054759              -0.001246006               0.999999984               0.000008472              -0.001250048               0.999999984              -0.000043052              -0.001252558               0.999999984              -0.000098515              -0.001254400               0.999999984               0.000299513              -0.001284956               0.999999984               0.000206156              -0.001250937               0.999999984               0.000168763              -0.001230884               0.999999984               0.000153937              -0.001225207               0.999999984               0.000148528              -0.001230258               0.999999984               0.000146452              -0.001242659               0.999999984               0.000144450              -0.001259813               0.999999984               0.000140926              -0.001279757               0.999999984               0.000134424              -0.001300893               0.999999984               0.000123961              -0.001321996               0.999999984               0.000108612              -0.001342062               0.999999984               0.000087412              -0.001360436               0.999999984               0.000059798              -0.001376585               0.999999984               0.000025202              -0.001390406               0.999999984              -0.000016823              -0.001402101               0.999999984              -0.000066104              -0.001412054               0.999999984              -0.000121984              -0.001420989               0.999999984               0.000227257              -0.001334988               0.999999984               0.000152768              -0.001326133               0.999999984               0.000120507              -0.001317935               0.999999984               0.000106494              -0.001317873               0.999999984               0.000100587              -0.001325895               0.999999984               0.000098008              -0.001340408               0.999999984               0.000096063              -0.001359508               0.999999984               0.000093133              -0.001381837               0.999999984               0.000088281              -0.001406220               0.999999984               0.000080617              -0.001431623               0.999999984               0.000069285              -0.001457128               0.999999984               0.000053256              -0.001481919               0.999999984               0.000031878              -0.001505315               0.999999984               0.000004019              -0.001526974               0.999999984              -0.000031396              -0.001546721               0.999999984              -0.000075269              -0.001564592               0.999999984              -0.000128479              -0.001580829               0.999999984               0.000152768              -0.001371319               0.999999984               0.000101055              -0.001382468               0.999999984               0.000077262              -0.001385236               0.999999984               0.000066149              -0.001391287               0.999999984               0.000061043              -0.001403023               0.999999984               0.000058666              -0.001420226               0.999999984               0.000056939              -0.001441901               0.999999984               0.000054715              -0.001466867               0.999999984               0.000051284              -0.001494279               0.999999984               0.000046101              -0.001523459               0.999999984               0.000038591              -0.001553681               0.999999984               0.000027925              -0.001584189               0.999999984               0.000013062              -0.001614285               0.999999984              -0.000006939              -0.001643557               0.999999984              -0.000033019              -0.001671451               0.999999984              -0.000066733              -0.001697476               0.999999984              -0.000110147              -0.001721224               0.999999984               0.000076761              -0.001393413               0.999999984               0.000050319              -0.001417363               0.999999984               0.000037658              -0.001427809               0.999999984               0.000031506              -0.001438564               0.999999984               0.000028584              -0.001453426               0.999999984               0.000027002              -0.001472992               0.999999984               0.000025967              -0.001496772               0.999999984               0.000024822              -0.001523965               0.999999984               0.000023017              -0.001553883               0.999999984               0.000020255              -0.001585863               0.999999984               0.000016487              -0.001619447               0.999999984               0.000011024              -0.001654031               0.999999984               0.000003291              -0.001688925               0.999999984              -0.000007213              -0.001723636               0.999999984              -0.000021154              -0.001757475               0.999999984              -0.000039522              -0.001789715               0.999999984              -0.000064172              -0.001819444               0.999999984              -0.000000000              -0.001400845               0.999999984               0.000000000              -0.001429228               0.999999984              -0.000000000              -0.001442403               0.999999984               0.000000000              -0.001454856               0.999999984               0.000000000              -0.001470984               0.999999984               0.000000000              -0.001491454               0.999999984              -0.000000000              -0.001516006               0.999999984               0.000000000              -0.001544097               0.999999984               0.000000000              -0.001575046               0.999999984              -0.000000000              -0.001608163               0.999999984               0.000000000              -0.001643030               0.999999984              -0.000000000              -0.001679132               0.999999984               0.000000000              -0.001715702               0.999999984               0.000000000              -0.001752295               0.999999984              -0.000000000              -0.001788223               0.999999984               0.000000000              -0.001822753               0.999999984              -0.000000000              -0.001854823               0.999999984               0.000810908              -0.000000000               0.999999984               0.000862421              -0.000000000               0.999999984               0.000884648              -0.000000000               0.999999984               0.000897014               0.000000000               0.999999984               0.000906758               0.000000000               0.999999984               0.000916587              -0.000000000               0.999999984               0.000927314               0.000000000               0.999999984               0.000939253              -0.000000000               0.999999984               0.000952444               0.000000000               0.999999984               0.000966616               0.000000000               0.999999984               0.000981483               0.000000000               0.999999984               0.000996801              -0.000000000               0.999999984               0.001012074              -0.000000000               0.999999984               0.001026744               0.000000000               0.999999984               0.001040163              -0.000000000               0.999999984               0.001051565               0.000000000               0.999999984               0.001059930               0.000000000               0.999999984               0.000806377               0.000133773               0.999999984               0.000853890               0.000107676               0.999999984               0.000873534               0.000095979               0.999999984               0.000884263               0.000091334               0.999999984               0.000892906               0.000090282               0.999999984               0.000901859               0.000090902               0.999999984               0.000911925               0.000092437               0.999999984               0.000923175               0.000094229               0.999999984               0.000935670               0.000096070               0.999999984               0.000949133               0.000097323               0.999999984               0.000963013               0.000097664               0.999999984               0.000976938               0.000096773               0.999999984               0.000990430               0.000094095               0.999999984               0.001002934               0.000089237               0.999999984               0.001013943               0.000081279               0.999999984               0.001022780               0.000069346               0.999999984               0.001028714               0.000052476               0.999999984               0.000793031               0.000266229               0.999999984               0.000828741               0.000214932               0.999999984               0.000841168               0.000192696               0.999999984               0.000847525               0.000184530               0.999999984               0.000853303               0.000183094               0.999999984               0.000860085               0.000184992               0.999999984               0.000868382               0.000188452               0.999999984               0.000877970               0.000192468               0.999999984               0.000888464               0.000196206               0.999999984               0.000899305               0.000198609               0.999999984               0.000910013               0.000199047               0.999999984               0.000920015               0.000196960               0.999999984               0.000928727               0.000191548               0.999999984               0.000935716               0.000181973               0.999999984               0.000940504               0.000167169               0.999999984               0.000942874               0.000145835               0.999999984               0.000942673               0.000116793               0.999999984               0.000771139               0.000396186               0.999999984               0.000788187               0.000321314               0.999999984               0.000790117               0.000290848               0.999999984               0.000790493               0.000280927               0.999999984               0.000792495               0.000280444               0.999999984               0.000796658               0.000284431               0.999999984               0.000802598               0.000290506               0.999999984               0.000809680               0.000297017               0.999999984               0.000817121               0.000302544               0.999999984               0.000824134               0.000305752               0.999999984               0.000829912               0.000305922               0.999999984               0.000833844               0.000302325               0.999999984               0.000835503               0.000294083               0.999999984               0.000834526               0.000280553               0.999999984               0.000830798               0.000260756               0.999999984               0.000824585               0.000233866               0.999999984               0.000816227               0.000199213               0.999999984               0.000741063               0.000522567               0.999999984               0.000734413               0.000426599               0.999999984               0.000724605               0.000390734               0.999999984               0.000718961               0.000381070               0.999999984               0.000717611               0.000382771               0.999999984               0.000719368               0.000389695               0.999999984               0.000722955               0.000398582               0.999999984               0.000727126               0.000407391               0.999999984               0.000730653               0.000414434               0.999999984               0.000732549               0.000417964               0.999999984               0.000732057               0.000417318               0.999999984               0.000728681               0.000411929               0.999999984               0.000722189               0.000401148               0.999999984               0.000712523               0.000384446               0.999999984               0.000699895               0.000361550               0.999999984               0.000684785               0.000332454               0.999999984               0.000667813               0.000297514               0.999999984               0.000703467               0.000644170               0.999999984               0.000670042               0.000530931               0.999999984               0.000649400               0.000492470               0.999999984               0.000639338               0.000484539               0.999999984               0.000635758               0.000489256               0.999999984               0.000635837               0.000499334               0.999999984               0.000637261               0.000510769               0.999999984               0.000638076               0.000521519               0.999999984               0.000636990               0.000529228               0.999999984               0.000633022               0.000532476               0.999999984               0.000625580               0.000530616               0.999999984               0.000614393               0.000523283               0.999999984               0.000599396               0.000510225               0.999999984               0.000580797               0.000491378               0.999999984               0.000559156               0.000466849               0.999999984               0.000535102               0.000437649               0.999999984               0.000509369               0.000404786               0.999999984               0.000659010               0.000759800               0.999999984               0.000598323               0.000634307               0.999999984               0.000569449               0.000595659               0.999999984               0.000557259               0.000590247               0.999999984               0.000553130               0.000598044               0.999999984               0.000552264               0.000610876               0.999999984               0.000551443               0.000624329               0.999999984               0.000548706               0.000636076               0.999999984               0.000542516               0.000643865               0.999999984               0.000532072               0.000646232               0.999999984               0.000516883               0.000642971               0.999999984               0.000497019               0.000633924               0.999999984               0.000472669               0.000619318               0.999999984               0.000444422               0.000599446               0.999999984               0.000413132               0.000574934               0.999999984               0.000379716               0.000547197               0.999999984               0.000344973               0.000517595               0.999999984               0.000608499               0.000868319               0.999999984               0.000522745               0.000736439               0.999999984               0.000489325               0.000699242               0.999999984               0.000477704               0.000696308               0.999999984               0.000474256               0.000706750               0.999999984               0.000472792               0.000721632               0.999999984               0.000469751               0.000736211               0.999999984               0.000462964               0.000748224               0.999999984               0.000450959               0.000755465               0.999999984               0.000433026               0.000756725               0.999999984               0.000408987               0.000752175               0.999999984               0.000379236               0.000741997               0.999999984               0.000344521               0.000726564               0.999999984               0.000305928               0.000706839               0.999999984               0.000264577               0.000683838               0.999999984               0.000221525               0.000658878               0.999999984               0.000177733               0.000633270               0.999999984               0.000553742               0.000967677               0.999999984               0.000445893               0.000837239               0.999999984               0.000413136               0.000801714               0.999999984               0.000403947               0.000800566               0.999999984               0.000401861               0.000812869               0.999999984               0.000399816               0.000829154               0.999999984               0.000394060               0.000844386               0.999999984               0.000382436               0.000856116               0.999999984               0.000363649               0.000862380               0.999999984               0.000336971               0.000862518               0.999999984               0.000302749               0.000856906               0.999999984               0.000261948               0.000846029               0.999999984               0.000215995               0.000830754               0.999999984               0.000166411               0.000812326               0.999999984               0.000114601               0.000792080               0.999999984               0.000061890               0.000771100               0.999999984               0.000009074               0.000750047               0.999999984               0.000497153               0.001061553               0.999999984               0.000381705               0.000949763               0.999999984               0.000346103               0.000910068               0.999999984               0.000335903               0.000903403               0.999999984               0.000333804               0.000911491               0.999999984               0.000332526               0.000925805               0.999999984               0.000328580               0.000941216               0.999999984               0.000320010               0.000955074               0.999999984               0.000305296               0.000965767               0.999999984               0.000283392               0.000972189               0.999999984               0.000254026               0.000974060               0.999999984               0.000217729               0.000971654               0.999999984               0.000175245               0.000965288               0.999999984               0.000127938               0.000955934               0.999999984               0.000077231               0.000944297               0.999999984               0.000024338               0.000931656               0.999999984              -0.000029279               0.000918551               0.999999984               0.000435106               0.001147029               0.999999984               0.000320355               0.001058657               0.999999984               0.000282022               0.001021250               0.999999984               0.000270049               0.001011478               0.999999984               0.000267178               0.001016625               0.999999984               0.000266048               0.001029186               0.999999984               0.000263387               0.001044815               0.999999984               0.000257026               0.001060701               0.999999984               0.000245761               0.001075039               0.999999984               0.000228308               0.001086709               0.999999984               0.000203952               0.001095038               0.999999984               0.000172581               0.001099951               0.999999984               0.000134294               0.001101559               0.999999984               0.000090003               0.001100326               0.999999984               0.000041042               0.001096912               0.999999984              -0.000011523               0.001092132               0.999999984              -0.000065994               0.001086772               0.999999984               0.000368983               0.001221951               0.999999984               0.000261866               0.001160444               0.999999984               0.000222646               0.001130011               0.999999984               0.000208784               0.001120682               0.999999984               0.000204597               0.001124707               0.999999984               0.000203111               0.001136477               0.999999984               0.000201025               0.001152527               0.999999984               0.000196452               0.001170309               0.999999984               0.000187837               0.001188161               0.999999984               0.000174118               0.001204717               0.999999984               0.000154424               0.001219115               0.999999984               0.000128101               0.001230804               0.999999984               0.000094839               0.001239733               0.999999984               0.000054759               0.001246006               0.999999984               0.000008472               0.001250048               0.999999984              -0.000043052               0.001252558               0.999999984              -0.000098515               0.001254400               0.999999984               0.000299513               0.001284956               0.999999984               0.000206156               0.001250937               0.999999984               0.000168763               0.001230884               0.999999984               0.000153937               0.001225207               0.999999984               0.000148528               0.001230258               0.999999984               0.000146452               0.001242659               0.999999984               0.000144450               0.001259813               0.999999984               0.000140926               0.001279757               0.999999984               0.000134424               0.001300893               0.999999984               0.000123961               0.001321996               0.999999984               0.000108612               0.001342062               0.999999984               0.000087412               0.001360436               0.999999984               0.000059798               0.001376585               0.999999984               0.000025202               0.001390406               0.999999984              -0.000016823               0.001402101               0.999999984              -0.000066104               0.001412054               0.999999984              -0.000121984               0.001420989               0.999999984               0.000227257               0.001334988               0.999999984               0.000152768               0.001326133               0.999999984               0.000120507               0.001317935               0.999999984               0.000106494               0.001317873               0.999999984               0.000100587               0.001325895               0.999999984               0.000098008               0.001340408               0.999999984               0.000096063               0.001359508               0.999999984               0.000093133               0.001381837               0.999999984               0.000088281               0.001406220               0.999999984               0.000080617               0.001431623               0.999999984               0.000069285               0.001457128               0.999999984               0.000053256               0.001481919               0.999999984               0.000031878               0.001505315               0.999999984               0.000004019               0.001526974               0.999999984              -0.000031396               0.001546721               0.999999984              -0.000075269               0.001564592               0.999999984              -0.000128479               0.001580829               0.999999984               0.000152768               0.001371319               0.999999984               0.000101055               0.001382468               0.999999984               0.000077262               0.001385236               0.999999984               0.000066149               0.001391287               0.999999984               0.000061043               0.001403023               0.999999984               0.000058666               0.001420226               0.999999984               0.000056939               0.001441901               0.999999984               0.000054715               0.001466867               0.999999984               0.000051284               0.001494279               0.999999984               0.000046101               0.001523459               0.999999984               0.000038591               0.001553681               0.999999984               0.000027925               0.001584189               0.999999984               0.000013062               0.001614285               0.999999984              -0.000006939               0.001643557               0.999999984              -0.000033019               0.001671451               0.999999984              -0.000066733               0.001697476               0.999999984              -0.000110147               0.001721224               0.999999984               0.000076761               0.001393413               0.999999984               0.000050319               0.001417363               0.999999984               0.000037658               0.001427809               0.999999984               0.000031506               0.001438564               0.999999984               0.000028584               0.001453426               0.999999984               0.000027002               0.001472992               0.999999984               0.000025967               0.001496772               0.999999984               0.000024822               0.001523965               0.999999984               0.000023017               0.001553883               0.999999984               0.000020255               0.001585863               0.999999984               0.000016487               0.001619447               0.999999984               0.000011024               0.001654031               0.999999984               0.000003291               0.001688925               0.999999984              -0.000007213               0.001723636               0.999999984              -0.000021154               0.001757475               0.999999984              -0.000039522               0.001789715               0.999999984              -0.000064172               0.001819444               0.999999984              -0.000000000               0.001400845               0.999999984               0.000000000               0.001429228               0.999999984              -0.000000000               0.001442403               0.999999984              -0.000000000               0.001454856               0.999999984              -0.000000000               0.001470984               0.999999984               0.000000000               0.001491454               0.999999984               0.000000000               0.001516006               0.999999984              -0.000000000               0.001544097               0.999999984              -0.000000000               0.001575046               0.999999984              -0.000000000               0.001608163               0.999999984              -0.000000000               0.001643030               0.999999984               0.000000000               0.001679132               0.999999984               0.000000000               0.001715702               0.999999984              -0.000000000               0.001752295               0.999999984               0.000000000               0.001788223               0.999999984               0.000000000               0.001822753               0.999999984              -0.000000000               0.001854823               0.999999984 </DataArray>
<DataArray type="Float64"                                    Name="stress"                                                      NumberOfComponents="10" format="ascii">
              0.002254773               0.024369956               0.000000000              -0.002200699               0.008856804               0.006656105               0.000000000               0.000000000               0.000000000               0.000000000               0.002186400               0.018871831               0.000000000              -0.001539075               0.006803572               0.005264497               0.000000000               0.000000000               0.000000000               0.000000000               0.002835572               0.014398539               0.000000000              -0.000736476               0.005044957               0.004308481               0.000000000               0.000000000               0.000000000               0.000000000               0.002662339               0.011861631               0.000000000              -0.000484326               0.004115279               0.003630954               0.000000000               0.000000000               0.000000000               0.000000000               0.002253298               0.010249799              -0.000000000              -0.000436237               0.003561978               0.003125741               0.000000000               0.000000000               0.000000000               0.000000000               0.001812876               0.009120691               0.000000000              -0.000460257               0.003193619               0.002733362               0.000000000               0.000000000               0.000000000               0.000000000               0.001407293               0.008273408               0.000000000              -0.000506440               0.002926588               0.002420149               0.000000000               0.000000000               0.000000000               0.000000000               0.001040294               0.007591114               0.000000000              -0.000558778               0.002716605               0.002157828               0.000000000               0.000000000               0.000000000               0.000000000               0.000721665               0.007014777               0.000000000              -0.000606221               0.002540309               0.001934088               0.000000000               0.000000000               0.000000000               0.000000000               0.000458381               0.006492897               0.000000000              -0.000639718               0.002377517               0.001737799               0.000000000               0.000000000               0.000000000               0.000000000               0.000239158               0.005991428              -0.000000000              -0.000659243               0.002216870               0.001557627               0.000000000               0.000000000               0.000000000               0.000000000               0.000063704               0.005488771              -0.000000000              -0.000662206               0.002050307               0.001388102               0.000000000               0.000000000               0.000000000               0.000000000              -0.000058887               0.004964895               0.000000000              -0.000642693               0.001869179               0.001226487               0.000000000               0.000000000               0.000000000               0.000000000              -0.000128108               0.004401341               0.000000000              -0.000598207               0.001666501               0.001068295               0.000000000               0.000000000               0.000000000               0.000000000              -0.000142857               0.003768911               0.000000000              -0.000524684               0.001431186               0.000906502               0.000000000               0.000000000               0.000000000               0.000000000              -0.000091576               0.003044859               0.000000000              -0.000414947               0.001153258               0.000738311               0.000000000               0.000000000               0.000000000               0.000000000              -0.000108948               0.002484016              -0.000000000              -0.000351357               0.000945116               0.000593759               0.000000000               0.000000000               0.000000000               0.000000000               0.002324248               0.023856087              -0.001646436              -0.002110413               0.008655421               0.006545007               0.000000000               0.000000000               0.000000000               0.000000000               0.002131844               0.018548293              -0.000789122              -0.001519091               0.006689066               0.005169975               0.000000000               0.000000000               0.000000000               0.000000000               0.002644325               0.014265692               0.000058495              -0.000791588               0.005019046               0.004227458               0.000000000               0.000000000               0.000000000               0.000000000               0.002419104               0.011829270               0.000406981              -0.000571494               0.004133548               0.003562055               0.000000000               0.000000000               0.000000000               0.000000000               0.002001279               0.010267383               0.000542389              -0.000532942               0.003600074               0.003067132               0.000000000               0.000000000               0.000000000               0.000000000               0.001568588               0.009167999               0.000587589              -0.000557778               0.003241895               0.002684117               0.000000000               0.000000000               0.000000000               0.000000000               0.001178435               0.008336605               0.000591663              -0.000600161               0.002978894               0.002378733               0.000000000               0.000000000               0.000000000               0.000000000               0.000835857               0.007666315               0.000578218              -0.000644842               0.002770360               0.002125518               0.000000000               0.000000000               0.000000000               0.000000000               0.000539347               0.007089816               0.000553962              -0.000683970               0.002591238               0.001907268               0.000000000               0.000000000               0.000000000               0.000000000               0.000301198               0.006562861               0.000521626              -0.000707407               0.002423400               0.001715994               0.000000000               0.000000000               0.000000000               0.000000000               0.000115495               0.006056846               0.000488482              -0.000713794               0.002256860               0.001543066               0.000000000               0.000000000               0.000000000               0.000000000              -0.000023808               0.005551867               0.000451478              -0.000702910               0.002084907               0.001381997               0.000000000               0.000000000               0.000000000               0.000000000              -0.000112887               0.005031719               0.000407928              -0.000671296               0.001900988               0.001229692               0.000000000               0.000000000               0.000000000               0.000000000              -0.000154671               0.004479379               0.000349092              -0.000617922               0.001699085               0.001081163               0.000000000               0.000000000               0.000000000               0.000000000              -0.000148656               0.003877905               0.000263645              -0.000540483               0.001472783               0.000932300               0.000000000               0.000000000               0.000000000               0.000000000              -0.000088682               0.003212060               0.000145862              -0.000434762               0.001215597               0.000780834               0.000000000               0.000000000               0.000000000               0.000000000              -0.000099483               0.002709395               0.000089135              -0.000375980               0.001028449               0.000652470               0.000000000               0.000000000               0.000000000               0.000000000               0.002499644               0.022392915              -0.003051468              -0.001861745               0.008084812               0.006223067               0.000000000               0.000000000               0.000000000               0.000000000               0.001955544               0.017623573              -0.001459695              -0.001469614               0.006364337               0.004894723               0.000000000               0.000000000               0.000000000               0.000000000               0.002088870               0.013888531               0.000099975              -0.000952738               0.004947043               0.003994305               0.000000000               0.000000000               0.000000000               0.000000000               0.001730983               0.011729252               0.000718840              -0.000817036               0.004182057               0.003365021               0.000000000               0.000000000               0.000000000               0.000000000               0.001298292               0.010309271               0.000950140              -0.000801798               0.003703655               0.002901857               0.000000000               0.000000000               0.000000000               0.000000000               0.000898333               0.009286573               0.001020940              -0.000823945               0.003370142               0.002546196               0.000000000               0.000000000               0.000000000               0.000000000               0.000558379               0.008497053               0.001023511              -0.000852738               0.003116569               0.002263831               0.000000000               0.000000000               0.000000000               0.000000000               0.000285031               0.007847952               0.000995104              -0.000874105               0.002907326               0.002033221               0.000000000               0.000000000               0.000000000               0.000000000               0.000070125               0.007271235               0.000947348              -0.000882606               0.002717922               0.001835317               0.000000000               0.000000000               0.000000000               0.000000000              -0.000088578               0.006732184               0.000889356              -0.000874738               0.002535618               0.001660880               0.000000000               0.000000000               0.000000000               0.000000000              -0.000195543               0.006213545               0.000830390              -0.000850020               0.002354501               0.001504481               0.000000000               0.000000000               0.000000000               0.000000000              -0.000252678               0.005703518               0.000764656              -0.000807692               0.002170384               0.001362692               0.000000000               0.000000000               0.000000000               0.000000000              -0.000265397               0.005193729               0.000684494              -0.000748739               0.001980805               0.001232067               0.000000000               0.000000000               0.000000000               0.000000000              -0.000238101               0.004680169               0.000579322              -0.000674307               0.001784810               0.001110502               0.000000000               0.000000000               0.000000000               0.000000000              -0.000179884               0.004161633               0.000433782              -0.000587659               0.001583084               0.000995424               0.000000000               0.000000000               0.000000000               0.000000000              -0.000098573               0.003640512               0.000238204              -0.000492028               0.001377501               0.000885473               0.000000000               0.000000000               0.000000000               0.000000000              -0.000091097               0.003278528               0.000142548              -0.000443976               0.001240824               0.000796847               0.000000000               0.000000000               0.000000000               0.000000000               0.002667196               0.020181947              -0.004034727              -0.001522544               0.007234762               0.005712219               0.000000000               0.000000000               0.000000000               0.000000000               0.001629402               0.016232112              -0.001933649              -0.001417986               0.005883311               0.004465326               0.000000000               0.000000000               0.000000000               0.000000000               0.001240211               0.013320000               0.000096792              -0.001199918               0.004839928               0.003640010               0.000000000               0.000000000               0.000000000               0.000000000               0.000732011               0.011554868               0.000860176              -0.001169852               0.004241535               0.003071683               0.000000000               0.000000000               0.000000000               0.000000000               0.000304944               0.010330169               0.001126658              -0.001176914               0.003835660               0.002658745               0.000000000               0.000000000               0.000000000               0.000000000              -0.000023967               0.009407692               0.001199962              -0.001184947               0.003530848               0.002345901               0.000000000               0.000000000               0.000000000               0.000000000              -0.000266561               0.008663865               0.001196265              -0.001182941               0.003282240               0.002099299               0.000000000               0.000000000               0.000000000               0.000000000              -0.000433315               0.008024198               0.001156123              -0.001165515               0.003063211               0.001897696               0.000000000               0.000000000               0.000000000               0.000000000              -0.000534594               0.007440611               0.001092016              -0.001130547               0.002857028               0.001726481               0.000000000               0.000000000               0.000000000               0.000000000              -0.000577277               0.006887895               0.001018507              -0.001077463               0.002655096               0.001577633               0.000000000               0.000000000               0.000000000               0.000000000              -0.000568406               0.006360471               0.000944965              -0.001008209               0.002456205               0.001447997               0.000000000               0.000000000               0.000000000               0.000000000              -0.000520009               0.005854230               0.000861190              -0.000926780               0.002260317               0.001333537               0.000000000               0.000000000               0.000000000               0.000000000              -0.000437994               0.005370976               0.000759342              -0.000835618               0.002068847               0.001233229               0.000000000               0.000000000               0.000000000               0.000000000              -0.000330160               0.004916327               0.000630050              -0.000738349               0.001884876               0.001146526               0.000000000               0.000000000               0.000000000               0.000000000              -0.000216967               0.004500094               0.000461167              -0.000643873               0.001714641               0.001070768               0.000000000               0.000000000               0.000000000               0.000000000              -0.000109383               0.004142248               0.000249103              -0.000558798               0.001567002               0.001008203               0.000000000               0.000000000               0.000000000               0.000000000              -0.000078443               0.003931302               0.000144255              -0.000520828               0.001484030               0.000963203               0.000000000               0.000000000               0.000000000               0.000000000               0.002668016               0.017483179              -0.004517254              -0.001184892               0.006222631               0.005037739               0.000000000               0.000000000               0.000000000               0.000000000               0.001122871               0.014566868              -0.002193979              -0.001399780               0.005322167               0.003922387               0.000000000               0.000000000               0.000000000               0.000000000               0.000200870               0.012632197               0.000013743              -0.001503695               0.004711922               0.003208227               0.000000000               0.000000000               0.000000000               0.000000000              -0.000403529               0.011293775               0.000787020              -0.001563041               0.004285568               0.002722526               0.000000000               0.000000000               0.000000000               0.000000000              -0.000770408               0.010268427               0.001038847              -0.001572453               0.003946926               0.002374473               0.000000000               0.000000000               0.000000000               0.000000000              -0.000982417               0.009439937               0.001101392              -0.001548395               0.003662746               0.002114351               0.000000000               0.000000000               0.000000000               0.000000000              -0.001090655               0.008727078               0.001094089              -0.001499877               0.003408956               0.001909079               0.000000000               0.000000000               0.000000000               0.000000000              -0.001119041               0.008090453               0.001055867              -0.001430944               0.003173772               0.001742828               0.000000000               0.000000000               0.000000000               0.000000000              -0.001085783               0.007494623               0.000992447              -0.001343993               0.002946180               0.001602187               0.000000000               0.000000000               0.000000000               0.000000000              -0.001002527               0.006932473               0.000917469              -0.001242504               0.002724969               0.001482465               0.000000000               0.000000000               0.000000000               0.000000000              -0.000879821               0.006405290               0.000840843              -0.001130592               0.002511939               0.001381347               0.000000000               0.000000000               0.000000000               0.000000000              -0.000731151               0.005916004               0.000752351              -0.001013680               0.002309875               0.001296195               0.000000000               0.000000000               0.000000000               0.000000000              -0.000566211               0.005472722               0.000643944              -0.000896417               0.002123028               0.001226611               0.000000000               0.000000000               0.000000000               0.000000000              -0.000397941               0.005082417               0.000512190              -0.000784528               0.001955631               0.001171103               0.000000000               0.000000000               0.000000000               0.000000000              -0.000243467               0.004758747               0.000357906              -0.000686142               0.001814947               0.001128805               0.000000000               0.000000000               0.000000000               0.000000000              -0.000111514               0.004526235               0.000185753              -0.000607595               0.001711262               0.001103666               0.000000000               0.000000000               0.000000000               0.000000000              -0.000062499               0.004417024               0.000102945              -0.000575563               0.001664181               0.001088617               0.000000000               0.000000000               0.000000000               0.000000000               0.002380202               0.014572399              -0.004503883              -0.000928976               0.005167075               0.004238099               0.000000000               0.000000000               0.000000000               0.000000000               0.000436627               0.012810907              -0.002269002              -0.001437626               0.004749468               0.003311842               0.000000000               0.000000000               0.000000000               0.000000000              -0.000917859               0.011882351              -0.000175671              -0.001829486               0.004570573               0.002741086               0.000000000               0.000000000               0.000000000               0.000000000              -0.001510761               0.010936576               0.000511047              -0.001933603               0.004290023               0.002356421               0.000000000               0.000000000               0.000000000               0.000000000              -0.001743551               0.010081249               0.000727096              -0.001913983               0.003998377               0.002084394               0.000000000               0.000000000               0.000000000               0.000000000              -0.001800352               0.009320170               0.000784159              -0.001840149               0.003720075               0.001879926               0.000000000               0.000000000               0.000000000               0.000000000              -0.001750071               0.008629969               0.000790682              -0.001735019               0.003454967               0.001719949               0.000000000               0.000000000               0.000000000               0.000000000              -0.001628414               0.007992958               0.000769332              -0.001609771               0.003200883               0.001591112               0.000000000               0.000000000               0.000000000               0.000000000              -0.001463720               0.007389917               0.000720041              -0.001472631               0.002954158               0.001481527               0.000000000               0.000000000               0.000000000               0.000000000              -0.001266461               0.006830279               0.000659188              -0.001328705               0.002719638               0.001390934               0.000000000               0.000000000               0.000000000               0.000000000              -0.001051101               0.006321580               0.000593953              -0.001184358               0.002501958               0.001317600               0.000000000               0.000000000               0.000000000               0.000000000              -0.000827574               0.005868085               0.000518584              -0.001043849               0.002303958               0.001260110               0.000000000               0.000000000               0.000000000               0.000000000              -0.000605578               0.005479415               0.000427967              -0.000912016               0.002130459               0.001218442               0.000000000               0.000000000               0.000000000               0.000000000              -0.000404774               0.005160025               0.000320087              -0.000796792               0.001985588               0.001188797               0.000000000               0.000000000               0.000000000               0.000000000              -0.000236919               0.004917627               0.000207771              -0.000703546               0.001873708               0.001170162               0.000000000               0.000000000               0.000000000               0.000000000              -0.000102660               0.004766498               0.000102231              -0.000634308               0.001800253               0.001165945               0.000000000               0.000000000               0.000000000               0.000000000              -0.000051259               0.004707180               0.000055226              -0.000607618               0.001771584               0.001163966               0.000000000               0.000000000               0.000000000               0.000000000               0.001726676               0.011692761              -0.004078723              -0.000814093               0.004168911               0.003354818               0.000000000               0.000000000               0.000000000               0.000000000              -0.000393614               0.011093602              -0.002218066              -0.001534303               0.004209264               0.002674961               0.000000000               0.000000000               0.000000000               0.000000000              -0.001985968               0.011090468              -0.000478464              -0.002131041               0.004407133               0.002276092               0.000000000               0.000000000               0.000000000               0.000000000              -0.002450811               0.010469186               0.000076437              -0.002227697               0.004232259               0.002004562               0.000000000               0.000000000               0.000000000               0.000000000              -0.002492939               0.009746839               0.000267068              -0.002153202               0.003966648               0.001813446               0.000000000               0.000000000               0.000000000               0.000000000              -0.002367400               0.009037811               0.000341560              -0.002017496               0.003685072               0.001667576               0.000000000               0.000000000               0.000000000               0.000000000              -0.002160155               0.008364134               0.000378881              -0.001855570               0.003406540               0.001550970               0.000000000               0.000000000               0.000000000               0.000000000              -0.001903316               0.007731410               0.000390316              -0.001680166               0.003137166               0.001457000               0.000000000               0.000000000               0.000000000               0.000000000              -0.001619755               0.007142734               0.000371147              -0.001500246               0.002880969               0.001380723               0.000000000               0.000000000               0.000000000               0.000000000              -0.001326529               0.006609585               0.000341521              -0.001323643               0.002644387               0.001320744               0.000000000               0.000000000               0.000000000               0.000000000              -0.001039503               0.006143535               0.000308342              -0.001157753               0.002433742               0.001275990               0.000000000               0.000000000               0.000000000               0.000000000              -0.000771034               0.005746346               0.000266050              -0.001007428               0.002251239               0.001243810               0.000000000               0.000000000               0.000000000               0.000000000              -0.000528729               0.005421384               0.000212736              -0.000875944               0.002099091               0.001223147               0.000000000               0.000000000               0.000000000               0.000000000              -0.000328127               0.005173659               0.000146578              -0.000769753               0.001981120               0.001211367               0.000000000               0.000000000               0.000000000               0.000000000              -0.000176205               0.005005918               0.000082903              -0.000691815               0.001899228               0.001207413               0.000000000               0.000000000               0.000000000               0.000000000              -0.000070397               0.004912055               0.000036444              -0.000640404               0.001850803               0.001210399               0.000000000               0.000000000               0.000000000               0.000000000              -0.000032453               0.004879587               0.000019745              -0.000622117               0.001833885               0.001211768               0.000000000               0.000000000               0.000000000               0.000000000               0.000739487               0.009020681              -0.003360037              -0.000850278               0.003290288               0.002440010               0.000000000               0.000000000               0.000000000               0.000000000              -0.001320039               0.009511149              -0.002098322              -0.001683905               0.003731653               0.002047747               0.000000000               0.000000000               0.000000000               0.000000000              -0.002898301               0.010258987              -0.000881124              -0.002369230               0.004209372               0.001840141               0.000000000               0.000000000               0.000000000               0.000000000              -0.003130705               0.009884594              -0.000446234              -0.002409583               0.004098026               0.001688443               0.000000000               0.000000000               0.000000000               0.000000000              -0.002959889               0.009271218              -0.000246440              -0.002268855               0.003846660               0.001577805               0.000000000               0.000000000               0.000000000               0.000000000              -0.002662536               0.008615203              -0.000133506              -0.002075346               0.003563487               0.001488141               0.000000000               0.000000000               0.000000000               0.000000000              -0.002314507               0.007973834              -0.000052359              -0.001864665               0.003279473               0.001414808               0.000000000               0.000000000               0.000000000               0.000000000              -0.001942453               0.007367446               0.000005212              -0.001649346               0.003005573               0.001356227               0.000000000               0.000000000               0.000000000               0.000000000              -0.001560772               0.006811311               0.000032476              -0.001436700               0.002749314               0.001312614               0.000000000               0.000000000               0.000000000               0.000000000              -0.001192625               0.006326607               0.000049517              -0.001238057               0.002521533               0.001283476               0.000000000               0.000000000               0.000000000               0.000000000              -0.000859375               0.005917485               0.000062298              -0.001061949               0.002326458               0.001264509               0.000000000               0.000000000               0.000000000               0.000000000              -0.000577699               0.005580802               0.000062153              -0.000914235               0.002164994               0.001250759               0.000000000               0.000000000               0.000000000               0.000000000              -0.000353857               0.005318262               0.000050792              -0.000797477               0.002038562               0.001241085               0.000000000               0.000000000               0.000000000               0.000000000              -0.000189433               0.005134787               0.000031304              -0.000712884               0.001949206               0.001236323               0.000000000               0.000000000               0.000000000               0.000000000              -0.000080676               0.005027975               0.000010999              -0.000658749               0.001895558               0.001236809               0.000000000               0.000000000               0.000000000               0.000000000              -0.000023299               0.004977768               0.000001482              -0.000630956               0.001869558               0.001238602               0.000000000               0.000000000               0.000000000               0.000000000              -0.000008963               0.004962406               0.000001258              -0.000623660               0.001862006               0.001238345               0.000000000               0.000000000               0.000000000               0.000000000              -0.000437170               0.006755602              -0.002470222              -0.001008388               0.002587973               0.001579585               0.000000000               0.000000000               0.000000000               0.000000000              -0.002224238               0.008093756              -0.001958539              -0.001845805               0.003313159               0.001467354               0.000000000               0.000000000               0.000000000               0.000000000              -0.003608021               0.009426405              -0.001358561              -0.002531302               0.003985871               0.001454569               0.000000000               0.000000000               0.000000000               0.000000000              -0.003591639               0.009307874              -0.000998750              -0.002510343               0.003939375               0.001429032               0.000000000               0.000000000               0.000000000               0.000000000              -0.003241293               0.008831116              -0.000764241              -0.002319369               0.003716799               0.001397430               0.000000000               0.000000000               0.000000000               0.000000000              -0.002807465               0.008260759              -0.000598920              -0.002085389               0.003448689               0.001363299               0.000000000               0.000000000               0.000000000               0.000000000              -0.002350326               0.007683322              -0.000470339              -0.001841783               0.003175009               0.001333226               0.000000000               0.000000000               0.000000000               0.000000000              -0.001888210               0.007127044              -0.000366655              -0.001598955               0.002908643               0.001309687               0.000000000               0.000000000               0.000000000               0.000000000              -0.001432770               0.006616831              -0.000285306              -0.001364389               0.002660385               0.001295995               0.000000000               0.000000000               0.000000000               0.000000000              -0.001008934               0.006179058              -0.000213529              -0.001150730               0.002443242               0.001292512               0.000000000               0.000000000               0.000000000               0.000000000              -0.000648559               0.005809756              -0.000149653              -0.000969427               0.002259708               0.001290281               0.000000000               0.000000000               0.000000000               0.000000000              -0.000368580               0.005503840              -0.000099744              -0.000826195               0.002109993               0.001283798               0.000000000               0.000000000               0.000000000               0.000000000              -0.000172855               0.005269744              -0.000062331              -0.000723537               0.001997743               0.001274206               0.000000000               0.000000000               0.000000000               0.000000000              -0.000050504               0.005113644              -0.000035229              -0.000658143               0.001923912               0.001265769               0.000000000               0.000000000               0.000000000               0.000000000               0.000010425               0.005028566              -0.000016298              -0.000624660               0.001884392               0.001259732               0.000000000               0.000000000               0.000000000               0.000000000               0.000023965               0.004996516              -0.000004771              -0.000615576               0.001870681               0.001255105               0.000000000               0.000000000               0.000000000               0.000000000               0.000018851               0.004987688               0.000000293              -0.000616390               0.001868009               0.001251619               0.000000000               0.000000000               0.000000000               0.000000000              -0.001825389               0.004656217              -0.001524010              -0.001266546               0.001974238               0.000707693               0.000000000               0.000000000               0.000000000               0.000000000              -0.002985086               0.006461467              -0.001799595              -0.001927086               0.002796162               0.000869076               0.000000000               0.000000000               0.000000000               0.000000000              -0.004029322               0.008213614              -0.001857544              -0.002537692               0.003583741               0.001046049               0.000000000               0.000000000               0.000000000               0.000000000              -0.003874571               0.008478082              -0.001584752              -0.002512718               0.003663572               0.001150853               0.000000000               0.000000000               0.000000000               0.000000000              -0.003443672               0.008268329              -0.001319392              -0.002324913               0.003531053               0.001206140               0.000000000               0.000000000               0.000000000               0.000000000              -0.002959862               0.007890742              -0.001099705              -0.002096286               0.003328983               0.001232697               0.000000000               0.000000000               0.000000000               0.000000000              -0.002469313               0.007462811              -0.000926028              -0.001858839               0.003107192               0.001248353               0.000000000               0.000000000               0.000000000               0.000000000              -0.001983844               0.007035125              -0.000779899              -0.001623328               0.002886127               0.001262799               0.000000000               0.000000000               0.000000000               0.000000000              -0.001510529               0.006625069              -0.000648751              -0.001394579               0.002673194               0.001278615               0.000000000               0.000000000               0.000000000               0.000000000              -0.001067263               0.006248694              -0.000525031              -0.001181308               0.002476646               0.001295339               0.000000000               0.000000000               0.000000000               0.000000000              -0.000679551               0.005916223              -0.000408954              -0.000994357               0.002303507               0.001309150               0.000000000               0.000000000               0.000000000               0.000000000              -0.000369624               0.005623813              -0.000301236              -0.000841583               0.002155113               0.001313530               0.000000000               0.000000000               0.000000000               0.000000000              -0.000148945               0.005381979              -0.000203994              -0.000728600               0.002036842               0.001308242               0.000000000               0.000000000               0.000000000               0.000000000              -0.000012190               0.005197743              -0.000124137              -0.000654287               0.001950659               0.001296372               0.000000000               0.000000000               0.000000000               0.000000000               0.000058595               0.005080214              -0.000060215              -0.000613052               0.001897738               0.001284686               0.000000000               0.000000000               0.000000000               0.000000000               0.000076327               0.005021871              -0.000017041              -0.000599110               0.001873643               0.001274534               0.000000000               0.000000000               0.000000000               0.000000000               0.000068190               0.004998754              -0.000001302              -0.000599272               0.001865992               0.001266720               0.000000000               0.000000000               0.000000000               0.000000000              -0.003609678               0.002754391              -0.000594360              -0.001697925               0.001484095              -0.000213830               0.000000000               0.000000000               0.000000000               0.000000000              -0.003847538               0.004814596              -0.001566139              -0.002044647               0.002286397               0.000241751               0.000000000               0.000000000               0.000000000               0.000000000              -0.004359201               0.006789024              -0.002251479              -0.002483323               0.003090759               0.000607436               0.000000000               0.000000000               0.000000000               0.000000000              -0.004073398               0.007423981              -0.002142281              -0.002455516               0.003293140               0.000837624               0.000000000               0.000000000               0.000000000               0.000000000              -0.003592810               0.007524285              -0.001887488              -0.002287834               0.003270681               0.000982847               0.000000000               0.000000000               0.000000000               0.000000000              -0.003081750               0.007388915              -0.001636195              -0.002079266               0.003156035               0.001076769               0.000000000               0.000000000               0.000000000               0.000000000              -0.002576410               0.007157433              -0.001422197              -0.001860829               0.003006063               0.001145234               0.000000000               0.000000000               0.000000000               0.000000000              -0.002085822               0.006883568              -0.001238361              -0.001642625               0.002842041               0.001199416               0.000000000               0.000000000               0.000000000               0.000000000              -0.001612996               0.006592087              -0.001070412              -0.001428881               0.002673634               0.001244753               0.000000000               0.000000000               0.000000000               0.000000000              -0.001161112               0.006298390              -0.000907894              -0.001222713               0.002507013               0.001284300               0.000000000               0.000000000               0.000000000               0.000000000              -0.000745681               0.006017747              -0.000749371              -0.001031846               0.002349844               0.001317998               0.000000000               0.000000000               0.000000000               0.000000000              -0.000391052               0.005753777              -0.000589570              -0.000865864               0.002206528               0.001340663               0.000000000               0.000000000               0.000000000               0.000000000              -0.000113528               0.005515767              -0.000434061              -0.000732042               0.002082584               0.001350542               0.000000000               0.000000000               0.000000000               0.000000000               0.000074837               0.005311284              -0.000293280              -0.000635845               0.001982359               0.001346514               0.000000000               0.000000000               0.000000000               0.000000000               0.000178457               0.005155714              -0.000167969              -0.000577542               0.001911068               0.001333526               0.000000000               0.000000000               0.000000000               0.000000000               0.000209737               0.005055500              -0.000066722              -0.000553285               0.001869578               0.001316293               0.000000000               0.000000000               0.000000000               0.000000000               0.000198498               0.005013484              -0.000022457              -0.000552247               0.001855227               0.001302980               0.000000000               0.000000000               0.000000000               0.000000000              -0.005653238               0.001195636               0.000231933              -0.002269416               0.001155010              -0.001114406               0.000000000               0.000000000               0.000000000               0.000000000              -0.004857665               0.003253746              -0.001241762              -0.002228338               0.001827349              -0.000400990               0.000000000               0.000000000               0.000000000               0.000000000              -0.004629541               0.005174854              -0.002422503              -0.002382930               0.002519243               0.000136313               0.000000000               0.000000000               0.000000000               0.000000000              -0.004129806               0.006072195              -0.002521022              -0.002307697               0.002793276               0.000485579               0.000000000               0.000000000               0.000000000               0.000000000              -0.003583415               0.006455967              -0.002333917              -0.002150772               0.002868891               0.000718119               0.000000000               0.000000000               0.000000000               0.000000000              -0.003046967               0.006578162              -0.002091938              -0.001964879               0.002847658               0.000882779               0.000000000               0.000000000               0.000000000               0.000000000              -0.002539287               0.006563508              -0.001862354              -0.001772667               0.002778703               0.001006035               0.000000000               0.000000000               0.000000000               0.000000000              -0.002050698               0.006472697              -0.001655975              -0.001578095               0.002683576               0.001105480               0.000000000               0.000000000               0.000000000               0.000000000              -0.001583880               0.006331662              -0.001464589              -0.001385410               0.002572336               0.001186926               0.000000000               0.000000000               0.000000000               0.000000000              -0.001135344               0.006154441              -0.001282325              -0.001195057               0.002449812               0.001254755               0.000000000               0.000000000               0.000000000               0.000000000              -0.000709716               0.005956795              -0.001100721              -0.001010741               0.002322492               0.001311751               0.000000000               0.000000000               0.000000000               0.000000000              -0.000323074               0.005751092              -0.000913144              -0.000840037               0.002197024               0.001356986               0.000000000               0.000000000               0.000000000               0.000000000               0.000010520               0.005548785              -0.000720389              -0.000689652               0.002079460               0.001389808               0.000000000               0.000000000               0.000000000               0.000000000               0.000267093               0.005358748              -0.000526089              -0.000569682               0.001976125               0.001406443               0.000000000               0.000000000               0.000000000               0.000000000               0.000427430               0.005196227              -0.000334677              -0.000489241               0.001895139               0.001405898               0.000000000               0.000000000               0.000000000               0.000000000               0.000490492               0.005078732              -0.000156734              -0.000450906               0.001843196               0.001392290               0.000000000               0.000000000               0.000000000               0.000000000               0.000483662               0.005025376              -0.000069268              -0.000446797               0.001824041               0.001377244               0.000000000               0.000000000               0.000000000               0.000000000              -0.007811231               0.000073099               0.000838243              -0.002938347               0.001003808              -0.001934538               0.000000000               0.000000000               0.000000000               0.000000000              -0.005955571               0.001879874              -0.000877474              -0.002468320               0.001449388              -0.001018932               0.000000000               0.000000000               0.000000000               0.000000000              -0.004868890               0.003522224              -0.002343286              -0.002266108               0.001929430              -0.000336678               0.000000000               0.000000000               0.000000000               0.000000000              -0.004072427               0.004540551              -0.002626982              -0.002094725               0.002211742               0.000117017               0.000000000               0.000000000               0.000000000               0.000000000              -0.003425442               0.005147586              -0.002541349              -0.001927985               0.002358506               0.000430520               0.000000000               0.000000000               0.000000000               0.000000000              -0.002858462               0.005506490              -0.002347655              -0.001760231               0.002422221               0.000661990               0.000000000               0.000000000               0.000000000               0.000000000              -0.002347995               0.005707387              -0.002134746              -0.001593919               0.002433749               0.000839830               0.000000000               0.000000000               0.000000000               0.000000000              -0.001876478               0.005803052              -0.001930109              -0.001429058               0.002410683               0.000981626               0.000000000               0.000000000               0.000000000               0.000000000              -0.001422686               0.005824063              -0.001737601              -0.001261513               0.002361839               0.001100326               0.000000000               0.000000000               0.000000000               0.000000000              -0.000979754               0.005788167              -0.001555822              -0.001090926               0.002293011               0.001202085               0.000000000               0.000000000               0.000000000               0.000000000              -0.000547628               0.005709896              -0.001373264              -0.000919096               0.002209645               0.001290549               0.000000000               0.000000000               0.000000000               0.000000000              -0.000135291               0.005597794              -0.001184398              -0.000750457               0.002116065               0.001365608               0.000000000               0.000000000               0.000000000               0.000000000               0.000247831               0.005464953              -0.000983478              -0.000590181               0.002018360               0.001428178               0.000000000               0.000000000               0.000000000               0.000000000               0.000581427               0.005330618              -0.000760901              -0.000448291               0.001926285               0.001477994               0.000000000               0.000000000               0.000000000               0.000000000               0.000836106               0.005203315              -0.000518167              -0.000336874               0.001846712               0.001509838               0.000000000               0.000000000               0.000000000               0.000000000               0.000985020               0.005094250              -0.000262485              -0.000267398               0.001787199               0.001519801               0.000000000               0.000000000               0.000000000               0.000000000               0.001023898               0.005042091              -0.000131112              -0.000246299               0.001762780               0.001516481               0.000000000               0.000000000               0.000000000               0.000000000              -0.009885698              -0.000628495               0.001118638              -0.003628572               0.001000019              -0.002628554               0.000000000               0.000000000               0.000000000               0.000000000              -0.007044114               0.000774683              -0.000536694              -0.002738375               0.001171011              -0.001567364               0.000000000               0.000000000               0.000000000               0.000000000              -0.005087744               0.001991145              -0.002014217              -0.002156794               0.001382636              -0.000774158               0.000000000               0.000000000               0.000000000               0.000000000              -0.003948471               0.003006208              -0.002400647              -0.001856449               0.001620874              -0.000235576               0.000000000               0.000000000               0.000000000               0.000000000              -0.003165004               0.003760930              -0.002407812              -0.001656990               0.001805959               0.000148970               0.000000000               0.000000000               0.000000000               0.000000000              -0.002554278               0.004300719              -0.002282952              -0.001495441               0.001932038               0.000436597               0.000000000               0.000000000               0.000000000               0.000000000              -0.002038122               0.004679649              -0.002115742              -0.001349250               0.002009617               0.000660367               0.000000000               0.000000000               0.000000000               0.000000000              -0.001577533               0.004945551              -0.001942132              -0.001209767               0.002051755               0.000841989               0.000000000               0.000000000               0.000000000               0.000000000              -0.001140310               0.005128784              -0.001775951              -0.001068712               0.002065814               0.000997102               0.000000000               0.000000000               0.000000000               0.000000000              -0.000708766               0.005246095              -0.001617653              -0.000921548               0.002055863               0.001134315               0.000000000               0.000000000               0.000000000               0.000000000              -0.000274814               0.005305983              -0.001458522              -0.000766302               0.002024077               0.001257775               0.000000000               0.000000000               0.000000000               0.000000000               0.000158999               0.005312663              -0.001292799              -0.000604458               0.001972356               0.001367898               0.000000000               0.000000000               0.000000000               0.000000000               0.000583895               0.005282012              -0.001110394              -0.000441290               0.001907750               0.001466459               0.000000000               0.000000000               0.000000000               0.000000000               0.000993856               0.005231747              -0.000897091              -0.000281272               0.001837656               0.001556383               0.000000000               0.000000000               0.000000000               0.000000000               0.001374122               0.005166341              -0.000645553              -0.000130497               0.001765595               0.001635099               0.000000000               0.000000000               0.000000000               0.000000000               0.001690011               0.005087803              -0.000344814              -0.000002222               0.001696658               0.001694436               0.000000000               0.000000000               0.000000000               0.000000000               0.001858107               0.005056527              -0.000186863               0.000064723               0.001663918               0.001728641               0.000000000               0.000000000               0.000000000               0.000000000              -0.011631869              -0.001003152               0.001024280              -0.004236554               0.001077793              -0.003158761               0.000000000               0.000000000               0.000000000               0.000000000              -0.007989992              -0.000020987              -0.000273854              -0.002993621               0.000990871              -0.002002750               0.000000000               0.000000000               0.000000000               0.000000000              -0.005279782               0.000753161              -0.001468510              -0.002074061               0.000942400              -0.001131661               0.000000000               0.000000000               0.000000000               0.000000000              -0.003808465               0.001687283              -0.001837169              -0.001639082               0.001108780              -0.000530302               0.000000000               0.000000000               0.000000000               0.000000000              -0.002879293               0.002507726              -0.001895201              -0.001393198               0.001300298              -0.000092900               0.000000000               0.000000000               0.000000000               0.000000000              -0.002217757               0.003167678              -0.001831634              -0.001227617               0.001465087               0.000237470               0.000000000               0.000000000               0.000000000               0.000000000              -0.001689426               0.003679285              -0.001723787              -0.001093443               0.001590897               0.000497453               0.000000000               0.000000000               0.000000000               0.000000000              -0.001227636               0.004076355              -0.001604599              -0.000969906               0.001682073               0.000712167               0.000000000               0.000000000               0.000000000               0.000000000              -0.000798918               0.004391966              -0.001486527              -0.000848589               0.001746836               0.000898248               0.000000000               0.000000000               0.000000000               0.000000000              -0.000378579               0.004641814              -0.001373347              -0.000722193               0.001787986               0.001065794               0.000000000               0.000000000               0.000000000               0.000000000               0.000052704               0.004830706              -0.001259168              -0.000584073               0.001804910               0.001220837               0.000000000               0.000000000               0.000000000               0.000000000               0.000498932               0.004958750              -0.001133502              -0.000432744               0.001797148               0.001364404               0.000000000               0.000000000               0.000000000               0.000000000               0.000964071               0.005042948              -0.000990177              -0.000268842               0.001770580               0.001501738               0.000000000               0.000000000               0.000000000               0.000000000               0.001457000               0.005092452              -0.000824147              -0.000090182               0.001727527               0.001637346               0.000000000               0.000000000               0.000000000               0.000000000               0.001976777               0.005100423              -0.000618797               0.000103737               0.001665545               0.001769282               0.000000000               0.000000000               0.000000000               0.000000000               0.002511965               0.005064642              -0.000345135               0.000308903               0.001585229               0.001894133               0.000000000               0.000000000               0.000000000               0.000000000               0.002881957               0.005072056              -0.000200927               0.000446722               0.001541761               0.001988483               0.000000000               0.000000000               0.000000000               0.000000000              -0.012801206              -0.001166646               0.000603989              -0.004654619               0.001162650              -0.003491969               0.000000000               0.000000000               0.000000000               0.000000000              -0.008641998              -0.000496809              -0.000106837              -0.003178646               0.000893940              -0.002284706               0.000000000               0.000000000               0.000000000               0.000000000              -0.005417907              -0.000051805              -0.000772280              -0.002025238               0.000657806              -0.001367432               0.000000000               0.000000000               0.000000000               0.000000000              -0.003701131               0.000794204              -0.000996727              -0.001487198               0.000760462              -0.000726736               0.000000000               0.000000000               0.000000000               0.000000000              -0.002660762               0.001630934              -0.001046067              -0.001201650               0.000944188              -0.000257462               0.000000000               0.000000000               0.000000000               0.000000000              -0.001952752               0.002351151              -0.001023027              -0.001026174               0.001125767               0.000099593               0.000000000               0.000000000               0.000000000               0.000000000              -0.001409358               0.002942808              -0.000973734              -0.000896358               0.001279712               0.000383354               0.000000000               0.000000000               0.000000000               0.000000000              -0.000945434               0.003426549              -0.000915271              -0.000782855               0.001403123               0.000620268               0.000000000               0.000000000               0.000000000               0.000000000              -0.000517096               0.003824951              -0.000855026              -0.000672029               0.001498980               0.000826952               0.000000000               0.000000000               0.000000000               0.000000000              -0.000097678               0.004158400              -0.000798845              -0.000556428               0.001571595               0.001015167               0.000000000               0.000000000               0.000000000               0.000000000               0.000331770               0.004436106              -0.000740618              -0.000430099               0.001622053               0.001191954               0.000000000               0.000000000               0.000000000               0.000000000               0.000786516               0.004650876              -0.000671631              -0.000286416               0.001645748               0.001359333               0.000000000               0.000000000               0.000000000               0.000000000               0.001288980               0.004817880              -0.000592556              -0.000118868               0.001645566               0.001526699               0.000000000               0.000000000               0.000000000               0.000000000               0.001853538               0.004942478              -0.000500611               0.000077266               0.001621721               0.001698987               0.000000000               0.000000000               0.000000000               0.000000000               0.002488550               0.005013978              -0.000384417               0.000306456               0.001569157               0.001875613               0.000000000               0.000000000               0.000000000               0.000000000               0.003212354               0.005025992              -0.000220069               0.000576378               0.001483188               0.002059566               0.000000000               0.000000000               0.000000000               0.000000000               0.003767951               0.005075291              -0.000133453               0.000778563               0.001432226               0.002210789               0.000000000               0.000000000               0.000000000               0.000000000              -0.013212408              -0.001208551               0.000000000              -0.004803581               0.001198336              -0.003605246               0.000000000               0.000000000               0.000000000               0.000000000              -0.008875275              -0.000655035               0.000000000              -0.003246347               0.000863765              -0.002382582               0.000000000               0.000000000               0.000000000               0.000000000              -0.005468852              -0.000333126              -0.000000000              -0.002009177               0.000558680              -0.001450498               0.000000000               0.000000000               0.000000000               0.000000000              -0.003662724               0.000477664              -0.000000000              -0.001433228               0.000636959              -0.000796269               0.000000000               0.000000000               0.000000000               0.000000000              -0.002581672               0.001314772              -0.000000000              -0.001132472               0.000815742              -0.000316729               0.000000000               0.000000000               0.000000000               0.000000000              -0.001849396               0.002050966               0.000000000              -0.000949892               0.001000279               0.000050387               0.000000000               0.000000000               0.000000000               0.000000000              -0.001298676               0.002670928              -0.000000000              -0.000820868               0.001163923               0.000343055               0.000000000               0.000000000               0.000000000               0.000000000              -0.000836694               0.003186548              -0.000000000              -0.000712077               0.001299531               0.000587454               0.000000000               0.000000000               0.000000000               0.000000000              -0.000408180               0.003613025              -0.000000000              -0.000604694               0.001405894               0.000801200               0.000000000               0.000000000               0.000000000               0.000000000               0.000015080               0.003974426               0.000000000              -0.000491147               0.001488511               0.000997364               0.000000000               0.000000000               0.000000000               0.000000000               0.000445394               0.004282134               0.000000000              -0.000368243               0.001550111               0.001181868               0.000000000               0.000000000               0.000000000               0.000000000               0.000906365               0.004525862               0.000000000              -0.000225845               0.001583887               0.001358042               0.000000000               0.000000000               0.000000000               0.000000000               0.001423854               0.004719577              -0.000000000              -0.000056002               0.001591844               0.001535842               0.000000000               0.000000000               0.000000000               0.000000000               0.002014804               0.004871159              -0.000000000               0.000146655               0.001574818               0.001721474               0.000000000               0.000000000               0.000000000               0.000000000               0.002694121               0.004970175               0.000000000               0.000389020               0.001527035               0.001916055               0.000000000               0.000000000               0.000000000               0.000000000               0.003490493               0.005006981               0.000000000               0.000683055               0.001441292               0.002124347               0.000000000               0.000000000               0.000000000               0.000000000               0.004119692               0.005076114              -0.000000000               0.000910361               0.001388567               0.002298929               0.000000000               0.000000000               0.000000000               0.000000000               0.000000000               0.000000000               0.000000000               0.000000000               0.000000000               0.000000000               0.000000000               0.000000000               0.000000000               0.000000000               0.000000000               0.000000000               0.000000000               0.000000000               0.000000000               0.000000000               0.000000000               0.000000000               0.000000000               0.000000000               0.000000000               0.000000000               0.000000000               0.000000000               0.000000000               0.000000000               0.000000000               0.000000000               0.000000000               0.000000000               0.000000000               0.000000000               0.000000000               0.000000000               0.000000000               0.000000000               0.000000000               0.000000000               0.000000000               0.000000000               0.000000000               0.000000000               0.000000000               0.000000000               0.000000000               0.000000000               0.000000000               0.000000000               0.000000000               0.000000000               0.000000000               0.000000000               0.000000000               0.000000000               0.000000000               0.000000000               0.000000000               0.000000000               0.000000000               0.000000000               0.000000000               0.000000000               0.000000000               0.000000000               0.000000000               0.000000000               0.000000000               0.000000000               0.000000000               0.000000000               0.000000000               0.000000000               0.000000000               0.000000000               0.000000000               0.000000000               0.000000000               0.000000000               0.000000000               0.000000000               0.000000000               0.000000000               0.000000000               0.000000000               0.000000000               0.000000000               0.000000000               0.000000000               0.000000000               0.000000000               0.000000000               0.000000000               0.000000000               0.000000000               0.000000000               0.000000000               0.000000000               0.000000000               0.000000000               0.000000000               0.000000000               0.000000000               0.000000000               0.000000000               0.000000000               0.000000000               0.000000000               0.000000000               0.000000000               0.000000000               0.000000000               0.000000000               0.000000000               0.000000000               0.000000000               0.000000000               0.000000000               0.000000000               0.000000000               0.000000000               0.000000000               0.000000000               0.000000000               0.000000000               0.000000000               0.000000000               0.000000000               0.000000000               0.000000000               0.000000000               0.000000000               0.000000000               0.000000000               0.000000000               0.000000000               0.000000000               0.000000000               0.000000000               0.000000000               0.000000000               0.000000000               0.000000000               0.000000000               0.000000000               0.000000000               0.000000000               0.000000000               0.000000000               0.000000000               0.000000000               0.000000000               0.000000000               0.000000000               0.000000000               0.000000000               0.000000000               0.000000000               0.000000000               0.000000000               0.000000000               0.000000000               0.000000000               0.000000000               0.000000000               0.000000000               0.000000000               0.000000000               0.000000000               0.000000000               0.000000000               0.002324248               0.023856087               0.001646436              -0.002110413               0.008655421               0.006545007               0.000000000               0.000000000               0.000000000               0.000000000               0.002131844               0.018548293               0.000789122              -0.001519091               0.006689066               0.005169975               0.000000000               0.000000000               0.000000000               0.000000000               0.002644325               0.014265692              -0.000058495              -0.000791588               0.005019046               0.004227458               0.000000000               0.000000000               0.000000000               0.000000000               0.002419104               0.011829270              -0.000406981              -0.000571494               0.004133548               0.003562055               0.000000000               0.000000000               0.000000000               0.000000000               0.002001279               0.010267383              -0.000542389              -0.000532942               0.003600074               0.003067132               0.000000000               0.000000000               0.000000000               0.000000000               0.001568588               0.009167999              -0.000587589              -0.000557778               0.003241895               0.002684117               0.000000000               0.000000000               0.000000000               0.000000000               0.001178435               0.008336605              -0.000591663              -0.000600161               0.002978894               0.002378733               0.000000000               0.000000000               0.000000000               0.000000000               0.000835857               0.007666315              -0.000578218              -0.000644842               0.002770360               0.002125518               0.000000000               0.000000000               0.000000000               0.000000000               0.000539347               0.007089816              -0.000553962              -0.000683970               0.002591238               0.001907268               0.000000000               0.000000000               0.000000000               0.000000000               0.000301198               0.006562861              -0.000521626              -0.000707407               0.002423400               0.001715994               0.000000000               0.000000000               0.000000000               0.000000000               0.000115495               0.006056846              -0.000488482              -0.000713794               0.002256860               0.001543066               0.000000000               0.000000000               0.000000000               0.000000000              -0.000023808               0.005551867              -0.000451478              -0.000702910               0.002084907               0.001381997               0.000000000               0.000000000               0.000000000               0.000000000              -0.000112887               0.005031719              -0.000407928              -0.000671296               0.001900988               0.001229692               0.000000000               0.000000000               0.000000000               0.000000000              -0.000154671               0.004479379              -0.000349092              -0.000617922               0.001699085               0.001081163               0.000000000               0.000000000               0.000000000               0.000000000              -0.000148656               0.003877905              -0.000263645              -0.000540483               0.001472783               0.000932300               0.000000000               0.000000000               0.000000000               0.000000000              -0.000088682               0.003212060              -0.000145862              -0.000434762               0.001215597               0.000780834               0.000000000               0.000000000               0.000000000               0.000000000              -0.000099483               0.002709395              -0.000089135              -0.000375980               0.001028449               0.000652470               0.000000000               0.000000000               0.000000000               0.000000000               0.002499644               0.022392915               0.003051468              -0.001861745               0.008084812               0.006223067               0.000000000               0.000000000               0.000000000               0.000000000               0.001955544               0.017623573               0.001459695              -0.001469614               0.006364337               0.004894723               0.000000000               0.000000000               0.000000000               0.000000000               0.002088870               0.013888531              -0.000099975              -0.000952738               0.004947043               0.003994305               0.000000000               0.000000000               0.000000000               0.000000000               0.001730983               0.011729252              -0.000718840              -0.000817036               0.004182057               0.003365021               0.000000000               0.000000000               0.000000000               0.000000000               0.001298292               0.010309271              -0.000950140              -0.000801798               0.003703655               0.002901857               0.000000000               0.000000000               0.000000000               0.000000000               0.000898333               0.009286573              -0.001020940              -0.000823945               0.003370142               0.002546196               0.000000000               0.000000000               0.000000000               0.000000000               0.000558379               0.008497053              -0.001023511              -0.000852738               0.003116569               0.002263831               0.000000000               0.000000000               0.000000000               0.000000000               0.000285031               0.007847952              -0.000995104              -0.000874105               0.002907326               0.002033221               0.000000000               0.000000000               0.000000000               0.000000000               0.000070125               0.007271235              -0.000947348              -0.000882606               0.002717922               0.001835317               0.000000000               0.000000000               0.000000000               0.000000000              -0.000088578               0.006732184              -0.000889356              -0.000874738               0.002535618               0.001660880               0.000000000               0.000000000               0.000000000               0.000000000              -0.000195543               0.006213545              -0.000830390              -0.000850020               0.002354501               0.001504481               0.000000000               0.000000000               0.000000000               0.000000000              -0.000252678               0.005703518              -0.000764656              -0.000807692               0.002170384               0.001362692               0.000000000               0.000000000               0.000000000               0.000000000              -0.000265397               0.005193729              -0.000684494              -0.000748739               0.001980805               0.001232067               0.000000000               0.000000000               0.000000000               0.000000000              -0.000238101               0.004680169              -0.000579322              -0.000674307               0.001784810               0.001110502               0.000000000               0.000000000               0.000000000               0.000000000              -0.000179884               0.004161633              -0.000433782              -0.000587659               0.001583084               0.000995424               0.000000000               0.000000000               0.000000000               0.000000000              -0.000098573               0.003640512              -0.000238204              -0.000492028               0.001377501               0.000885473               0.000000000               0.000000000               0.000000000               0.000000000              -0.000091097               0.003278528              -0.000142548              -0.000443976               0.001240824               0.000796847               0.000000000               0.000000000               0.000000000               0.000000000               0.002667196               0.020181947               0.004034727              -0.001522544               0.007234762               0.005712219               0.000000000               0.000000000               0.000000000               0.000000000               0.001629402               0.016232112               0.001933649              -0.001417986               0.005883311               0.004465326               0.000000000               0.000000000               0.000000000               0.000000000               0.001240211               0.013320000              -0.000096792              -0.001199918               0.004839928               0.003640010               0.000000000               0.000000000               0.000000000               0.000000000               0.000732011               0.011554868              -0.000860176              -0.001169852               0.004241535               0.003071683               0.000000000               0.000000000               0.000000000               0.000000000               0.000304944               0.010330169              -0.001126658              -0.001176914               0.003835660               0.002658745               0.000000000               0.000000000               0.000000000               0.000000000              -0.000023967               0.009407692              -0.001199962              -0.001184947               0.003530848               0.002345901               0.000000000               0.000000000               0.000000000               0.000000000              -0.000266561               0.008663865              -0.001196265              -0.001182941               0.003282240               0.002099299               0.000000000               0.000000000               0.000000000               0.000000000              -0.000433315               0.008024198              -0.001156123              -0.001165515               0.003063211               0.001897696               0.000000000               0.000000000               0.000000000               0.000000000              -0.000534594               0.007440611              -0.001092016              -0.001130547               0.002857028               0.001726481               0.000000000               0.000000000               0.000000000               0.000000000              -0.000577277               0.006887895              -0.001018507              -0.001077463               0.002655096               0.001577633               0.000000000               0.000000000               0.000000000               0.000000000              -0.000568406               0.006360471              -0.000944965              -0.001008209               0.002456205               0.001447997               0.000000000               0.000000000               0.000000000               0.000000000              -0.000520009               0.005854230              -0.000861190              -0.000926780               0.002260317               0.001333537               0.000000000               0.000000000               0.000000000               0.000000000              -0.000437994               0.005370976              -0.000759342              -0.000835618               0.002068847               0.001233229               0.000000000               0.000000000               0.000000000               0.000000000              -0.000330160               0.004916327              -0.000630050              -0.000738349               0.001884876               0.001146526               0.000000000               0.000000000               0.000000000               0.000000000              -0.000216967               0.004500094              -0.000461167              -0.000643873               0.001714641               0.001070768               0.000000000               0.000000000               0.000000000               0.000000000              -0.000109383               0.004142248              -0.000249103              -0.000558798               0.001567002               0.001008203               0.000000000               0.000000000               0.000000000               0.000000000              -0.000078443               0.003931302              -0.000144255              -0.000520828               0.001484030               0.000963203               0.000000000               0.000000000               0.000000000               0.000000000               0.002668016               0.017483179               0.004517254              -0.001184892               0.006222631               0.005037739               0.000000000               0.000000000               0.000000000               0.000000000               0.001122871               0.014566868               0.002193979              -0.001399780               0.005322167               0.003922387               0.000000000               0.000000000               0.000000000               0.000000000               0.000200870               0.012632197              -0.000013743              -0.001503695               0.004711922               0.003208227               0.000000000               0.000000000               0.000000000               0.000000000              -0.000403529               0.011293775              -0.000787020              -0.001563041               0.004285568               0.002722526               0.000000000               0.000000000               0.000000000               0.000000000              -0.000770408               0.010268427              -0.001038847              -0.001572453               0.003946926               0.002374473               0.000000000               0.000000000               0.000000000               0.000000000              -0.000982417               0.009439937              -0.001101392              -0.001548395               0.003662746               0.002114351               0.000000000               0.000000000               0.000000000               0.000000000              -0.001090655               0.008727078              -0.001094089              -0.001499877               0.003408956               0.001909079               0.000000000               0.000000000               0.000000000               0.000000000              -0.001119041               0.008090453              -0.001055867              -0.001430944               0.003173772               0.001742828               0.000000000               0.000000000               0.000000000               0.000000000              -0.001085783               0.007494623              -0.000992447              -0.001343993               0.002946180               0.001602187               0.000000000               0.000000000               0.000000000               0.000000000              -0.001002527               0.006932473              -0.000917469              -0.001242504               0.002724969               0.001482465               0.000000000               0.000000000               0.000000000               0.000000000              -0.000879821               0.006405290              -0.000840843              -0.001130592               0.002511939               0.001381347               0.000000000               0.000000000               0.000000000               0.000000000              -0.000731151               0.005916004              -0.000752351              -0.001013680               0.002309875               0.001296195               0.000000000               0.000000000               0.000000000               0.000000000              -0.000566211               0.005472722              -0.000643944              -0.000896417               0.002123028               0.001226611               0.000000000               0.000000000               0.000000000               0.000000000              -0.000397941               0.005082417              -0.000512190              -0.000784528               0.001955631               0.001171103               0.000000000               0.000000000               0.000000000               0.000000000              -0.000243467               0.004758747              -0.000357906              -0.000686142               0.001814947               0.001128805               0.000000000               0.000000000               0.000000000               0.000000000              -0.000111514               0.004526235              -0.000185753              -0.000607595               0.001711262               0.001103666               0.000000000               0.000000000               0.000000000               0.000000000              -0.000062499               0.004417024              -0.000102945              -0.000575563               0.001664181               0.001088617               0.000000000               0.000000000               0.000000000               0.000000000               0.002380202               0.014572399               0.004503883              -0.000928976               0.005167075               0.004238099               0.000000000               0.000000000               0.000000000               0.000000000               0.000436627               0.012810907               0.002269002              -0.001437626               0.004749468               0.003311842               0.000000000               0.000000000               0.000000000               0.000000000              -0.000917859               0.011882351               0.000175671              -0.001829486               0.004570573               0.002741086               0.000000000               0.000000000               0.000000000               0.000000000              -0.001510761               0.010936576              -0.000511047              -0.001933603               0.004290023               0.002356421               0.000000000               0.000000000               0.000000000               0.000000000              -0.001743551               0.010081249              -0.000727096              -0.001913983               0.003998377               0.002084394               0.000000000               0.000000000               0.000000000               0.000000000              -0.001800352               0.009320170              -0.000784159              -0.001840149               0.003720075               0.001879926               0.000000000               0.000000000               0.000000000               0.000000000              -0.001750071               0.008629969              -0.000790682              -0.001735019               0.003454967               0.001719949               0.000000000               0.000000000               0.000000000               0.000000000              -0.001628414               0.007992958              -0.000769332              -0.001609771               0.003200883               0.001591112               0.000000000               0.000000000               0.000000000               0.000000000              -0.001463720               0.007389917              -0.000720041              -0.001472631               0.002954158               0.001481527               0.000000000               0.000000000               0.000000000               0.000000000              -0.001266461               0.006830279              -0.000659188              -0.001328705               0.002719638               0.001390934               0.000000000               0.000000000               0.000000000               0.000000000              -0.001051101               0.006321580              -0.000593953              -0.001184358               0.002501958               0.001317600               0.000000000               0.000000000               0.000000000               0.000000000              -0.000827574               0.005868085              -0.000518584              -0.001043849               0.002303958               0.001260110               0.000000000               0.000000000               0.000000000               0.000000000              -0.000605578               0.005479415              -0.000427967              -0.000912016               0.002130459               0.001218442               0.000000000               0.000000000               0.000000000               0.000000000              -0.000404774               0.005160025              -0.000320087              -0.000796792               0.001985588               0.001188797               0.000000000               0.000000000               0.000000000               0.000000000              -0.000236919               0.004917627              -0.000207771              -0.000703546               0.001873708               0.001170162               0.000000000               0.000000000               0.000000000               0.000000000              -0.000102660               0.004766498              -0.000102231              -0.000634308               0.001800253               0.001165945               0.000000000               0.000000000               0.000000000               0.000000000              -0.000051259               0.004707180              -0.000055226              -0.000607618               0.001771584               0.001163966               0.000000000               0.000000000               0.000000000               0.000000000               0.001726676               0.011692761               0.004078723              -0.000814093               0.004168911               0.003354818               0.000000000               0.000000000               0.000000000               0.000000000              -0.000393614               0.011093602               0.002218066              -0.001534303               0.004209264               0.002674961               0.000000000               0.000000000               0.000000000               0.000000000              -0.001985968               0.011090468               0.000478464              -0.002131041               0.004407133               0.002276092               0.000000000               0.000000000               0.000000000               0.000000000              -0.002450811               0.010469186              -0.000076437              -0.002227697               0.004232259               0.002004562               0.000000000               0.000000000               0.000000000               0.000000000              -0.002492939               0.009746839              -0.000267068              -0.002153202               0.003966648               0.001813446               0.000000000               0.000000000               0.000000000               0.000000000              -0.002367400               0.009037811              -0.000341560              -0.002017496               0.003685072               0.001667576               0.000000000               0.000000000               0.000000000               0.000000000              -0.002160155               0.008364134              -0.000378881              -0.001855570               0.003406540               0.001550970               0.000000000               0.000000000               0.000000000               0.000000000              -0.001903316               0.007731410              -0.000390316              -0.001680166               0.003137166               0.001457000               0.000000000               0.000000000               0.000000000               0.000000000              -0.001619755               0.007142734              -0.000371147              -0.001500246               0.002880969               0.001380723               0.000000000               0.000000000               0.000000000               0.000000000              -0.001326529               0.006609585              -0.000341521              -0.001323643               0.002644387               0.001320744               0.000000000               0.000000000               0.000000000               0.000000000              -0.001039503               0.006143535              -0.000308342              -0.001157753               0.002433742               0.001275990               0.000000000               0.000000000               0.000000000               0.000000000              -0.000771034               0.005746346              -0.000266050              -0.001007428               0.002251239               0.001243810               0.000000000               0.000000000               0.000000000               0.000000000              -0.000528729               0.005421384              -0.000212736              -0.000875944               0.002099091               0.001223147               0.000000000               0.000000000               0.000000000               0.000000000              -0.000328127               0.005173659              -0.000146578              -0.000769753               0.001981120               0.001211367               0.000000000               0.000000000               0.000000000               0.000000000              -0.000176205               0.005005918              -0.000082903              -0.000691815               0.001899228               0.001207413               0.000000000               0.000000000               0.000000000               0.000000000              -0.000070397               0.004912055              -0.000036444              -0.000640404               0.001850803               0.001210399               0.000000000               0.000000000               0.000000000               0.000000000              -0.000032453               0.004879587              -0.000019745              -0.000622117               0.001833885               0.001211768               0.000000000               0.000000000               0.000000000               0.000000000               0.000739487               0.009020681               0.003360037              -0.000850278               0.003290288               0.002440010               0.000000000               0.000000000               0.000000000               0.000000000              -0.001320039               0.009511149               0.002098322              -0.001683905               0.003731653               0.002047747               0.000000000               0.000000000               0.000000000               0.000000000              -0.002898301               0.010258987               0.000881124              -0.002369230               0.004209372               0.001840141               0.000000000               0.000000000               0.000000000               0.000000000              -0.003130705               0.009884594               0.000446234              -0.002409583               0.004098026               0.001688443               0.000000000               0.000000000               0.000000000               0.000000000              -0.002959889               0.009271218               0.000246440              -0.002268855               0.003846660               0.001577805               0.000000000               0.000000000               0.000000000               0.000000000              -0.002662536               0.008615203               0.000133506              -0.002075346               0.003563487               0.001488141               0.000000000               0.000000000               0.000000000               0.000000000              -0.002314507               0.007973834               0.000052359              -0.001864665               0.003279473               0.001414808               0.000000000               0.000000000               0.000000000               0.000000000              -0.001942453               0.007367446              -0.000005212              -0.001649346               0.003005573               0.001356227               0.000000000               0.000000000               0.000000000               0.000000000              -0.001560772               0.006811311              -0.000032476              -0.001436700               0.002749314               0.001312614               0.000000000               0.000000000               0.000000000               0.000000000              -0.001192625               0.006326607              -0.000049517              -0.001238057               0.002521533               0.001283476               0.000000000               0.000000000               0.000000000               0.000000000              -0.000859375               0.005917485              -0.000062298              -0.001061949               0.002326458               0.001264509               0.000000000               0.000000000               0.000000000               0.000000000              -0.000577699               0.005580802              -0.000062153              -0.000914235               0.002164994               0.001250759               0.000000000               0.000000000               0.000000000               0.000000000              -0.000353857               0.005318262              -0.000050792              -0.000797477               0.002038562               0.001241085               0.000000000               0.000000000               0.000000000               0.000000000              -0.000189433               0.005134787              -0.000031304              -0.000712884               0.001949206               0.001236323               0.000000000               0.000000000               0.000000000               0.000000000              -0.000080676               0.005027975              -0.000010999              -0.000658749               0.001895558               0.001236809               0.000000000               0.000000000               0.000000000               0.000000000              -0.000023299               0.004977768              -0.000001482              -0.000630956               0.001869558               0.001238602               0.000000000               0.000000000               0.000000000               0.000000000              -0.000008963               0.004962406              -0.000001258              -0.000623660               0.001862006               0.001238345               0.000000000               0.000000000               0.000000000               0.000000000              -0.000437170               0.006755602               0.002470222              -0.001008388               0.002587973               0.001579585               0.000000000               0.000000000               0.000000000               0.000000000              -0.002224238               0.008093756               0.001958539              -0.001845805               0.003313159               0.001467354               0.000000000               0.000000000               0.000000000               0.000000000              -0.003608021               0.009426405               0.001358561              -0.002531302               0.003985871               0.001454569               0.000000000               0.000000000               0.000000000               0.000000000              -0.003591639               0.009307874               0.000998750              -0.002510343               0.003939375               0.001429032               0.000000000               0.000000000               0.000000000               0.000000000              -0.003241293               0.008831116               0.000764241              -0.002319369               0.003716799               0.001397430               0.000000000               0.000000000               0.000000000               0.000000000              -0.002807465               0.008260759               0.000598920              -0.002085389               0.003448689               0.001363299               0.000000000               0.000000000               0.000000000               0.000000000              -0.002350326               0.007683322               0.000470339              -0.001841783               0.003175009               0.001333226               0.000000000               0.000000000               0.000000000               0.000000000              -0.001888210               0.007127044               0.000366655              -0.001598955               0.002908643               0.001309687               0.000000000               0.000000000               0.000000000               0.000000000              -0.001432770               0.006616831               0.000285306              -0.001364389               0.002660385               0.001295995               0.000000000               0.000000000               0.000000000               0.000000000              -0.001008934               0.006179058               0.000213529              -0.001150730               0.002443242               0.001292512               0.000000000               0.000000000               0.000000000               0.000000000              -0.000648559               0.005809756               0.000149653              -0.000969427               0.002259708               0.001290281               0.000000000               0.000000000               0.000000000               0.000000000              -0.000368580               0.005503840               0.000099744              -0.000826195               0.002109993               0.001283798               0.000000000               0.000000000               0.000000000               0.000000000              -0.000172855               0.005269744               0.000062331              -0.000723537               0.001997743               0.001274206               0.000000000               0.000000000               0.000000000               0.000000000              -0.000050504               0.005113644               0.000035229              -0.000658143               0.001923912               0.001265769               0.000000000               0.000000000               0.000000000               0.000000000               0.000010425               0.005028566               0.000016298              -0.000624660               0.001884392               0.001259732               0.000000000               0.000000000               0.000000000               0.000000000               0.000023965               0.004996516               0.000004771              -0.000615576               0.001870681               0.001255105               0.000000000               0.000000000               0.000000000               0.000000000               0.000018851               0.004987688              -0.000000293              -0.000616390               0.001868009               0.001251619               0.000000000               0.000000000               0.000000000               0.000000000              -0.001825389               0.004656217               0.001524010              -0.001266546               0.001974238               0.000707693               0.000000000               0.000000000               0.000000000               0.000000000              -0.002985086               0.006461467               0.001799595              -0.001927086               0.002796162               0.000869076               0.000000000               0.000000000               0.000000000               0.000000000              -0.004029322               0.008213614               0.001857544              -0.002537692               0.003583741               0.001046049               0.000000000               0.000000000               0.000000000               0.000000000              -0.003874571               0.008478082               0.001584752              -0.002512718               0.003663572               0.001150853               0.000000000               0.000000000               0.000000000               0.000000000              -0.003443672               0.008268329               0.001319392              -0.002324913               0.003531053               0.001206140               0.000000000               0.000000000               0.000000000               0.000000000              -0.002959862               0.007890742               0.001099705              -0.002096286               0.003328983               0.001232697               0.000000000               0.000000000               0.000000000               0.000000000              -0.002469313               0.007462811               0.000926028              -0.001858839               0.003107192               0.001248353               0.000000000               0.000000000               0.000000000               0.000000000              -0.001983844               0.007035125               0.000779899              -0.001623328               0.002886127               0.001262799               0.000000000               0.000000000               0.000000000               0.000000000              -0.001510529               0.006625069               0.000648751              -0.001394579               0.002673194               0.001278615               0.000000000               0.000000000               0.000000000               0.000000000              -0.001067263               0.006248694               0.000525031              -0.001181308               0.002476646               0.001295339               0.000000000               0.000000000               0.000000000               0.000000000              -0.000679551               0.005916223               0.000408954              -0.000994357               0.002303507               0.001309150               0.000000000               0.000000000               0.000000000               0.000000000              -0.000369624               0.005623813               0.000301236              -0.000841583               0.002155113               0.001313530               0.000000000               0.000000000               0.000000000               0.000000000              -0.000148945               0.005381979               0.000203994              -0.000728600               0.002036842               0.001308242               0.000000000               0.000000000               0.000000000               0.000000000              -0.000012190               0.005197743               0.000124137              -0.000654287               0.001950659               0.001296372               0.000000000               0.000000000               0.000000000               0.000000000               0.000058595               0.005080214               0.000060215              -0.000613052               0.001897738               0.001284686               0.000000000               0.000000000               0.000000000               0.000000000               0.000076327               0.005021871               0.000017041              -0.000599110               0.001873643               0.001274534               0.000000000               0.000000000               0.000000000               0.000000000               0.000068190               0.004998754               0.000001302              -0.000599272               0.001865992               0.001266720               0.000000000               0.000000000               0.000000000               0.000000000              -0.003609678               0.002754391               0.000594360              -0.001697925               0.001484095              -0.000213830               0.000000000               0.000000000               0.000000000               0.000000000              -0.003847538               0.004814596               0.001566139              -0.002044647               0.002286397               0.000241751               0.000000000               0.000000000               0.000000000               0.000000000              -0.004359201               0.006789024               0.002251479              -0.002483323               0.003090759               0.000607436               0.000000000               0.000000000               0.000000000               0.000000000              -0.004073398               0.007423981               0.002142281              -0.002455516               0.003293140               0.000837624               0.000000000               0.000000000               0.000000000               0.000000000              -0.003592810               0.007524285               0.001887488              -0.002287834               0.003270681               0.000982847               0.000000000               0.000000000               0.000000000               0.000000000              -0.003081750               0.007388915               0.001636195              -0.002079266               0.003156035               0.001076769               0.000000000               0.000000000               0.000000000               0.000000000              -0.002576410               0.007157433               0.001422197              -0.001860829               0.003006063               0.001145234               0.000000000               0.000000000               0.000000000               0.000000000              -0.002085822               0.006883568               0.001238361              -0.001642625               0.002842041               0.001199416               0.000000000               0.000000000               0.000000000               0.000000000              -0.001612996               0.006592087               0.001070412              -0.001428881               0.002673634               0.001244753               0.000000000               0.000000000               0.000000000               0.000000000              -0.001161112               0.006298390               0.000907894              -0.001222713               0.002507013               0.001284300               0.000000000               0.000000000               0.000000000               0.000000000              -0.000745681               0.006017747               0.000749371              -0.001031846               0.002349844               0.001317998               0.000000000               0.000000000               0.000000000               0.000000000              -0.000391052               0.005753777               0.000589570              -0.000865864               0.002206528               0.001340663               0.000000000               0.000000000               0.000000000               0.000000000              -0.000113528               0.005515767               0.000434061              -0.000732042               0.002082584               0.001350542               0.000000000               0.000000000               0.000000000               0.000000000               0.000074837               0.005311284               0.000293280              -0.000635845               0.001982359               0.001346514               0.000000000               0.000000000               0.000000000               0.000000000               0.000178457               0.005155714               0.000167969              -0.000577542               0.001911068               0.001333526               0.000000000               0.000000000               0.000000000               0.000000000               0.000209737               0.005055500               0.000066722              -0.000553285               0.001869578               0.001316293               0.000000000               0.000000000               0.000000000               0.000000000               0.000198498               0.005013484               0.000022457              -0.000552247               0.001855227               0.001302980               0.000000000               0.000000000               0.000000000               0.000000000              -0.005653238               0.001195636              -0.000231933              -0.002269416               0.001155010              -0.001114406               0.000000000               0.000000000               0.000000000               0.000000000              -0.004857665               0.003253746               0.001241762              -0.002228338               0.001827349              -0.000400990               0.000000000               0.000000000               0.000000000               0.000000000              -0.004629541               0.005174854               0.002422503              -0.002382930               0.002519243               0.000136313               0.000000000               0.000000000               0.000000000               0.000000000              -0.004129806               0.006072195               0.002521022              -0.002307697               0.002793276               0.000485579               0.000000000               0.000000000               0.000000000               0.000000000              -0.003583415               0.006455967               0.002333917              -0.002150772               0.002868891               0.000718119               0.000000000               0.000000000               0.000000000               0.000000000              -0.003046967               0.006578162               0.002091938              -0.001964879               0.002847658               0.000882779               0.000000000               0.000000000               0.000000000               0.000000000              -0.002539287               0.006563508               0.001862354              -0.001772667               0.002778703               0.001006035               0.000000000               0.000000000               0.000000000               0.000000000              -0.002050698               0.006472697               0.001655975              -0.001578095               0.002683576               0.001105480               0.000000000               0.000000000               0.000000000               0.000000000              -0.001583880               0.006331662               0.001464589              -0.001385410               0.002572336               0.001186926               0.000000000               0.000000000               0.000000000               0.000000000              -0.001135344               0.006154441               0.001282325              -0.001195057               0.002449812               0.001254755               0.000000000               0.000000000               0.000000000               0.000000000              -0.000709716               0.005956795               0.001100721              -0.001010741               0.002322492               0.001311751               0.000000000               0.000000000               0.000000000               0.000000000              -0.000323074               0.005751092               0.000913144              -0.000840037               0.002197024               0.001356986               0.000000000               0.000000000               0.000000000               0.000000000               0.000010520               0.005548785               0.000720389              -0.000689652               0.002079460               0.001389808               0.000000000               0.000000000               0.000000000               0.000000000               0.000267093               0.005358748               0.000526089              -0.000569682               0.001976125               0.001406443               0.000000000               0.000000000               0.000000000               0.000000000               0.000427430               0.005196227               0.000334677              -0.000489241               0.001895139               0.001405898               0.000000000               0.000000000               0.000000000               0.000000000               0.000490492               0.005078732               0.000156734              -0.000450906               0.001843196               0.001392290               0.000000000               0.000000000               0.000000000               0.000000000               0.000483662               0.005025376               0.000069268              -0.000446797               0.001824041               0.001377244               0.000000000               0.000000000               0.000000000               0.000000000              -0.007811231               0.000073099              -0.000838243              -0.002938347               0.001003808              -0.001934538               0.000000000               0.000000000               0.000000000               0.000000000              -0.005955571               0.001879874               0.000877474              -0.002468320               0.001449388              -0.001018932               0.000000000               0.000000000               0.000000000               0.000000000              -0.004868890               0.003522224               0.002343286              -0.002266108               0.001929430              -0.000336678               0.000000000               0.000000000               0.000000000               0.000000000              -0.004072427               0.004540551               0.002626982              -0.002094725               0.002211742               0.000117017               0.000000000               0.000000000               0.000000000               0.000000000              -0.003425442               0.005147586               0.002541349              -0.001927985               0.002358506               0.000430520               0.000000000               0.000000000               0.000000000               0.000000000              -0.002858462               0.005506490               0.002347655              -0.001760231               0.002422221               0.000661990               0.000000000               0.000000000               0.000000000               0.000000000              -0.002347995               0.005707387               0.002134746              -0.001593919               0.002433749               0.000839830               0.000000000               0.000000000               0.000000000               0.000000000              -0.001876478               0.005803052               0.001930109              -0.001429058               0.002410683               0.000981626               0.000000000               0.000000000               0.000000000               0.000000000              -0.001422686               0.005824063               0.001737601              -0.001261513               0.002361839               0.001100326               0.000000000               0.000000000               0.000000000               0.000000000              -0.000979754               0.005788167               0.001555822              -0.001090926               0.002293011               0.001202085               0.000000000               0.000000000               0.000000000               0.000000000              -0.000547628               0.005709896               0.001373264              -0.000919096               0.002209645               0.001290549               0.000000000               0.000000000               0.000000000               0.000000000              -0.000135291               0.005597794               0.001184398              -0.000750457               0.002116065               0.001365608               0.000000000               0.000000000               0.000000000               0.000000000               0.000247831               0.005464953               0.000983478              -0.000590181               0.002018360               0.001428178               0.000000000               0.000000000               0.000000000               0.000000000               0.000581427               0.005330618               0.000760901              -0.000448291               0.001926285               0.001477994               0.000000000               0.000000000               0.000000000               0.000000000               0.000836106               0.005203315               0.000518167              -0.000336874               0.001846712               0.001509838               0.000000000               0.000000000               0.000000000               0.000000000               0.000985020               0.005094250               0.000262485              -0.000267398               0.001787199               0.001519801               0.000000000               0.000000000               0.000000000               0.000000000               0.001023898               0.005042091               0.000131112              -0.000246299               0.001762780               0.001516481               0.000000000               0.000000000               0.000000000               0.000000000              -0.009885698              -0.000628495              -0.001118638              -0.003628572               0.001000019              -0.002628554               0.000000000               0.000000000               0.000000000               0.000000000              -0.007044114               0.000774683               0.000536694              -0.002738375               0.001171011              -0.001567364               0.000000000               0.000000000               0.000000000               0.000000000              -0.005087744               0.001991145               0.002014217              -0.002156794               0.001382636              -0.000774158               0.000000000               0.000000000               0.000000000               0.000000000              -0.003948471               0.003006208               0.002400647              -0.001856449               0.001620874              -0.000235576               0.000000000               0.000000000               0.000000000               0.000000000              -0.003165004               0.003760930               0.002407812              -0.001656990               0.001805959               0.000148970               0.000000000               0.000000000               0.000000000               0.000000000              -0.002554278               0.004300719               0.002282952              -0.001495441               0.001932038               0.000436597               0.000000000               0.000000000               0.000000000               0.000000000              -0.002038122               0.004679649               0.002115742              -0.001349250               0.002009617               0.000660367               0.000000000               0.000000000               0.000000000               0.000000000              -0.001577533               0.004945551               0.001942132              -0.001209767               0.002051755               0.000841989               0.000000000               0.000000000               0.000000000               0.000000000              -0.001140310               0.005128784               0.001775951              -0.001068712               0.002065814               0.000997102               0.000000000               0.000000000               0.000000000               0.000000000              -0.000708766               0.005246095               0.001617653              -0.000921548               0.002055863               0.001134315               0.000000000               0.000000000               0.000000000               0.000000000              -0.000274814               0.005305983               0.001458522              -0.000766302               0.002024077               0.001257775               0.000000000               0.000000000               0.000000000               0.000000000               0.000158999               0.005312663               0.001292799              -0.000604458               0.001972356               0.001367898               0.000000000               0.000000000               0.000000000               0.000000000               0.000583895               0.005282012               0.001110394              -0.000441290               0.001907750               0.001466459               0.000000000               0.000000000               0.000000000               0.000000000               0.000993856               0.005231747               0.000897091              -0.000281272               0.001837656               0.001556383               0.000000000               0.000000000               0.000000000               0.000000000               0.001374122               0.005166341               0.000645553              -0.000130497               0.001765595               0.001635099               0.000000000               0.000000000               0.000000000               0.000000000               0.001690011               0.005087803               0.000344814              -0.000002222               0.001696658               0.001694436               0.000000000               0.000000000               0.000000000               0.000000000               0.001858107               0.005056527               0.000186863               0.000064723               0.001663918               0.001728641               0.000000000               0.000000000               0.000000000               0.000000000              -0.011631869              -0.001003152              -0.001024280              -0.004236554               0.001077793              -0.003158761               0.000000000               0.000000000               0.000000000               0.000000000              -0.007989992              -0.000020987               0.000273854              -0.002993621               0.000990871              -0.002002750               0.000000000               0.000000000               0.000000000               0.000000000              -0.005279782               0.000753161               0.001468510              -0.002074061               0.000942400              -0.001131661               0.000000000               0.000000000               0.000000000               0.000000000              -0.003808465               0.001687283               0.001837169              -0.001639082               0.001108780              -0.000530302               0.000000000               0.000000000               0.000000000               0.000000000              -0.002879293               0.002507726               0.001895201              -0.001393198               0.001300298              -0.000092900               0.000000000               0.000000000               0.000000000               0.000000000              -0.002217757               0.003167678               0.001831634              -0.001227617               0.001465087               0.000237470               0.000000000               0.000000000               0.000000000               0.000000000              -0.001689426               0.003679285               0.001723787              -0.001093443               0.001590897               0.000497453               0.000000000               0.000000000               0.000000000               0.000000000              -0.001227636               0.004076355               0.001604599              -0.000969906               0.001682073               0.000712167               0.000000000               0.000000000               0.000000000               0.000000000              -0.000798918               0.004391966               0.001486527              -0.000848589               0.001746836               0.000898248               0.000000000               0.000000000               0.000000000               0.000000000              -0.000378579               0.004641814               0.001373347              -0.000722193               0.001787986               0.001065794               0.000000000               0.000000000               0.000000000               0.000000000               0.000052704               0.004830706               0.001259168              -0.000584073               0.001804910               0.001220837               0.000000000               0.000000000               0.000000000               0.000000000               0.000498932               0.004958750               0.001133502              -0.000432744               0.001797148               0.001364404               0.000000000               0.000000000               0.000000000               0.000000000               0.000964071               0.005042948               0.000990177              -0.000268842               0.001770580               0.001501738               0.000000000               0.000000000               0.000000000               0.000000000               0.001457000               0.005092452               0.000824147              -0.000090182               0.001727527               0.001637346               0.000000000               0.000000000               0.000000000               0.000000000               0.001976777               0.005100423               0.000618797               0.000103737               0.001665545               0.001769282               0.000000000               0.000000000               0.000000000               0.000000000               0.002511965               0.005064642               0.000345135               0.000308903               0.001585229               0.001894133               0.000000000               0.000000000               0.000000000               0.000000000               0.002881957               0.005072056               0.000200927               0.000446722               0.001541761               0.001988483               0.000000000               0.000000000               0.000000000               0.000000000              -0.012801206              -0.001166646              -0.000603989              -0.004654619               0.001162650              -0.003491969               0.000000000               0.000000000               0.000000000               0.000000000              -0.008641998              -0.000496809               0.000106837              -0.003178646               0.000893940              -0.002284706               0.000000000               0.000000000               0.000000000               0.000000000              -0.005417907              -0.000051805               0.000772280              -0.002025238               0.000657806              -0.001367432               0.000000000               0.000000000               0.000000000               0.000000000              -0.003701131               0.000794204               0.000996727              -0.001487198               0.000760462              -0.000726736               0.000000000               0.000000000               0.000000000               0.000000000              -0.002660762               0.001630934               0.001046067              -0.001201650               0.000944188              -0.000257462               0.000000000               0.000000000               0.000000000               0.000000000              -0.001952752               0.002351151               0.001023027              -0.001026174               0.001125767               0.000099593               0.000000000               0.000000000               0.000000000               0.000000000              -0.001409358               0.002942808               0.000973734              -0.000896358               0.001279712               0.000383354               0.000000000               0.000000000               0.000000000               0.000000000              -0.000945434               0.003426549               0.000915271              -0.000782855               0.001403123               0.000620268               0.000000000               0.000000000               0.000000000               0.000000000              -0.000517096               0.003824951               0.000855026              -0.000672029               0.001498980               0.000826952               0.000000000               0.000000000               0.000000000               0.000000000              -0.000097678               0.004158400               0.000798845              -0.000556428               0.001571595               0.001015167               0.000000000               0.000000000               0.000000000               0.000000000               0.000331770               0.004436106               0.000740618              -0.000430099               0.001622053               0.001191954               0.000000000               0.000000000               0.000000000               0.000000000               0.000786516               0.004650876               0.000671631              -0.000286416               0.001645748               0.001359333               0.000000000               0.000000000               0.000000000               0.000000000               0.001288980               0.004817880               0.000592556              -0.000118868               0.001645566               0.001526699               0.000000000               0.000000000               0.000000000               0.000000000               0.001853538               0.004942478               0.000500611               0.000077266               0.001621721               0.001698987               0.000000000               0.000000000               0.000000000               0.000000000               0.002488550               0.005013978               0.000384417               0.000306456               0.001569157               0.001875613               0.000000000               0.000000000               0.000000000               0.000000000               0.003212354               0.005025992               0.000220069               0.000576378               0.001483188               0.002059566               0.000000000               0.000000000               0.000000000               0.000000000               0.003767951               0.005075291               0.000133453               0.000778563               0.001432226               0.002210789               0.000000000               0.000000000               0.000000000               0.000000000              -0.013212408              -0.001208551              -0.000000000              -0.004803581               0.001198336              -0.003605246               0.000000000               0.000000000               0.000000000               0.000000000              -0.008875275              -0.000655035              -0.000000000              -0.003246347               0.000863765              -0.002382582               0.000000000               0.000000000               0.000000000               0.000000000              -0.005468852              -0.000333126              -0.000000000              -0.002009177               0.000558680              -0.001450498               0.000000000               0.000000000               0.000000000               0.000000000              -0.003662724               0.000477664              -0.000000000              -0.001433228               0.000636959              -0.000796269               0.000000000               0.000000000               0.000000000               0.000000000              -0.002581672               0.001314772               0.000000000              -0.001132472               0.000815742              -0.000316729               0.000000000               0.000000000               0.000000000               0.000000000              -0.001849396               0.002050966               0.000000000              -0.000949892               0.001000279               0.000050387               0.000000000               0.000000000               0.000000000               0.000000000              -0.001298676               0.002670928              -0.000000000              -0.000820868               0.001163923               0.000343055               0.000000000               0.000000000               0.000000000               0.000000000              -0.000836694               0.003186548              -0.000000000              -0.000712077               0.001299531               0.000587454               0.000000000               0.000000000               0.000000000               0.000000000              -0.000408180               0.003613025              -0.000000000              -0.000604694               0.001405894               0.000801200               0.000000000               0.000000000               0.000000000               0.000000000               0.000015080               0.003974426              -0.000000000              -0.000491147               0.001488511               0.000997364               0.000000000               0.000000000               0.000000000               0.000000000               0.000445394               0.004282134               0.000000000              -0.000368243               0.001550111               0.001181868               0.000000000               0.000000000               0.000000000               0.000000000               0.000906365               0.004525862               0.000000000              -0.000225845               0.001583887               0.001358042               0.000000000               0.000000000               0.000000000               0.000000000               0.001423854               0.004719577              -0.000000000              -0.000056002               0.001591844               0.001535842               0.000000000               0.000000000               0.000000000               0.000000000               0.002014804               0.004871159               0.000000000               0.000146655               0.001574818               0.001721474               0.000000000               0.000000000               0.000000000               0.000000000               0.002694121               0.004970175               0.000000000               0.000389020               0.001527035               0.001916055               0.000000000               0.000000000               0.000000000               0.000000000               0.003490493               0.005006981              -0.000000000               0.000683055               0.001441292               0.002124347               0.000000000               0.000000000               0.000000000               0.000000000               0.004119692               0.005076114               0.000000000               0.000910361               0.001388567               0.002298929               0.000000000               0.000000000               0.000000000               0.000000000               0.002254773               0.024369956               0.000000000              -0.002200699               0.008856804               0.006656105               0.000000000               0.000000000               0.000000000               0.000000000               0.002186400               0.018871831               0.000000000              -0.001539075               0.006803572               0.005264497               0.000000000               0.000000000               0.000000000               0.000000000               0.002835572               0.014398539              -0.000000000              -0.000736476               0.005044957               0.004308481               0.000000000               0.000000000               0.000000000               0.000000000               0.002662339               0.011861631               0.000000000              -0.000484326               0.004115279               0.003630954               0.000000000               0.000000000               0.000000000               0.000000000               0.002253298               0.010249799               0.000000000              -0.000436237               0.003561978               0.003125741               0.000000000               0.000000000               0.000000000               0.000000000               0.001812876               0.009120691              -0.000000000              -0.000460257               0.003193619               0.002733362               0.000000000               0.000000000               0.000000000               0.000000000               0.001407293               0.008273408              -0.000000000              -0.000506440               0.002926588               0.002420149               0.000000000               0.000000000               0.000000000               0.000000000               0.001040294               0.007591114              -0.000000000              -0.000558778               0.002716605               0.002157828               0.000000000               0.000000000               0.000000000               0.000000000               0.000721665               0.007014777              -0.000000000              -0.000606221               0.002540309               0.001934088               0.000000000               0.000000000               0.000000000               0.000000000               0.000458381               0.006492897               0.000000000              -0.000639718               0.002377517               0.001737799               0.000000000               0.000000000               0.000000000               0.000000000               0.000239158               0.005991428               0.000000000              -0.000659243               0.002216870               0.001557627               0.000000000               0.000000000               0.000000000               0.000000000               0.000063704               0.005488771               0.000000000              -0.000662206               0.002050307               0.001388102               0.000000000               0.000000000               0.000000000               0.000000000              -0.000058887               0.004964895              -0.000000000              -0.000642693               0.001869179               0.001226487               0.000000000               0.000000000               0.000000000               0.000000000              -0.000128108               0.004401341              -0.000000000              -0.000598207               0.001666501               0.001068295               0.000000000               0.000000000               0.000000000               0.000000000              -0.000142857               0.003768911               0.000000000              -0.000524684               0.001431186               0.000906502               0.000000000               0.000000000               0.000000000               0.000000000              -0.000091576               0.003044859              -0.000000000              -0.000414947               0.001153258               0.000738311               0.000000000               0.000000000               0.000000000               0.000000000              -0.000108948               0.002484016               0.000000000              -0.000351357               0.000945116               0.000593759               0.000000000               0.000000000               0.000000000               0.000000000               0.002324248               0.023856087              -0.001646436              -0.002110413               0.008655421               0.006545007               0.000000000               0.000000000               0.000000000               0.000000000               0.002131844               0.018548293              -0.000789122              -0.001519091               0.006689066               0.005169975               0.000000000               0.000000000               0.000000000               0.000000000               0.002644325               0.014265692               0.000058495              -0.000791588               0.005019046               0.004227458               0.000000000               0.000000000               0.000000000               0.000000000               0.002419104               0.011829270               0.000406981              -0.000571494               0.004133548               0.003562055               0.000000000               0.000000000               0.000000000               0.000000000               0.002001279               0.010267383               0.000542389              -0.000532942               0.003600074               0.003067132               0.000000000               0.000000000               0.000000000               0.000000000               0.001568588               0.009167999               0.000587589              -0.000557778               0.003241895               0.002684117               0.000000000               0.000000000               0.000000000               0.000000000               0.001178435               0.008336605               0.000591663              -0.000600161               0.002978894               0.002378733               0.000000000               0.000000000               0.000000000               0.000000000               0.000835857               0.007666315               0.000578218              -0.000644842               0.002770360               0.002125518               0.000000000               0.000000000               0.000000000               0.000000000               0.000539347               0.007089816               0.000553962              -0.000683970               0.002591238               0.001907268               0.000000000               0.000000000               0.000000000               0.000000000               0.000301198               0.006562861               0.000521626              -0.000707407               0.002423400               0.001715994               0.000000000               0.000000000               0.000000000               0.000000000               0.000115495               0.006056846               0.000488482              -0.000713794               0.002256860               0.001543066               0.000000000               0.000000000               0.000000000               0.000000000              -0.000023808               0.005551867               0.000451478              -0.000702910               0.002084907               0.001381997               0.000000000               0.000000000               0.000000000               0.000000000              -0.000112887               0.005031719               0.000407928              -0.000671296               0.001900988               0.001229692               0.000000000               0.000000000               0.000000000               0.000000000              -0.000154671               0.004479379               0.000349092              -0.000617922               0.001699085               0.001081163               0.000000000               0.000000000               0.000000000               0.000000000              -0.000148656               0.003877905               0.000263645              -0.000540483               0.001472783               0.000932300               0.000000000               0.000000000               0.000000000               0.000000000              -0.000088682               0.003212060               0.000145862              -0.000434762               0.001215597               0.000780834               0.000000000               0.000000000               0.000000000               0.000000000              -0.000099483               0.002709395               0.000089135              -0.000375980               0.001028449               0.000652470               0.000000000               0.000000000               0.000000000               0.000000000               0.002499644               0.022392915              -0.003051468              -0.001861745               0.008084812               0.006223067               0.000000000               0.000000000               0.000000000               0.000000000               0.001955544               0.017623573              -0.001459695              -0.001469614               0.006364337               0.004894723               0.000000000               0.000000000               0.000000000               0.000000000               0.002088870               0.013888531               0.000099975              -0.000952738               0.004947043               0.003994305               0.000000000               0.000000000               0.000000000               0.000000000               0.001730983               0.011729252               0.000718840              -0.000817036               0.004182057               0.003365021               0.000000000               0.000000000               0.000000000               0.000000000               0.001298292               0.010309271               0.000950140              -0.000801798               0.003703655               0.002901857               0.000000000               0.000000000               0.000000000               0.000000000               0.000898333               0.009286573               0.001020940              -0.000823945               0.003370142               0.002546196               0.000000000               0.000000000               0.000000000               0.000000000               0.000558379               0.008497053               0.001023511              -0.000852738               0.003116569               0.002263831               0.000000000               0.000000000               0.000000000               0.000000000               0.000285031               0.007847952               0.000995104              -0.000874105               0.002907326               0.002033221               0.000000000               0.000000000               0.000000000               0.000000000               0.000070125               0.007271235               0.000947348              -0.000882606               0.002717922               0.001835317               0.000000000               0.000000000               0.000000000               0.000000000              -0.000088578               0.006732184               0.000889356              -0.000874738               0.002535618               0.001660880               0.000000000               0.000000000               0.000000000               0.000000000              -0.000195543               0.006213545               0.000830390              -0.000850020               0.002354501               0.001504481               0.000000000               0.000000000               0.000000000               0.000000000              -0.000252678               0.005703518               0.000764656              -0.000807692               0.002170384               0.001362692               0.000000000               0.000000000               0.000000000               0.000000000              -0.000265397               0.005193729               0.000684494              -0.000748739               0.001980805               0.001232067               0.000000000               0.000000000               0.000000000               0.000000000              -0.000238101               0.004680169               0.000579322              -0.000674307               0.001784810               0.001110502               0.000000000               0.000000000               0.000000000               0.000000000              -0.000179884               0.004161633               0.000433782              -0.000587659               0.001583084               0.000995424               0.000000000               0.000000000               0.000000000               0.000000000              -0.000098573               0.003640512               0.000238204              -0.000492028               0.001377501               0.000885473               0.000000000               0.000000000               0.000000000               0.000000000              -0.000091097               0.003278528               0.000142548              -0.000443976               0.001240824               0.000796847               0.000000000               0.000000000               0.000000000               0.000000000               0.002667196               0.020181947              -0.004034727              -0.001522544               0.007234762               0.005712219               0.000000000               0.000000000               0.000000000               0.000000000               0.001629402               0.016232112              -0.001933649              -0.001417986               0.005883311               0.004465326               0.000000000               0.000000000               0.000000000               0.000000000               0.001240211               0.013320000               0.000096792              -0.001199918               0.004839928               0.003640010               0.000000000               0.000000000               0.000000000               0.000000000               0.000732011               0.011554868               0.000860176              -0.001169852               0.004241535               0.003071683               0.000000000               0.000000000               0.000000000               0.000000000               0.000304944               0.010330169               0.001126658              -0.001176914               0.003835660               0.002658745               0.000000000               0.000000000               0.000000000               0.000000000              -0.000023967               0.009407692               0.001199962              -0.001184947               0.003530848               0.002345901               0.000000000               0.000000000               0.000000000               0.000000000              -0.000266561               0.008663865               0.001196265              -0.001182941               0.003282240               0.002099299               0.000000000               0.000000000               0.000000000               0.000000000              -0.000433315               0.008024198               0.001156123              -0.001165515               0.003063211               0.001897696               0.000000000               0.000000000               0.000000000               0.000000000              -0.000534594               0.007440611               0.001092016              -0.001130547               0.002857028               0.001726481               0.000000000               0.000000000               0.000000000               0.000000000              -0.000577277               0.006887895               0.001018507              -0.001077463               0.002655096               0.001577633               0.000000000               0.000000000               0.000000000               0.000000000              -0.000568406               0.006360471               0.000944965              -0.001008209               0.002456205               0.001447997               0.000000000               0.000000000               0.000000000               0.000000000              -0.000520009               0.005854230               0.000861190              -0.000926780               0.002260317               0.001333537               0.000000000               0.000000000               0.000000000               0.000000000              -0.000437994               0.005370976               0.000759342              -0.000835618               0.002068847               0.001233229               0.000000000               0.000000000               0.000000000               0.000000000              -0.000330160               0.004916327               0.000630050              -0.000738349               0.001884876               0.001146526               0.000000000               0.000000000               0.000000000               0.000000000              -0.000216967               0.004500094               0.000461167              -0.000643873               0.001714641               0.001070768               0.000000000               0.000000000               0.000000000               0.000000000              -0.000109383               0.004142248               0.000249103              -0.000558798               0.001567002               0.001008203               0.000000000               0.000000000               0.000000000               0.000000000              -0.000078443               0.003931302               0.000144255              -0.000520828               0.001484030               0.000963203               0.000000000               0.000000000               0.000000000               0.000000000               0.002668016               0.017483179              -0.004517254              -0.001184892               0.006222631               0.005037739               0.000000000               0.000000000               0.000000000               0.000000000               0.001122871               0.014566868              -0.002193979              -0.001399780               0.005322167               0.003922387               0.000000000               0.000000000               0.000000000               0.000000000               0.000200870               0.012632197               0.000013743              -0.001503695               0.004711922               0.003208227               0.000000000               0.000000000               0.000000000               0.000000000              -0.000403529               0.011293775               0.000787020              -0.001563041               0.004285568               0.002722526               0.000000000               0.000000000               0.000000000               0.000000000              -0.000770408               0.010268427               0.001038847              -0.001572453               0.003946926               0.002374473               0.000000000               0.000000000               0.000000000               0.000000000              -0.000982417               0.009439937               0.001101392              -0.001548395               0.003662746               0.002114351               0.000000000               0.000000000               0.000000000               0.000000000              -0.001090655               0.008727078               0.001094089              -0.001499877               0.003408956               0.001909079               0.000000000               0.000000000               0.000000000               0.000000000              -0.001119041               0.008090453               0.001055867              -0.001430944               0.003173772               0.001742828               0.000000000               0.000000000               0.000000000               0.000000000              -0.001085783               0.007494623               0.000992447              -0.001343993               0.002946180               0.001602187               0.000000000               0.000000000               0.000000000               0.000000000              -0.001002527               0.006932473               0.000917469              -0.001242504               0.002724969               0.001482465               0.000000000               0.000000000               0.000000000               0.000000000              -0.000879821               0.006405290               0.000840843              -0.001130592               0.002511939               0.001381347               0.000000000               0.000000000               0.000000000               0.000000000              -0.000731151               0.005916004               0.000752351              -0.001013680               0.002309875               0.001296195               0.000000000               0.000000000               0.000000000               0.000000000              -0.000566211               0.005472722               0.000643944              -0.000896417               0.002123028               0.001226611               0.000000000               0.000000000               0.000000000               0.000000000              -0.000397941               0.005082417               0.000512190              -0.000784528               0.001955631               0.001171103               0.000000000               0.000000000               0.000000000               0.000000000              -0.000243467               0.004758747               0.000357906              -0.000686142               0.001814947               0.001128805               0.000000000               0.000000000               0.000000000               0.000000000              -0.000111514               0.004526235               0.000185753              -0.000607595               0.001711262               0.001103666               0.000000000               0.000000000               0.000000000               0.000000000              -0.000062499               0.004417024               0.000102945              -0.000575563               0.001664181               0.001088617               0.000000000               0.000000000               0.000000000               0.000000000               0.002380202               0.014572399              -0.004503883              -0.000928976               0.005167075               0.004238099               0.000000000               0.000000000               0.000000000               0.000000000               0.000436627               0.012810907              -0.002269002              -0.001437626               0.004749468               0.003311842               0.000000000               0.000000000               0.000000000               0.000000000              -0.000917859               0.011882351              -0.000175671              -0.001829486               0.004570573               0.002741086               0.000000000               0.000000000               0.000000000               0.000000000              -0.001510761               0.010936576               0.000511047              -0.001933603               0.004290023               0.002356421               0.000000000               0.000000000               0.000000000               0.000000000              -0.001743551               0.010081249               0.000727096              -0.001913983               0.003998377               0.002084394               0.000000000               0.000000000               0.000000000               0.000000000              -0.001800352               0.009320170               0.000784159              -0.001840149               0.003720075               0.001879926               0.000000000               0.000000000               0.000000000               0.000000000              -0.001750071               0.008629969               0.000790682              -0.001735019               0.003454967               0.001719949               0.000000000               0.000000000               0.000000000               0.000000000              -0.001628414               0.007992958               0.000769332              -0.001609771               0.003200883               0.001591112               0.000000000               0.000000000               0.000000000               0.000000000              -0.001463720               0.007389917               0.000720041              -0.001472631               0.002954158               0.001481527               0.000000000               0.000000000               0.000000000               0.000000000              -0.001266461               0.006830279               0.000659188              -0.001328705               0.002719638               0.001390934               0.000000000               0.000000000               0.000000000               0.000000000              -0.001051101               0.006321580               0.000593953              -0.001184358               0.002501958               0.001317600               0.000000000               0.000000000               0.000000000               0.000000000              -0.000827574               0.005868085               0.000518584              -0.001043849               0.002303958               0.001260110               0.000000000               0.000000000               0.000000000               0.000000000              -0.000605578               0.005479415               0.000427967              -0.000912016               0.002130459               0.001218442               0.000000000               0.000000000               0.000000000               0.000000000              -0.000404774               0.005160025               0.000320087              -0.000796792               0.001985588               0.001188797               0.000000000               0.000000000               0.000000000               0.000000000              -0.000236919               0.004917627               0.000207771              -0.000703546               0.001873708               0.001170162               0.000000000               0.000000000               0.000000000               0.000000000              -0.000102660               0.004766498               0.000102231              -0.000634308               0.001800253               0.001165945               0.000000000               0.000000000               0.000000000               0.000000000              -0.000051259               0.004707180               0.000055226              -0.000607618               0.001771584               0.001163966               0.000000000               0.000000000               0.000000000               0.000000000               0.001726676               0.011692761              -0.004078723              -0.000814093               0.004168911               0.003354818               0.000000000               0.000000000               0.000000000               0.000000000              -0.000393614               0.011093602              -0.002218066              -0.001534303               0.004209264               0.002674961               0.000000000               0.000000000               0.000000000               0.000000000              -0.001985968               0.011090468              -0.000478464              -0.002131041               0.004407133               0.002276092               0.000000000               0.000000000               0.000000000               0.000000000              -0.002450811               0.010469186               0.000076437              -0.002227697               0.004232259               0.002004562               0.000000000               0.000000000               0.000000000               0.000000000              -0.002492939               0.009746839               0.000267068              -0.002153202               0.003966648               0.001813446               0.000000000               0.000000000               0.000000000               0.000000000              -0.002367400               0.009037811               0.000341560              -0.002017496               0.003685072               0.001667576               0.000000000               0.000000000               0.000000000               0.000000000              -0.002160155               0.008364134               0.000378881              -0.001855570               0.003406540               0.001550970               0.000000000               0.000000000               0.000000000               0.000000000              -0.001903316               0.007731410               0.000390316              -0.001680166               0.003137166               0.001457000               0.000000000               0.000000000               0.000000000               0.000000000              -0.001619755               0.007142734               0.000371147              -0.001500246               0.002880969               0.001380723               0.000000000               0.000000000               0.000000000               0.000000000              -0.001326529               0.006609585               0.000341521              -0.001323643               0.002644387               0.001320744               0.000000000               0.000000000               0.000000000               0.000000000              -0.001039503               0.006143535               0.000308342              -0.001157753               0.002433742               0.001275990               0.000000000               0.000000000               0.000000000               0.000000000              -0.000771034               0.005746346               0.000266050              -0.001007428               0.002251239               0.001243810               0.000000000               0.000000000               0.000000000               0.000000000              -0.000528729               0.005421384               0.000212736              -0.000875944               0.002099091               0.001223147               0.000000000               0.000000000               0.000000000               0.000000000              -0.000328127               0.005173659               0.000146578              -0.000769753               0.001981120               0.001211367               0.000000000               0.000000000               0.000000000               0.000000000              -0.000176205               0.005005918               0.000082903              -0.000691815               0.001899228               0.001207413               0.000000000               0.000000000               0.000000000               0.000000000              -0.000070397               0.004912055               0.000036444              -0.000640404               0.001850803               0.001210399               0.000000000               0.000000000               0.000000000               0.000000000              -0.000032453               0.004879587               0.000019745              -0.000622117               0.001833885               0.001211768               0.000000000               0.000000000               0.000000000               0.000000000               0.000739487               0.009020681              -0.003360037              -0.000850278               0.003290288               0.002440010               0.000000000               0.000000000               0.000000000               0.000000000              -0.001320039               0.009511149              -0.002098322              -0.001683905               0.003731653               0.002047747               0.000000000               0.000000000               0.000000000               0.000000000              -0.002898301               0.010258987              -0.000881124              -0.002369230               0.004209372               0.001840141               0.000000000               0.000000000               0.000000000               0.000000000              -0.003130705               0.009884594              -0.000446234              -0.002409583               0.004098026               0.001688443               0.000000000               0.000000000               0.000000000               0.000000000              -0.002959889               0.009271218              -0.000246440              -0.002268855               0.003846660               0.001577805               0.000000000               0.000000000               0.000000000               0.000000000              -0.002662536               0.008615203              -0.000133506              -0.002075346               0.003563487               0.001488141               0.000000000               0.000000000               0.000000000               0.000000000              -0.002314507               0.007973834              -0.000052359              -0.001864665               0.003279473               0.001414808               0.000000000               0.000000000               0.000000000               0.000000000              -0.001942453               0.007367446               0.000005212              -0.001649346               0.003005573               0.001356227               0.000000000               0.000000000               0.000000000               0.000000000              -0.001560772               0.006811311               0.000032476              -0.001436700               0.002749314               0.001312614               0.000000000               0.000000000               0.000000000               0.000000000              -0.001192625               0.006326607               0.000049517              -0.001238057               0.002521533               0.001283476               0.000000000               0.000000000               0.000000000               0.000000000              -0.000859375               0.005917485               0.000062298              -0.001061949               0.002326458               0.001264509               0.000000000               0.000000000               0.000000000               0.000000000              -0.000577699               0.005580802               0.000062153              -0.000914235               0.002164994               0.001250759               0.000000000               0.000000000               0.000000000               0.000000000              -0.000353857               0.005318262               0.000050792              -0.000797477               0.002038562               0.001241085               0.000000000               0.000000000               0.000000000               0.000000000              -0.000189433               0.005134787               0.000031304              -0.000712884               0.001949206               0.001236323               0.000000000               0.000000000               0.000000000               0.000000000              -0.000080676               0.005027975               0.000010999              -0.000658749               0.001895558               0.001236809               0.000000000               0.000000000               0.000000000               0.000000000              -0.000023299               0.004977768               0.000001482              -0.000630956               0.001869558               0.001238602               0.000000000               0.000000000               0.000000000               0.000000000              -0.000008963               0.004962406               0.000001258              -0.000623660               0.001862006               0.001238345               0.000000000               0.000000000               0.000000000               0.000000000              -0.000437170               0.006755602              -0.002470222              -0.001008388               0.002587973               0.001579585               0.000000000               0.000000000               0.000000000               0.000000000              -0.002224238               0.008093756              -0.001958539              -0.001845805               0.003313159               0.001467354               0.000000000               0.000000000               0.000000000               0.000000000              -0.003608021               0.009426405              -0.001358561              -0.002531302               0.003985871               0.001454569               0.000000000               0.000000000               0.000000000               0.000000000              -0.003591639               0.009307874              -0.000998750              -0.002510343               0.003939375               0.001429032               0.000000000               0.000000000               0.000000000               0.000000000              -0.003241293               0.008831116              -0.000764241              -0.002319369               0.003716799               0.001397430               0.000000000               0.000000000               0.000000000               0.000000000              -0.002807465               0.008260759              -0.000598920              -0.002085389               0.003448689               0.001363299               0.000000000               0.000000000               0.000000000               0.000000000              -0.002350326               0.007683322              -0.000470339              -0.001841783               0.003175009               0.001333226               0.000000000               0.000000000               0.000000000               0.000000000              -0.001888210               0.007127044              -0.000366655              -0.001598955               0.002908643               0.001309687               0.000000000               0.000000000               0.000000000               0.000000000              -0.001432770               0.006616831              -0.000285306              -0.001364389               0.002660385               0.001295995               0.000000000               0.000000000               0.000000000               0.000000000              -0.001008934               0.006179058              -0.000213529              -0.001150730               0.002443242               0.001292512               0.000000000               0.000000000               0.000000000               0.000000000              -0.000648559               0.005809756              -0.000149653              -0.000969427               0.002259708               0.001290281               0.000000000               0.000000000               0.000000000               0.000000000              -0.000368580               0.005503840              -0.000099744              -0.000826195               0.002109993               0.001283798               0.000000000               0.000000000               0.000000000               0.000000000              -0.000172855               0.005269744              -0.000062331              -0.000723537               0.001997743               0.001274206               0.000000000               0.000000000               0.000000000               0.000000000              -0.000050504               0.005113644              -0.000035229              -0.000658143               0.001923912               0.001265769               0.000000000               0.000000000               0.000000000               0.000000000               0.000010425               0.005028566              -0.000016298              -0.000624660               0.001884392               0.001259732               0.000000000               0.000000000               0.000000000               0.000000000               0.000023965               0.004996516              -0.000004771              -0.000615576               0.001870681               0.001255105               0.000000000               0.000000000               0.000000000               0.000000000               0.000018851               0.004987688               0.000000293              -0.000616390               0.001868009               0.001251619               0.000000000               0.000000000               0.000000000               0.000000000              -0.001825389               0.004656217              -0.001524010              -0.001266546               0.001974238               0.000707693               0.000000000               0.000000000               0.000000000               0.000000000              -0.002985086               0.006461467              -0.001799595              -0.001927086               0.002796162               0.000869076               0.000000000               0.000000000               0.000000000               0.000000000              -0.004029322               0.008213614              -0.001857544              -0.002537692               0.003583741               0.001046049               0.000000000               0.000000000               0.000000000               0.000000000              -0.003874571               0.008478082              -0.001584752              -0.002512718               0.003663572               0.001150853               0.000000000               0.000000000               0.000000000               0.000000000              -0.003443672               0.008268329              -0.001319392              -0.002324913               0.003531053               0.001206140               0.000000000               0.000000000               0.000000000               0.000000000              -0.002959862               0.007890742              -0.001099705              -0.002096286               0.003328983               0.001232697               0.000000000               0.000000000               0.000000000               0.000000000              -0.002469313               0.007462811              -0.000926028              -0.001858839               0.003107192               0.001248353               0.000000000               0.000000000               0.000000000               0.000000000              -0.001983844               0.007035125              -0.000779899              -0.001623328               0.002886127               0.001262799               0.000000000               0.000000000               0.000000000               0.000000000              -0.001510529               0.006625069              -0.000648751              -0.001394579               0.002673194               0.001278615               0.000000000               0.000000000               0.000000000               0.000000000              -0.001067263               0.006248694              -0.000525031              -0.001181308               0.002476646               0.001295339               0.000000000               0.000000000               0.000000000               0.000000000              -0.000679551               0.005916223              -0.000408954              -0.000994357               0.002303507               0.001309150               0.000000000               0.000000000               0.000000000               0.000000000              -0.000369624               0.005623813              -0.000301236              -0.000841583               0.002155113               0.001313530               0.000000000               0.000000000               0.000000000               0.000000000              -0.000148945               0.005381979              -0.000203994              -0.000728600               0.002036842               0.001308242               0.000000000               0.000000000               0.000000000               0.000000000              -0.000012190               0.005197743              -0.000124137              -0.000654287               0.001950659               0.001296372               0.000000000               0.000000000               0.000000000               0.000000000               0.000058595               0.005080214              -0.000060215              -0.000613052               0.001897738               0.001284686               0.000000000               0.000000000               0.000000000               0.000000000               0.000076327               0.005021871              -0.000017041              -0.000599110               0.001873643               0.001274534               0.000000000               0.000000000               0.000000000               0.000000000               0.000068190               0.004998754              -0.000001302              -0.000599272               0.001865992               0.001266720               0.000000000               0.000000000               0.000000000               0.000000000              -0.003609678               0.002754391              -0.000594360              -0.001697925               0.001484095              -0.000213830               0.000000000               0.000000000               0.000000000               0.000000000              -0.003847538               0.004814596              -0.001566139              -0.002044647               0.002286397               0.000241751               0.000000000               0.000000000               0.000000000               0.000000000              -0.004359201               0.006789024              -0.002251479              -0.002483323               0.003090759               0.000607436               0.000000000               0.000000000               0.000000000               0.000000000              -0.004073398               0.007423981              -0.002142281              -0.002455516               0.003293140               0.000837624               0.000000000               0.000000000               0.000000000               0.000000000              -0.003592810               0.007524285              -0.001887488              -0.002287834               0.003270681               0.000982847               0.000000000               0.000000000               0.000000000               0.000000000              -0.003081750               0.007388915              -0.001636195              -0.002079266               0.003156035               0.001076769               0.000000000               0.000000000               0.000000000               0.000000000              -0.002576410               0.007157433              -0.001422197              -0.001860829               0.003006063               0.001145234               0.000000000               0.000000000               0.000000000               0.000000000              -0.002085822               0.006883568              -0.001238361              -0.001642625               0.002842041               0.001199416               0.000000000               0.000000000               0.000000000               0.000000000              -0.001612996               0.006592087              -0.001070412              -0.001428881               0.002673634               0.001244753               0.000000000               0.000000000               0.000000000               0.000000000              -0.001161112               0.006298390              -0.000907894              -0.001222713               0.002507013               0.001284300               0.000000000               0.000000000               0.000000000               0.000000000              -0.000745681               0.006017747              -0.000749371              -0.001031846               0.002349844               0.001317998               0.000000000               0.000000000               0.000000000               0.000000000              -0.000391052               0.005753777              -0.000589570              -0.000865864               0.002206528               0.001340663               0.000000000               0.000000000               0.000000000               0.000000000              -0.000113528               0.005515767              -0.000434061              -0.000732042               0.002082584               0.001350542               0.000000000               0.000000000               0.000000000               0.000000000               0.000074837               0.005311284              -0.000293280              -0.000635845               0.001982359               0.001346514               0.000000000               0.000000000               0.000000000               0.000000000               0.000178457               0.005155714              -0.000167969              -0.000577542               0.001911068               0.001333526               0.000000000               0.000000000               0.000000000               0.000000000               0.000209737               0.005055500              -0.000066722              -0.000553285               0.001869578               0.001316293               0.000000000               0.000000000               0.000000000               0.000000000               0.000198498               0.005013484              -0.000022457              -0.000552247               0.001855227               0.001302980               0.000000000               0.000000000               0.000000000               0.000000000              -0.005653238               0.001195636               0.000231933              -0.002269416               0.001155010              -0.001114406               0.000000000               0.000000000               0.000000000               0.000000000              -0.004857665               0.003253746              -0.001241762              -0.002228338               0.001827349              -0.000400990               0.000000000               0.000000000               0.000000000               0.000000000              -0.004629541               0.005174854              -0.002422503              -0.002382930               0.002519243               0.000136313               0.000000000               0.000000000               0.000000000               0.000000000              -0.004129806               0.006072195              -0.002521022              -0.002307697               0.002793276               0.000485579               0.000000000               0.000000000               0.000000000               0.000000000              -0.003583415               0.006455967              -0.002333917              -0.002150772               0.002868891               0.000718119               0.000000000               0.000000000               0.000000000               0.000000000              -0.003046967               0.006578162              -0.002091938              -0.001964879               0.002847658               0.000882779               0.000000000               0.000000000               0.000000000               0.000000000              -0.002539287               0.006563508              -0.001862354              -0.001772667               0.002778703               0.001006035               0.000000000               0.000000000               0.000000000               0.000000000              -0.002050698               0.006472697              -0.001655975              -0.001578095               0.002683576               0.001105480               0.000000000               0.000000000               0.000000000               0.000000000              -0.001583880               0.006331662              -0.001464589              -0.001385410               0.002572336               0.001186926               0.000000000               0.000000000               0.000000000               0.000000000              -0.001135344               0.006154441              -0.001282325              -0.001195057               0.002449812               0.001254755               0.000000000               0.000000000               0.000000000               0.000000000              -0.000709716               0.005956795              -0.001100721              -0.001010741               0.002322492               0.001311751               0.000000000               0.000000000               0.000000000               0.000000000              -0.000323074               0.005751092              -0.000913144              -0.000840037               0.002197024               0.001356986               0.000000000               0.000000000               0.000000000               0.000000000               0.000010520               0.005548785              -0.000720389              -0.000689652               0.002079460               0.001389808               0.000000000               0.000000000               0.000000000               0.000000000               0.000267093               0.005358748              -0.000526089              -0.000569682               0.001976125               0.001406443               0.000000000               0.000000000               0.000000000               0.000000000               0.000427430               0.005196227              -0.000334677              -0.000489241               0.001895139               0.001405898               0.000000000               0.000000000               0.000000000               0.000000000               0.000490492               0.005078732              -0.000156734              -0.000450906               0.001843196               0.001392290               0.000000000               0.000000000               0.000000000               0.000000000               0.000483662               0.005025376              -0.000069268              -0.000446797               0.001824041               0.001377244               0.000000000               0.000000000               0.000000000               0.000000000              -0.007811231               0.000073099               0.000838243              -0.002938347               0.001003808              -0.001934538               0.000000000               0.000000000               0.000000000               0.000000000              -0.005955571               0.001879874              -0.000877474              -0.002468320               0.001449388              -0.001018932               0.000000000               0.000000000               0.000000000               0.000000000              -0.004868890               0.003522224              -0.002343286              -0.002266108               0.001929430              -0.000336678               0.000000000               0.000000000               0.000000000               0.000000000              -0.004072427               0.004540551              -0.002626982              -0.002094725               0.002211742               0.000117017               0.000000000               0.000000000               0.000000000               0.000000000              -0.003425442               0.005147586              -0.002541349              -0.001927985               0.002358506               0.000430520               0.000000000               0.000000000               0.000000000               0.000000000              -0.002858462               0.005506490              -0.002347655              -0.001760231               0.002422221               0.000661990               0.000000000               0.000000000               0.000000000               0.000000000              -0.002347995               0.005707387              -0.002134746              -0.001593919               0.002433749               0.000839830               0.000000000               0.000000000               0.000000000               0.000000000              -0.001876478               0.005803052              -0.001930109              -0.001429058               0.002410683               0.000981626               0.000000000               0.000000000               0.000000000               0.000000000              -0.001422686               0.005824063              -0.001737601              -0.001261513               0.002361839               0.001100326               0.000000000               0.000000000               0.000000000               0.000000000              -0.000979754               0.005788167              -0.001555822              -0.001090926               0.002293011               0.001202085               0.000000000               0.000000000               0.000000000               0.000000000              -0.000547628               0.005709896              -0.001373264              -0.000919096               0.002209645               0.001290549               0.000000000               0.000000000               0.000000000               0.000000000              -0.000135291               0.005597794              -0.001184398              -0.000750457               0.002116065               0.001365608               0.000000000               0.000000000               0.000000000               0.000000000               0.000247831               0.005464953              -0.000983478              -0.000590181               0.002018360               0.001428178               0.000000000               0.000000000               0.000000000               0.000000000               0.000581427               0.005330618              -0.000760901              -0.000448291               0.001926285               0.001477994               0.000000000               0.000000000               0.000000000               0.000000000               0.000836106               0.005203315              -0.000518167              -0.000336874               0.001846712               0.001509838               0.000000000               0.000000000               0.000000000               0.000000000               0.000985020               0.005094250              -0.000262485              -0.000267398               0.001787199               0.001519801               0.000000000               0.000000000               0.000000000               0.000000000               0.001023898               0.005042091              -0.000131112              -0.000246299               0.001762780               0.001516481               0.000000000               0.000000000               0.000000000               0.000000000              -0.009885698              -0.000628495               0.001118638              -0.003628572               0.001000019              -0.002628554               0.000000000               0.000000000               0.000000000               0.000000000              -0.007044114               0.000774683              -0.000536694              -0.002738375               0.001171011              -0.001567364               0.000000000               0.000000000               0.000000000               0.000000000              -0.005087744               0.001991145              -0.002014217              -0.002156794               0.001382636              -0.000774158               0.000000000               0.000000000               0.000000000               0.000000000              -0.003948471               0.003006208              -0.002400647              -0.001856449               0.001620874              -0.000235576               0.000000000               0.000000000               0.000000000               0.000000000              -0.003165004               0.003760930              -0.002407812              -0.001656990               0.001805959               0.000148970               0.000000000               0.000000000               0.000000000               0.000000000              -0.002554278               0.004300719              -0.002282952              -0.001495441               0.001932038               0.000436597               0.000000000               0.000000000               0.000000000               0.000000000              -0.002038122               0.004679649              -0.002115742              -0.001349250               0.002009617               0.000660367               0.000000000               0.000000000               0.000000000               0.000000000              -0.001577533               0.004945551              -0.001942132              -0.001209767               0.002051755               0.000841989               0.000000000               0.000000000               0.000000000               0.000000000              -0.001140310               0.005128784              -0.001775951              -0.001068712               0.002065814               0.000997102               0.000000000               0.000000000               0.000000000               0.000000000              -0.000708766               0.005246095              -0.001617653              -0.000921548               0.002055863               0.001134315               0.000000000               0.000000000               0.000000000               0.000000000              -0.000274814               0.005305983              -0.001458522              -0.000766302               0.002024077               0.001257775               0.000000000               0.000000000               0.000000000               0.000000000               0.000158999               0.005312663              -0.001292799              -0.000604458               0.001972356               0.001367898               0.000000000               0.000000000               0.000000000               0.000000000               0.000583895               0.005282012              -0.001110394              -0.000441290               0.001907750               0.001466459               0.000000000               0.000000000               0.000000000               0.000000000               0.000993856               0.005231747              -0.000897091              -0.000281272               0.001837656               0.001556383               0.000000000               0.000000000               0.000000000               0.000000000               0.001374122               0.005166341              -0.000645553              -0.000130497               0.001765595               0.001635099               0.000000000               0.000000000               0.000000000               0.000000000               0.001690011               0.005087803              -0.000344814              -0.000002222               0.001696658               0.001694436               0.000000000               0.000000000               0.000000000               0.000000000               0.001858107               0.005056527              -0.000186863               0.000064723               0.001663918               0.001728641               0.000000000               0.000000000               0.000000000               0.000000000              -0.011631869              -0.001003152               0.001024280              -0.004236554               0.001077793              -0.003158761               0.000000000               0.000000000               0.000000000               0.000000000              -0.007989992              -0.000020987              -0.000273854              -0.002993621               0.000990871              -0.002002750               0.000000000               0.000000000               0.000000000               0.000000000              -0.005279782               0.000753161              -0.001468510              -0.002074061               0.000942400              -0.001131661               0.000000000               0.000000000               0.000000000               0.000000000              -0.003808465               0.001687283              -0.001837169              -0.001639082               0.001108780              -0.000530302               0.000000000               0.000000000               0.000000000               0.000000000              -0.002879293               0.002507726              -0.001895201              -0.001393198               0.001300298              -0.000092900               0.000000000               0.000000000               0.000000000               0.000000000              -0.002217757               0.003167678              -0.001831634              -0.001227617               0.001465087               0.000237470               0.000000000               0.000000000               0.000000000               0.000000000              -0.001689426               0.003679285              -0.001723787              -0.001093443               0.001590897               0.000497453               0.000000000               0.000000000               0.000000000               0.000000000              -0.001227636               0.004076355              -0.001604599              -0.000969906               0.001682073               0.000712167               0.000000000               0.000000000               0.000000000               0.000000000              -0.000798918               0.004391966              -0.001486527              -0.000848589               0.001746836               0.000898248               0.000000000               0.000000000               0.000000000               0.000000000              -0.000378579               0.004641814              -0.001373347              -0.000722193               0.001787986               0.001065794               0.000000000               0.000000000               0.000000000               0.000000000               0.000052704               0.004830706              -0.001259168              -0.000584073               0.001804910               0.001220837               0.000000000               0.000000000               0.000000000               0.000000000               0.000498932               0.004958750              -0.001133502              -0.000432744               0.001797148               0.001364404               0.000000000               0.000000000               0.000000000               0.000000000               0.000964071               0.005042948              -0.000990177              -0.000268842               0.001770580               0.001501738               0.000000000               0.000000000               0.000000000               0.000000000               0.001457000               0.005092452              -0.000824147              -0.000090182               0.001727527               0.001637346               0.000000000               0.000000000               0.000000000               0.000000000               0.001976777               0.005100423              -0.000618797               0.000103737               0.001665545               0.001769282               0.000000000               0.000000000               0.000000000               0.000000000               0.002511965               0.005064642              -0.000345135               0.000308903               0.001585229               0.001894133               0.000000000               0.000000000               0.000000000               0.000000000               0.002881957               0.005072056              -0.000200927               0.000446722               0.001541761               0.001988483               0.000000000               0.000000000               0.000000000               0.000000000              -0.012801206              -0.001166646               0.000603989              -0.004654619               0.001162650              -0.003491969               0.000000000               0.000000000               0.000000000               0.000000000              -0.008641998              -0.000496809              -0.000106837              -0.003178646               0.000893940              -0.002284706               0.000000000               0.000000000               0.000000000               0.000000000              -0.005417907              -0.000051805              -0.000772280              -0.002025238               0.000657806              -0.001367432               0.000000000               0.000000000               0.000000000               0.000000000              -0.003701131               0.000794204              -0.000996727              -0.001487198               0.000760462              -0.000726736               0.000000000               0.000000000               0.000000000               0.000000000              -0.002660762               0.001630934              -0.001046067              -0.001201650               0.000944188              -0.000257462               0.000000000               0.000000000               0.000000000               0.000000000              -0.001952752               0.002351151              -0.001023027              -0.001026174               0.001125767               0.000099593               0.000000000               0.000000000               0.000000000               0.000000000              -0.001409358               0.002942808              -0.000973734              -0.000896358               0.001279712               0.000383354               0.000000000               0.000000000               0.000000000               0.000000000              -0.000945434               0.003426549              -0.000915271              -0.000782855               0.001403123               0.000620268               0.000000000               0.000000000               0.000000000               0.000000000              -0.000517096               0.003824951              -0.000855026              -0.000672029               0.001498980               0.000826952               0.000000000               0.000000000               0.000000000               0.000000000              -0.000097678               0.004158400              -0.000798845              -0.000556428               0.001571595               0.001015167               0.000000000               0.000000000               0.000000000               0.000000000               0.000331770               0.004436106              -0.000740618              -0.000430099               0.001622053               0.001191954               0.000000000               0.000000000               0.000000000               0.000000000               0.000786516               0.004650876              -0.000671631              -0.000286416               0.001645748               0.001359333               0.000000000               0.000000000               0.000000000               0.000000000               0.001288980               0.004817880              -0.000592556              -0.000118868               0.001645566               0.001526699               0.000000000               0.000000000               0.000000000               0.000000000               0.001853538               0.004942478              -0.000500611               0.000077266               0.001621721               0.001698987               0.000000000               0.000000000               0.000000000               0.000000000               0.002488550               0.005013978              -0.000384417               0.000306456               0.001569157               0.001875613               0.000000000               0.000000000               0.000000000               0.000000000               0.003212354               0.005025992              -0.000220069               0.000576378               0.001483188               0.002059566               0.000000000               0.000000000               0.000000000               0.000000000               0.003767951               0.005075291              -0.000133453               0.000778563               0.001432226               0.002210789               0.000000000               0.000000000               0.000000000               0.000000000               0.000000000               0.000000000               0.000000000               0.000000000               0.000000000               0.000000000               0.000000000               0.000000000               0.000000000               0.000000000               0.000000000               0.000000000               0.000000000               0.000000000               0.000000000               0.000000000               0.000000000               0.000000000               0.000000000               0.000000000               0.000000000               0.000000000               0.000000000               0.000000000               0.000000000               0.000000000               0.000000000               0.000000000               0.000000000               0.000000000               0.000000000               0.000000000               0.000000000               0.000000000               0.000000000               0.000000000               0.000000000               0.000000000               0.000000000               0.000000000               0.000000000               0.000000000               0.000000000               0.000000000               0.000000000               0.000000000               0.000000000               0.000000000               0.000000000               0.000000000               0.000000000               0.000000000               0.000000000               0.000000000               0.000000000               0.000000000               0.000000000               0.000000000               0.000000000               0.000000000               0.000000000               0.000000000               0.000000000               0.000000000               0.000000000               0.000000000               0.000000000               0.000000000               0.000000000               0.000000000               0.000000000               0.000000000               0.000000000               0.000000000               0.000000000               0.000000000               0.000000000               0.000000000               0.000000000               0.000000000               0.000000000               0.000000000               0.000000000               0.000000000               0.000000000               0.000000000               0.000000000               0.000000000               0.000000000               0.000000000               0.000000000               0.000000000               0.000000000               0.000000000               0.000000000               0.000000000               0.000000000               0.000000000               0.000000000               0.000000000               0.000000000               0.000000000               0.000000000               0.000000000               0.000000000               0.000000000               0.000000000               0.000000000               0.000000000               0.000000000               0.000000000               0.000000000               0.000000000               0.000000000               0.000000000               0.000000000               0.000000000               0.000000000               0.000000000               0.000000000               0.000000000               0.000000000               0.000000000               0.000000000               0.000000000               0.000000000               0.000000000               0.000000000               0.000000000               0.000000000               0.000000000               0.000000000               0.000000000               0.000000000               0.000000000               0.000000000               0.000000000               0.000000000               0.000000000               0.000000000               0.000000000               0.000000000               0.000000000               0.000000000               0.000000000               0.000000000               0.000000000               0.000000000               0.000000000               0.000000000               0.000000000               0.000000000               0.000000000               0.000000000               0.000000000               0.000000000               0.000000000               0.000000000               0.000000000               0.000000000               0.000000000               0.000000000               0.000000000               0.000000000               0.000000000               0.000000000               0.000000000               0.000000000               0.000000000               0.000000000               0.000000000               0.000000000               0.000000000               0.000000000               0.000000000               0.000000000               0.000000000               0.000000000               0.000000000               0.000000000               0.000000000               0.000000000               0.000000000               0.000000000               0.000000000               0.000000000               0.000000000               0.000000000               0.000000000               0.000000000               0.000000000               0.000000000               0.000000000               0.000000000               0.000000000               0.000000000               0.000000000               0.000000000               0.000000000               0.000000000               0.000000000               0.000000000               0.000000000               0.000000000               0.000000000               0.000000000               0.000000000               0.000000000               0.000000000               0.000000000               0.000000000               0.000000000               0.000000000               0.000000000               0.000000000               0.000000000               0.000000000               0.000000000               0.000000000               0.000000000               0.000000000               0.000000000               0.000000000               0.000000000               0.000000000               0.000000000               0.000000000               0.000000000               0.000000000               0.000000000               0.000000000               0.000000000               0.000000000               0.000000000               0.000000000               0.000000000               0.000000000               0.000000000               0.000000000               0.000000000               0.000000000               0.000000000               0.000000000               0.000000000               0.000000000               0.000000000               0.000000000               0.000000000               0.000000000               0.000000000               0.000000000               0.000000000               0.000000000               0.000000000               0.000000000               0.000000000               0.000000000               0.000000000               0.000000000               0.000000000               0.000000000               0.000000000               0.000000000               0.000000000               0.000000000               0.000000000               0.000000000               0.000000000               0.000000000               0.000000000               0.000000000               0.000000000               0.000000000               0.000000000               0.000000000               0.000000000               0.000000000               0.000000000               0.000000000               0.000000000               0.000000000               0.000000000               0.000000000               0.000000000               0.000000000               0.000000000               0.000000000               0.000000000               0.000000000               0.000000000               0.000000000               0.000000000               0.000000000               0.000000000               0.000000000               0.000000000               0.000000000               0.000000000               0.000000000               0.000000000               0.000000000               0.000000000               0.000000000               0.000000000               0.000000000               0.000000000               0.000000000               0.000000000               0.000000000               0.000000000               0.000000000               0.000000000               0.000000000               0.000000000               0.000000000               0.000000000               0.000000000               0.000000000               0.000000000               0.000000000               0.000000000               0.000000000               0.000000000               0.000000000               0.000000000               0.000000000               0.000000000               0.000000000               0.000000000               0.000000000               0.000000000               0.000000000               0.000000000               0.000000000               0.000000000               0.000000000               0.000000000               0.000000000               0.000000000               0.000000000               0.002324248               0.023856087               0.001646436              -0.002110413               0.008655421               0.006545007               0.000000000               0.000000000               0.000000000               0.000000000               0.002131844               0.018548293               0.000789122              -0.001519091               0.006689066               0.005169975               0.000000000               0.000000000               0.000000000               0.000000000               0.002644325               0.014265692              -0.000058495              -0.000791588               0.005019046               0.004227458               0.000000000               0.000000000               0.000000000               0.000000000               0.002419104               0.011829270              -0.000406981              -0.000571494               0.004133548               0.003562055               0.000000000               0.000000000               0.000000000               0.000000000               0.002001279               0.010267383              -0.000542389              -0.000532942               0.003600074               0.003067132               0.000000000               0.000000000               0.000000000               0.000000000               0.001568588               0.009167999              -0.000587589              -0.000557778               0.003241895               0.002684117               0.000000000               0.000000000               0.000000000               0.000000000               0.001178435               0.008336605              -0.000591663              -0.000600161               0.002978894               0.002378733               0.000000000               0.000000000               0.000000000               0.000000000               0.000835857               0.007666315              -0.000578218              -0.000644842               0.002770360               0.002125518               0.000000000               0.000000000               0.000000000               0.000000000               0.000539347               0.007089816              -0.000553962              -0.000683970               0.002591238               0.001907268               0.000000000               0.000000000               0.000000000               0.000000000               0.000301198               0.006562861              -0.000521626              -0.000707407               0.002423400               0.001715994               0.000000000               0.000000000               0.000000000               0.000000000               0.000115495               0.006056846              -0.000488482              -0.000713794               0.002256860               0.001543066               0.000000000               0.000000000               0.000000000               0.000000000              -0.000023808               0.005551867              -0.000451478              -0.000702910               0.002084907               0.001381997               0.000000000               0.000000000               0.000000000               0.000000000              -0.000112887               0.005031719              -0.000407928              -0.000671296               0.001900988               0.001229692               0.000000000               0.000000000               0.000000000               0.000000000              -0.000154671               0.004479379              -0.000349092              -0.000617922               0.001699085               0.001081163               0.000000000               0.000000000               0.000000000               0.000000000              -0.000148656               0.003877905              -0.000263645              -0.000540483               0.001472783               0.000932300               0.000000000               0.000000000               0.000000000               0.000000000              -0.000088682               0.003212060              -0.000145862              -0.000434762               0.001215597               0.000780834               0.000000000               0.000000000               0.000000000               0.000000000              -0.000099483               0.002709395              -0.000089135              -0.000375980               0.001028449               0.000652470               0.000000000               0.000000000               0.000000000               0.000000000               0.002499644               0.022392915               0.003051468              -0.001861745               0.008084812               0.006223067               0.000000000               0.000000000               0.000000000               0.000000000               0.001955544               0.017623573               0.001459695              -0.001469614               0.006364337               0.004894723               0.000000000               0.000000000               0.000000000               0.000000000               0.002088870               0.013888531              -0.000099975              -0.000952738               0.004947043               0.003994305               0.000000000               0.000000000               0.000000000               0.000000000               0.001730983               0.011729252              -0.000718840              -0.000817036               0.004182057               0.003365021               0.000000000               0.000000000               0.000000000               0.000000000               0.001298292               0.010309271              -0.000950140              -0.000801798               0.003703655               0.002901857               0.000000000               0.000000000               0.000000000               0.000000000               0.000898333               0.009286573              -0.001020940              -0.000823945               0.003370142               0.002546196               0.000000000               0.000000000               0.000000000               0.000000000               0.000558379               0.008497053              -0.001023511              -0.000852738               0.003116569               0.002263831               0.000000000               0.000000000               0.000000000               0.000000000               0.000285031               0.007847952              -0.000995104              -0.000874105               0.002907326               0.002033221               0.000000000               0.000000000               0.000000000               0.000000000               0.000070125               0.007271235              -0.000947348              -0.000882606               0.002717922               0.001835317               0.000000000               0.000000000               0.000000000               0.000000000              -0.000088578               0.006732184              -0.000889356              -0.000874738               0.002535618               0.001660880               0.000000000               0.000000000               0.000000000               0.000000000              -0.000195543               0.006213545              -0.000830390              -0.000850020               0.002354501               0.001504481               0.000000000               0.000000000               0.000000000               0.000000000              -0.000252678               0.005703518              -0.000764656              -0.000807692               0.002170384               0.001362692               0.000000000               0.000000000               0.000000000               0.000000000              -0.000265397               0.005193729              -0.000684494              -0.000748739               0.001980805               0.001232067               0.000000000               0.000000000               0.000000000               0.000000000              -0.000238101               0.004680169              -0.000579322              -0.000674307               0.001784810               0.001110502               0.000000000               0.000000000               0.000000000               0.000000000              -0.000179884               0.004161633              -0.000433782              -0.000587659               0.001583084               0.000995424               0.000000000               0.000000000               0.000000000               0.000000000              -0.000098573               0.003640512              -0.000238204              -0.000492028               0.001377501               0.000885473               0.000000000               0.000000000               0.000000000               0.000000000              -0.000091097               0.003278528              -0.000142548              -0.000443976               0.001240824               0.000796847               0.000000000               0.000000000               0.000000000               0.000000000               0.002667196               0.020181947               0.004034727              -0.001522544               0.007234762               0.005712219               0.000000000               0.000000000               0.000000000               0.000000000               0.001629402               0.016232112               0.001933649              -0.001417986               0.005883311               0.004465326               0.000000000               0.000000000               0.000000000               0.000000000               0.001240211               0.013320000              -0.000096792              -0.001199918               0.004839928               0.003640010               0.000000000               0.000000000               0.000000000               0.000000000               0.000732011               0.011554868              -0.000860176              -0.001169852               0.004241535               0.003071683               0.000000000               0.000000000               0.000000000               0.000000000               0.000304944               0.010330169              -0.001126658              -0.001176914               0.003835660               0.002658745               0.000000000               0.000000000               0.000000000               0.000000000              -0.000023967               0.009407692              -0.001199962              -0.001184947               0.003530848               0.002345901               0.000000000               0.000000000               0.000000000               0.000000000              -0.000266561               0.008663865              -0.001196265              -0.001182941               0.003282240               0.002099299               0.000000000               0.000000000               0.000000000               0.000000000              -0.000433315               0.008024198              -0.001156123              -0.001165515               0.003063211               0.001897696               0.000000000               0.000000000               0.000000000               0.000000000              -0.000534594               0.007440611              -0.001092016              -0.001130547               0.002857028               0.001726481               0.000000000               0.000000000               0.000000000               0.000000000              -0.000577277               0.006887895              -0.001018507              -0.001077463               0.002655096               0.001577633               0.000000000               0.000000000               0.000000000               0.000000000              -0.000568406               0.006360471              -0.000944965              -0.001008209               0.002456205               0.001447997               0.000000000               0.000000000               0.000000000               0.000000000              -0.000520009               0.005854230              -0.000861190              -0.000926780               0.002260317               0.001333537               0.000000000               0.000000000               0.000000000               0.000000000              -0.000437994               0.005370976              -0.000759342              -0.000835618               0.002068847               0.001233229               0.000000000               0.000000000               0.000000000               0.000000000              -0.000330160               0.004916327              -0.000630050              -0.000738349               0.001884876               0.001146526               0.000000000               0.000000000               0.000000000               0.000000000              -0.000216967               0.004500094              -0.000461167              -0.000643873               0.001714641               0.001070768               0.000000000               0.000000000               0.000000000               0.000000000              -0.000109383               0.004142248              -0.000249103              -0.000558798               0.001567002               0.001008203               0.000000000               0.000000000               0.000000000               0.000000000              -0.000078443               0.003931302              -0.000144255              -0.000520828               0.001484030               0.000963203               0.000000000               0.000000000               0.000000000               0.000000000               0.002668016               0.017483179               0.004517254              -0.001184892               0.006222631               0.005037739               0.000000000               0.000000000               0.000000000               0.000000000               0.001122871               0.014566868               0.002193979              -0.001399780               0.005322167               0.003922387               0.000000000               0.000000000               0.000000000               0.000000000               0.000200870               0.012632197              -0.000013743              -0.001503695               0.004711922               0.003208227               0.000000000               0.000000000               0.000000000               0.000000000              -0.000403529               0.011293775              -0.000787020              -0.001563041               0.004285568               0.002722526               0.000000000               0.000000000               0.000000000               0.000000000              -0.000770408               0.010268427              -0.001038847              -0.001572453               0.003946926               0.002374473               0.000000000               0.000000000               0.000000000               0.000000000              -0.000982417               0.009439937              -0.001101392              -0.001548395               0.003662746               0.002114351               0.000000000               0.000000000               0.000000000               0.000000000              -0.001090655               0.008727078              -0.001094089              -0.001499877               0.003408956               0.001909079               0.000000000               0.000000000               0.000000000               0.000000000              -0.001119041               0.008090453              -0.001055867              -0.001430944               0.003173772               0.001742828               0.000000000               0.000000000               0.000000000               0.000000000              -0.001085783               0.007494623              -0.000992447              -0.001343993               0.002946180               0.001602187               0.000000000               0.000000000               0.000000000               0.000000000              -0.001002527               0.006932473              -0.000917469              -0.001242504               0.002724969               0.001482465               0.000000000               0.000000000               0.000000000               0.000000000              -0.000879821               0.006405290              -0.000840843              -0.001130592               0.002511939               0.001381347               0.000000000               0.000000000               0.000000000               0.000000000              -0.000731151               0.005916004              -0.000752351              -0.001013680               0.002309875               0.001296195               0.000000000               0.000000000               0.000000000               0.000000000              -0.000566211               0.005472722              -0.000643944              -0.000896417               0.002123028               0.001226611               0.000000000               0.000000000               0.000000000               0.000000000              -0.000397941               0.005082417              -0.000512190              -0.000784528               0.001955631               0.001171103               0.000000000               0.000000000               0.000000000               0.000000000              -0.000243467               0.004758747              -0.000357906              -0.000686142               0.001814947               0.001128805               0.000000000               0.000000000               0.000000000               0.000000000              -0.000111514               0.004526235              -0.000185753              -0.000607595               0.001711262               0.001103666               0.000000000               0.000000000               0.000000000               0.000000000              -0.000062499               0.004417024              -0.000102945              -0.000575563               0.001664181               0.001088617               0.000000000               0.000000000               0.000000000               0.000000000               0.002380202               0.014572399               0.004503883              -0.000928976               0.005167075               0.004238099               0.000000000               0.000000000               0.000000000               0.000000000               0.000436627               0.012810907               0.002269002              -0.001437626               0.004749468               0.003311842               0.000000000               0.000000000               0.000000000               0.000000000              -0.000917859               0.011882351               0.000175671              -0.001829486               0.004570573               0.002741086               0.000000000               0.000000000               0.000000000               0.000000000              -0.001510761               0.010936576              -0.000511047              -0.001933603               0.004290023               0.002356421               0.000000000               0.000000000               0.000000000               0.000000000              -0.001743551               0.010081249              -0.000727096              -0.001913983               0.003998377               0.002084394               0.000000000               0.000000000               0.000000000               0.000000000              -0.001800352               0.009320170              -0.000784159              -0.001840149               0.003720075               0.001879926               0.000000000               0.000000000               0.000000000               0.000000000              -0.001750071               0.008629969              -0.000790682              -0.001735019               0.003454967               0.001719949               0.000000000               0.000000000               0.000000000               0.000000000              -0.001628414               0.007992958              -0.000769332              -0.001609771               0.003200883               0.001591112               0.000000000               0.000000000               0.000000000               0.000000000              -0.001463720               0.007389917              -0.000720041              -0.001472631               0.002954158               0.001481527               0.000000000               0.000000000               0.000000000               0.000000000              -0.001266461               0.006830279              -0.000659188              -0.001328705               0.002719638               0.001390934               0.000000000               0.000000000               0.000000000               0.000000000              -0.001051101               0.006321580              -0.000593953              -0.001184358               0.002501958               0.001317600               0.000000000               0.000000000               0.000000000               0.000000000              -0.000827574               0.005868085              -0.000518584              -0.001043849               0.002303958               0.001260110               0.000000000               0.000000000               0.000000000               0.000000000              -0.000605578               0.005479415              -0.000427967              -0.000912016               0.002130459               0.001218442               0.000000000               0.000000000               0.000000000               0.000000000              -0.000404774               0.005160025              -0.000320087              -0.000796792               0.001985588               0.001188797               0.000000000               0.000000000               0.000000000               0.000000000              -0.000236919               0.004917627              -0.000207771              -0.000703546               0.001873708               0.001170162               0.000000000               0.000000000               0.000000000               0.000000000              -0.000102660               0.004766498              -0.000102231              -0.000634308               0.001800253               0.001165945               0.000000000               0.000000000               0.000000000               0.000000000              -0.000051259               0.004707180              -0.000055226              -0.000607618               0.001771584               0.001163966               0.000000000               0.000000000               0.000000000               0.000000000               0.001726676               0.011692761               0.004078723              -0.000814093               0.004168911               0.003354818               0.000000000               0.000000000               0.000000000               0.000000000              -0.000393614               0.011093602               0.002218066              -0.001534303               0.004209264               0.002674961               0.000000000               0.000000000               0.000000000               0.000000000              -0.001985968               0.011090468               0.000478464              -0.002131041               0.004407133               0.002276092               0.000000000               0.000000000               0.000000000               0.000000000              -0.002450811               0.010469186              -0.000076437              -0.002227697               0.004232259               0.002004562               0.000000000               0.000000000               0.000000000               0.000000000              -0.002492939               0.009746839              -0.000267068              -0.002153202               0.003966648               0.001813446               0.000000000               0.000000000               0.000000000               0.000000000              -0.002367400               0.009037811              -0.000341560              -0.002017496               0.003685072               0.001667576               0.000000000               0.000000000               0.000000000               0.000000000              -0.002160155               0.008364134              -0.000378881              -0.001855570               0.003406540               0.001550970               0.000000000               0.000000000               0.000000000               0.000000000              -0.001903316               0.007731410              -0.000390316              -0.001680166               0.003137166               0.001457000               0.000000000               0.000000000               0.000000000               0.000000000              -0.001619755               0.007142734              -0.000371147              -0.001500246               0.002880969               0.001380723               0.000000000               0.000000000               0.000000000               0.000000000              -0.001326529               0.006609585              -0.000341521              -0.001323643               0.002644387               0.001320744               0.000000000               0.000000000               0.000000000               0.000000000              -0.001039503               0.006143535              -0.000308342              -0.001157753               0.002433742               0.001275990               0.000000000               0.000000000               0.000000000               0.000000000              -0.000771034               0.005746346              -0.000266050              -0.001007428               0.002251239               0.001243810               0.000000000               0.000000000               0.000000000               0.000000000              -0.000528729               0.005421384              -0.000212736              -0.000875944               0.002099091               0.001223147               0.000000000               0.000000000               0.000000000               0.000000000              -0.000328127               0.005173659              -0.000146578              -0.000769753               0.001981120               0.001211367               0.000000000               0.000000000               0.000000000               0.000000000              -0.000176205               0.005005918              -0.000082903              -0.000691815               0.001899228               0.001207413               0.000000000               0.000000000               0.000000000               0.000000000              -0.000070397               0.004912055              -0.000036444              -0.000640404               0.001850803               0.001210399               0.000000000               0.000000000               0.000000000               0.000000000              -0.000032453               0.004879587              -0.000019745              -0.000622117               0.001833885               0.001211768               0.000000000               0.000000000               0.000000000               0.000000000               0.000739487               0.009020681               0.003360037              -0.000850278               0.003290288               0.002440010               0.000000000               0.000000000               0.000000000               0.000000000              -0.001320039               0.009511149               0.002098322              -0.001683905               0.003731653               0.002047747               0.000000000               0.000000000               0.000000000               0.000000000              -0.002898301               0.010258987               0.000881124              -0.002369230               0.004209372               0.001840141               0.000000000               0.000000000               0.000000000               0.000000000              -0.003130705               0.009884594               0.000446234              -0.002409583               0.004098026               0.001688443               0.000000000               0.000000000               0.000000000               0.000000000              -0.002959889               0.009271218               0.000246440              -0.002268855               0.003846660               0.001577805               0.000000000               0.000000000               0.000000000               0.000000000              -0.002662536               0.008615203               0.000133506              -0.002075346               0.003563487               0.001488141               0.000000000               0.000000000               0.000000000               0.000000000              -0.002314507               0.007973834               0.000052359              -0.001864665               0.003279473               0.001414808               0.000000000               0.000000000               0.000000000               0.000000000              -0.001942453               0.007367446              -0.000005212              -0.001649346               0.003005573               0.001356227               0.000000000               0.000000000               0.000000000               0.000000000              -0.001560772               0.006811311              -0.000032476              -0.001436700               0.002749314               0.001312614               0.000000000               0.000000000               0.000000000               0.000000000              -0.001192625               0.006326607              -0.000049517              -0.001238057               0.002521533               0.001283476               0.000000000               0.000000000               0.000000000               0.000000000              -0.000859375               0.005917485              -0.000062298              -0.001061949               0.002326458               0.001264509               0.000000000               0.000000000               0.000000000               0.000000000              -0.000577699               0.005580802              -0.000062153              -0.000914235               0.002164994               0.001250759               0.000000000               0.000000000               0.000000000               0.000000000              -0.000353857               0.005318262              -0.000050792              -0.000797477               0.002038562               0.001241085               0.000000000               0.000000000               0.000000000               0.000000000              -0.000189433               0.005134787              -0.000031304              -0.000712884               0.001949206               0.001236323               0.000000000               0.000000000               0.000000000               0.000000000              -0.000080676               0.005027975              -0.000010999              -0.000658749               0.001895558               0.001236809               0.000000000               0.000000000               0.000000000               0.000000000              -0.000023299               0.004977768              -0.000001482              -0.000630956               0.001869558               0.001238602               0.000000000               0.000000000               0.000000000               0.000000000              -0.000008963               0.004962406              -0.000001258              -0.000623660               0.001862006               0.001238345               0.000000000               0.000000000               0.000000000               0.000000000              -0.000437170               0.006755602               0.002470222              -0.001008388               0.002587973               0.001579585               0.000000000               0.000000000               0.000000000               0.000000000              -0.002224238               0.008093756               0.001958539              -0.001845805               0.003313159               0.001467354               0.000000000               0.000000000               0.000000000               0.000000000              -0.003608021               0.009426405               0.001358561              -0.002531302               0.003985871               0.001454569               0.000000000               0.000000000               0.000000000               0.000000000              -0.003591639               0.009307874               0.000998750              -0.002510343               0.003939375               0.001429032               0.000000000               0.000000000               0.000000000               0.000000000              -0.003241293               0.008831116               0.000764241              -0.002319369               0.003716799               0.001397430               0.000000000               0.000000000               0.000000000               0.000000000              -0.002807465               0.008260759               0.000598920              -0.002085389               0.003448689               0.001363299               0.000000000               0.000000000               0.000000000               0.000000000              -0.002350326               0.007683322               0.000470339              -0.001841783               0.003175009               0.001333226               0.000000000               0.000000000               0.000000000               0.000000000              -0.001888210               0.007127044               0.000366655              -0.001598955               0.002908643               0.001309687               0.000000000               0.000000000               0.000000000               0.000000000              -0.001432770               0.006616831               0.000285306              -0.001364389               0.002660385               0.001295995               0.000000000               0.000000000               0.000000000               0.000000000              -0.001008934               0.006179058               0.000213529              -0.001150730               0.002443242               0.001292512               0.000000000               0.000000000               0.000000000               0.000000000              -0.000648559               0.005809756               0.000149653              -0.000969427               0.002259708               0.001290281               0.000000000               0.000000000               0.000000000               0.000000000              -0.000368580               0.005503840               0.000099744              -0.000826195               0.002109993               0.001283798               0.000000000               0.000000000               0.000000000               0.000000000              -0.000172855               0.005269744               0.000062331              -0.000723537               0.001997743               0.001274206               0.000000000               0.000000000               0.000000000               0.000000000              -0.000050504               0.005113644               0.000035229              -0.000658143               0.001923912               0.001265769               0.000000000               0.000000000               0.000000000               0.000000000               0.000010425               0.005028566               0.000016298              -0.000624660               0.001884392               0.001259732               0.000000000               0.000000000               0.000000000               0.000000000               0.000023965               0.004996516               0.000004771              -0.000615576               0.001870681               0.001255105               0.000000000               0.000000000               0.000000000               0.000000000               0.000018851               0.004987688              -0.000000293              -0.000616390               0.001868009               0.001251619               0.000000000               0.000000000               0.000000000               0.000000000              -0.001825389               0.004656217               0.001524010              -0.001266546               0.001974238               0.000707693               0.000000000               0.000000000               0.000000000               0.000000000              -0.002985086               0.006461467               0.001799595              -0.001927086               0.002796162               0.000869076               0.000000000               0.000000000               0.000000000               0.000000000              -0.004029322               0.008213614               0.001857544              -0.002537692               0.003583741               0.001046049               0.000000000               0.000000000               0.000000000               0.000000000              -0.003874571               0.008478082               0.001584752              -0.002512718               0.003663572               0.001150853               0.000000000               0.000000000               0.000000000               0.000000000              -0.003443672               0.008268329               0.001319392              -0.002324913               0.003531053               0.001206140               0.000000000               0.000000000               0.000000000               0.000000000              -0.002959862               0.007890742               0.001099705              -0.002096286               0.003328983               0.001232697               0.000000000               0.000000000               0.000000000               0.000000000              -0.002469313               0.007462811               0.000926028              -0.001858839               0.003107192               0.001248353               0.000000000               0.000000000               0.000000000               0.000000000              -0.001983844               0.007035125               0.000779899              -0.001623328               0.002886127               0.001262799               0.000000000               0.000000000               0.000000000               0.000000000              -0.001510529               0.006625069               0.000648751              -0.001394579               0.002673194               0.001278615               0.000000000               0.000000000               0.000000000               0.000000000              -0.001067263               0.006248694               0.000525031              -0.001181308               0.002476646               0.001295339               0.000000000               0.000000000               0.000000000               0.000000000              -0.000679551               0.005916223               0.000408954              -0.000994357               0.002303507               0.001309150               0.000000000               0.000000000               0.000000000               0.000000000              -0.000369624               0.005623813               0.000301236              -0.000841583               0.002155113               0.001313530               0.000000000               0.000000000               0.000000000               0.000000000              -0.000148945               0.005381979               0.000203994              -0.000728600               0.002036842               0.001308242               0.000000000               0.000000000               0.000000000               0.000000000              -0.000012190               0.005197743               0.000124137              -0.000654287               0.001950659               0.001296372               0.000000000               0.000000000               0.000000000               0.000000000               0.000058595               0.005080214               0.000060215              -0.000613052               0.001897738               0.001284686               0.000000000               0.000000000               0.000000000               0.000000000               0.000076327               0.005021871               0.000017041              -0.000599110               0.001873643               0.001274534               0.000000000               0.000000000               0.000000000               0.000000000               0.000068190               0.004998754               0.000001302              -0.000599272               0.001865992               0.001266720               0.000000000               0.000000000               0.000000000               0.000000000              -0.003609678               0.002754391               0.000594360              -0.001697925               0.001484095              -0.000213830               0.000000000               0.000000000               0.000000000               0.000000000              -0.003847538               0.004814596               0.001566139              -0.002044647               0.002286397               0.000241751               0.000000000               0.000000000               0.000000000               0.000000000              -0.004359201               0.006789024               0.002251479              -0.002483323               0.003090759               0.000607436               0.000000000               0.000000000               0.000000000               0.000000000              -0.004073398               0.007423981               0.002142281              -0.002455516               0.003293140               0.000837624               0.000000000               0.000000000               0.000000000               0.000000000              -0.003592810               0.007524285               0.001887488              -0.002287834               0.003270681               0.000982847               0.000000000               0.000000000               0.000000000               0.000000000              -0.003081750               0.007388915               0.001636195              -0.002079266               0.003156035               0.001076769               0.000000000               0.000000000               0.000000000               0.000000000              -0.002576410               0.007157433               0.001422197              -0.001860829               0.003006063               0.001145234               0.000000000               0.000000000               0.000000000               0.000000000              -0.002085822               0.006883568               0.001238361              -0.001642625               0.002842041               0.001199416               0.000000000               0.000000000               0.000000000               0.000000000              -0.001612996               0.006592087               0.001070412              -0.001428881               0.002673634               0.001244753               0.000000000               0.000000000               0.000000000               0.000000000              -0.001161112               0.006298390               0.000907894              -0.001222713               0.002507013               0.001284300               0.000000000               0.000000000               0.000000000               0.000000000              -0.000745681               0.006017747               0.000749371              -0.001031846               0.002349844               0.001317998               0.000000000               0.000000000               0.000000000               0.000000000              -0.000391052               0.005753777               0.000589570              -0.000865864               0.002206528               0.001340663               0.000000000               0.000000000               0.000000000               0.000000000              -0.000113528               0.005515767               0.000434061              -0.000732042               0.002082584               0.001350542               0.000000000               0.000000000               0.000000000               0.000000000               0.000074837               0.005311284               0.000293280              -0.000635845               0.001982359               0.001346514               0.000000000               0.000000000               0.000000000               0.000000000               0.000178457               0.005155714               0.000167969              -0.000577542               0.001911068               0.001333526               0.000000000               0.000000000               0.000000000               0.000000000               0.000209737               0.005055500               0.000066722              -0.000553285               0.001869578               0.001316293               0.000000000               0.000000000               0.000000000               0.000000000               0.000198498               0.005013484               0.000022457              -0.000552247               0.001855227               0.001302980               0.000000000               0.000000000               0.000000000               0.000000000              -0.005653238               0.001195636              -0.000231933              -0.002269416               0.001155010              -0.001114406               0.000000000               0.000000000               0.000000000               0.000000000              -0.004857665               0.003253746               0.001241762              -0.002228338               0.001827349              -0.000400990               0.000000000               0.000000000               0.000000000               0.000000000              -0.004629541               0.005174854               0.002422503              -0.002382930               0.002519243               0.000136313               0.000000000               0.000000000               0.000000000               0.000000000              -0.004129806               0.006072195               0.002521022              -0.002307697               0.002793276               0.000485579               0.000000000               0.000000000               0.000000000               0.000000000              -0.003583415               0.006455967               0.002333917              -0.002150772               0.002868891               0.000718119               0.000000000               0.000000000               0.000000000               0.000000000              -0.003046967               0.006578162               0.002091938              -0.001964879               0.002847658               0.000882779               0.000000000               0.000000000               0.000000000               0.000000000              -0.002539287               0.006563508               0.001862354              -0.001772667               0.002778703               0.001006035               0.000000000               0.000000000               0.000000000               0.000000000              -0.002050698               0.006472697               0.001655975              -0.001578095               0.002683576               0.001105480               0.000000000               0.000000000               0.000000000               0.000000000              -0.001583880               0.006331662               0.001464589              -0.001385410               0.002572336               0.001186926               0.000000000               0.000000000               0.000000000               0.000000000              -0.001135344               0.006154441               0.001282325              -0.001195057               0.002449812               0.001254755               0.000000000               0.000000000               0.000000000               0.000000000              -0.000709716               0.005956795               0.001100721              -0.001010741               0.002322492               0.001311751               0.000000000               0.000000000               0.000000000               0.000000000              -0.000323074               0.005751092               0.000913144              -0.000840037               0.002197024               0.001356986               0.000000000               0.000000000               0.000000000               0.000000000               0.000010520               0.005548785               0.000720389              -0.000689652               0.002079460               0.001389808               0.000000000               0.000000000               0.000000000               0.000000000               0.000267093               0.005358748               0.000526089              -0.000569682               0.001976125               0.001406443               0.000000000               0.000000000               0.000000000               0.000000000               0.000427430               0.005196227               0.000334677              -0.000489241               0.001895139               0.001405898               0.000000000               0.000000000               0.000000000               0.000000000               0.000490492               0.005078732               0.000156734              -0.000450906               0.001843196               0.001392290               0.000000000               0.000000000               0.000000000               0.000000000               0.000483662               0.005025376               0.000069268              -0.000446797               0.001824041               0.001377244               0.000000000               0.000000000               0.000000000               0.000000000              -0.007811231               0.000073099              -0.000838243              -0.002938347               0.001003808              -0.001934538               0.000000000               0.000000000               0.000000000               0.000000000              -0.005955571               0.001879874               0.000877474              -0.002468320               0.001449388              -0.001018932               0.000000000               0.000000000               0.000000000               0.000000000              -0.004868890               0.003522224               0.002343286              -0.002266108               0.001929430              -0.000336678               0.000000000               0.000000000               0.000000000               0.000000000              -0.004072427               0.004540551               0.002626982              -0.002094725               0.002211742               0.000117017               0.000000000               0.000000000               0.000000000               0.000000000              -0.003425442               0.005147586               0.002541349              -0.001927985               0.002358506               0.000430520               0.000000000               0.000000000               0.000000000               0.000000000              -0.002858462               0.005506490               0.002347655              -0.001760231               0.002422221               0.000661990               0.000000000               0.000000000               0.000000000               0.000000000              -0.002347995               0.005707387               0.002134746              -0.001593919               0.002433749               0.000839830               0.000000000               0.000000000               0.000000000               0.000000000              -0.001876478               0.005803052               0.001930109              -0.001429058               0.002410683               0.000981626               0.000000000               0.000000000               0.000000000               0.000000000              -0.001422686               0.005824063               0.001737601              -0.001261513               0.002361839               0.001100326               0.000000000               0.000000000               0.000000000               0.000000000              -0.000979754               0.005788167               0.001555822              -0.001090926               0.002293011               0.001202085               0.000000000               0.000000000               0.000000000               0.000000000              -0.000547628               0.005709896               0.001373264              -0.000919096               0.002209645               0.001290549               0.000000000               0.000000000               0.000000000               0.000000000              -0.000135291               0.005597794               0.001184398              -0.000750457               0.002116065               0.001365608               0.000000000               0.000000000               0.000000000               0.000000000               0.000247831               0.005464953               0.000983478              -0.000590181               0.002018360               0.001428178               0.000000000               0.000000000               0.000000000               0.000000000               0.000581427               0.005330618               0.000760901              -0.000448291               0.001926285               0.001477994               0.000000000               0.000000000               0.000000000               0.000000000               0.000836106               0.005203315               0.000518167              -0.000336874               0.001846712               0.001509838               0.000000000               0.000000000               0.000000000               0.000000000               0.000985020               0.005094250               0.000262485              -0.000267398               0.001787199               0.001519801               0.000000000               0.000000000               0.000000000               0.000000000               0.001023898               0.005042091               0.000131112              -0.000246299               0.001762780               0.001516481               0.000000000               0.000000000               0.000000000               0.000000000              -0.009885698              -0.000628495              -0.001118638              -0.003628572               0.001000019              -0.002628554               0.000000000               0.000000000               0.000000000               0.000000000              -0.007044114               0.000774683               0.000536694              -0.002738375               0.001171011              -0.001567364               0.000000000               0.000000000               0.000000000               0.000000000              -0.005087744               0.001991145               0.002014217              -0.002156794               0.001382636              -0.000774158               0.000000000               0.000000000               0.000000000               0.000000000              -0.003948471               0.003006208               0.002400647              -0.001856449               0.001620874              -0.000235576               0.000000000               0.000000000               0.000000000               0.000000000              -0.003165004               0.003760930               0.002407812              -0.001656990               0.001805959               0.000148970               0.000000000               0.000000000               0.000000000               0.000000000              -0.002554278               0.004300719               0.002282952              -0.001495441               0.001932038               0.000436597               0.000000000               0.000000000               0.000000000               0.000000000              -0.002038122               0.004679649               0.002115742              -0.001349250               0.002009617               0.000660367               0.000000000               0.000000000               0.000000000               0.000000000              -0.001577533               0.004945551               0.001942132              -0.001209767               0.002051755               0.000841989               0.000000000               0.000000000               0.000000000               0.000000000              -0.001140310               0.005128784               0.001775951              -0.001068712               0.002065814               0.000997102               0.000000000               0.000000000               0.000000000               0.000000000              -0.000708766               0.005246095               0.001617653              -0.000921548               0.002055863               0.001134315               0.000000000               0.000000000               0.000000000               0.000000000              -0.000274814               0.005305983               0.001458522              -0.000766302               0.002024077               0.001257775               0.000000000               0.000000000               0.000000000               0.000000000               0.000158999               0.005312663               0.001292799              -0.000604458               0.001972356               0.001367898               0.000000000               0.000000000               0.000000000               0.000000000               0.000583895               0.005282012               0.001110394              -0.000441290               0.001907750               0.001466459               0.000000000               0.000000000               0.000000000               0.000000000               0.000993856               0.005231747               0.000897091              -0.000281272               0.001837656               0.001556383               0.000000000               0.000000000               0.000000000               0.000000000               0.001374122               0.005166341               0.000645553              -0.000130497               0.001765595               0.001635099               0.000000000               0.000000000               0.000000000               0.000000000               0.001690011               0.005087803               0.000344814              -0.000002222               0.001696658               0.001694436               0.000000000               0.000000000               0.000000000               0.000000000               0.001858107               0.005056527               0.000186863               0.000064723               0.001663918               0.001728641               0.000000000               0.000000000               0.000000000               0.000000000              -0.011631869              -0.001003152              -0.001024280              -0.004236554               0.001077793              -0.003158761               0.000000000               0.000000000               0.000000000               0.000000000              -0.007989992              -0.000020987               0.000273854              -0.002993621               0.000990871              -0.002002750               0.000000000               0.000000000               0.000000000               0.000000000              -0.005279782               0.000753161               0.001468510              -0.002074061               0.000942400              -0.001131661               0.000000000               0.000000000               0.000000000               0.000000000              -0.003808465               0.001687283               0.001837169              -0.001639082               0.001108780              -0.000530302               0.000000000               0.000000000               0.000000000               0.000000000              -0.002879293               0.002507726               0.001895201              -0.001393198               0.001300298              -0.000092900               0.000000000               0.000000000               0.000000000               0.000000000              -0.002217757               0.003167678               0.001831634              -0.001227617               0.001465087               0.000237470               0.000000000               0.000000000               0.000000000               0.000000000              -0.001689426               0.003679285               0.001723787              -0.001093443               0.001590897               0.000497453               0.000000000               0.000000000               0.000000000               0.000000000              -0.001227636               0.004076355               0.001604599              -0.000969906               0.001682073               0.000712167               0.000000000               0.000000000               0.000000000               0.000000000              -0.000798918               0.004391966               0.001486527              -0.000848589               0.001746836               0.000898248               0.000000000               0.000000000               0.000000000               0.000000000              -0.000378579               0.004641814               0.001373347              -0.000722193               0.001787986               0.001065794               0.000000000               0.000000000               0.000000000               0.000000000               0.000052704               0.004830706               0.001259168              -0.000584073               0.001804910               0.001220837               0.000000000               0.000000000               0.000000000               0.000000000               0.000498932               0.004958750               0.001133502              -0.000432744               0.001797148               0.001364404               0.000000000               0.000000000               0.000000000               0.000000000               0.000964071               0.005042948               0.000990177              -0.000268842               0.001770580               0.001501738               0.000000000               0.000000000               0.000000000               0.000000000               0.001457000               0.005092452               0.000824147              -0.000090182               0.001727527               0.001637346               0.000000000               0.000000000               0.000000000               0.000000000               0.001976777               0.005100423               0.000618797               0.000103737               0.001665545               0.001769282               0.000000000               0.000000000               0.000000000               0.000000000               0.002511965               0.005064642               0.000345135               0.000308903               0.001585229               0.001894133               0.000000000               0.000000000               0.000000000               0.000000000               0.002881957               0.005072056               0.000200927               0.000446722               0.001541761               0.001988483               0.000000000               0.000000000               0.000000000               0.000000000              -0.012801206              -0.001166646              -0.000603989              -0.004654619               0.001162650              -0.003491969               0.000000000               0.000000000               0.000000000               0.000000000              -0.008641998              -0.000496809               0.000106837              -0.003178646               0.000893940              -0.002284706               0.000000000               0.000000000               0.000000000               0.000000000              -0.005417907              -0.000051805               0.000772280              -0.002025238               0.000657806              -0.001367432               0.000000000               0.000000000               0.000000000               0.000000000              -0.003701131               0.000794204               0.000996727              -0.001487198               0.000760462              -0.000726736               0.000000000               0.000000000               0.000000000               0.000000000              -0.002660762               0.001630934               0.001046067              -0.001201650               0.000944188              -0.000257462               0.000000000               0.000000000               0.000000000               0.000000000              -0.001952752               0.002351151               0.001023027              -0.001026174               0.001125767               0.000099593               0.000000000               0.000000000               0.000000000               0.000000000              -0.001409358               0.002942808               0.000973734              -0.000896358               0.001279712               0.000383354               0.000000000               0.000000000               0.000000000               0.000000000              -0.000945434               0.003426549               0.000915271              -0.000782855               0.001403123               0.000620268               0.000000000               0.000000000               0.000000000               0.000000000              -0.000517096               0.003824951               0.000855026              -0.000672029               0.001498980               0.000826952               0.000000000               0.000000000               0.000000000               0.000000000              -0.000097678               0.004158400               0.000798845              -0.000556428               0.001571595               0.001015167               0.000000000               0.000000000               0.000000000               0.000000000               0.000331770               0.004436106               0.000740618              -0.000430099               0.001622053               0.001191954               0.000000000               0.000000000               0.000000000               0.000000000               0.000786516               0.004650876               0.000671631              -0.000286416               0.001645748               0.001359333               0.000000000               0.000000000               0.000000000               0.000000000               0.001288980               0.004817880               0.000592556              -0.000118868               0.001645566               0.001526699               0.000000000               0.000000000               0.000000000               0.000000000               0.001853538               0.004942478               0.000500611               0.000077266               0.001621721               0.001698987               0.000000000               0.000000000               0.000000000               0.000000000               0.002488550               0.005013978               0.000384417               0.000306456               0.001569157               0.001875613               0.000000000               0.000000000               0.000000000               0.000000000               0.003212354               0.005025992               0.000220069               0.000576378               0.001483188               0.002059566               0.000000000               0.000000000               0.000000000               0.000000000               0.003767951               0.005075291               0.000133453               0.000778563               0.001432226               0.002210789               0.000000000               0.000000000               0.000000000               0.000000000               0.000000000               0.000000000               0.000000000               0.000000000               0.000000000               0.000000000               0.000000000               0.000000000               0.000000000               0.000000000               0.000000000               0.000000000               0.000000000               0.000000000               0.000000000               0.000000000               0.000000000               0.000000000               0.000000000               0.000000000               0.000000000               0.000000000               0.000000000               0.000000000               0.000000000               0.000000000               0.000000000               0.000000000               0.000000000               0.000000000               0.000000000               0.000000000               0.000000000               0.000000000               0.000000000               0.000000000               0.000000000               0.000000000               0.000000000               0.000000000               0.000000000               0.000000000               0.000000000               0.000000000               0.000000000               0.000000000               0.000000000               0.000000000               0.000000000               0.000000000               0.000000000               0.000000000               0.000000000               0.000000000               0.000000000               0.000000000               0.000000000               0.000000000               0.000000000               0.000000000               0.000000000               0.000000000               0.000000000               0.000000000               0.000000000               0.000000000               0.000000000               0.000000000               0.000000000               0.000000000               0.000000000               0.000000000               0.000000000               0.000000000               0.000000000               0.000000000               0.000000000               0.000000000               0.000000000               0.000000000               0.000000000               0.000000000               0.000000000               0.000000000               0.000000000               0.000000000               0.000000000               0.000000000               0.000000000               0.000000000               0.000000000               0.000000000               0.000000000               0.000000000               0.000000000               0.000000000               0.000000000               0.000000000               0.000000000               0.000000000               0.000000000               0.000000000               0.000000000               0.000000000               0.000000000               0.000000000               0.000000000               0.000000000               0.000000000               0.000000000               0.000000000               0.000000000               0.000000000               0.000000000               0.000000000               0.000000000               0.000000000               0.000000000               0.000000000               0.000000000               0.000000000               0.000000000               0.000000000               0.000000000               0.000000000               0.000000000               0.000000000               0.000000000               0.000000000               0.000000000               0.000000000               0.000000000               0.000000000               0.000000000               0.000000000               0.000000000               0.000000000               0.000000000               0.000000000               0.000000000               0.000000000               0.000000000               0.000000000               0.000000000               0.000000000               0.000000000               0.000000000               0.000000000               0.000000000               0.000000000               0.000000000               0.000000000               0.000000000               0.000000000               0.000000000               0.000000000               0.000000000               0.000000000               0.000000000               0.000000000               0.000000000               0.000000000               0.000000000               0.000000000               0.000000000               0.000000000               0.000000000               0.000000000               0.000000000               0.000000000 </DataArray>
</PointData>
</Piece>
</UnstructuredGrid> </VTKFile>
