<?xml version="1.0"?>
<VTKFile type="UnstructuredGrid" version="0.1">
<UnstructuredGrid>
<Piece NumberOfPoints="      1156" NumberOfCells="      1024">
<Points>
<DataArray type="Float64"                                    Name="coordinates"                                                      NumberOfComponents=" 3" format="ascii">
              0.133000000               0.000000000               0.000000000               0.155937500               0.000000000               0.000000000               0.178875000               0.000000000               0.000000000               0.201812500               0.000000000               0.000000000               0.224750000               0.000000000               0.000000000               0.247687500               0.000000000               0.000000000               0.270625000               0.000000000               0.000000000               0.293562500               0.000000000               0.000000000               0.316500000               0.000000000               0.000000000               0.339437500               0.000000000               0.000000000               0.362375000               0.000000000               0.000000000               0.385312500               0.000000000               0.000000000               0.408250000               0.000000000               0.000000000               0.431187500               0.000000000               0.000000000               0.454125000               0.000000000               0.000000000               0.477062500               0.000000000               0.000000000               0.500000000               0.000000000               0.000000000               0.132359569               0.013036280               0.000000000               0.155337096               0.016127762               0.000000000               0.178314623               0.019219245               0.000000000               0.201292150               0.022310727               0.000000000               0.224269676               0.025402210               0.000000000               0.247247203               0.028493692               0.000000000               0.270224730               0.031585175               0.000000000               0.293202257               0.034676657               0.000000000               0.316179784               0.037768140               0.000000000               0.339157311               0.040859622               0.000000000               0.362134838               0.043951105               0.000000000               0.385112365               0.047042587               0.000000000               0.408089892               0.050134070               0.000000000               0.431067419               0.053225552               0.000000000               0.454044946               0.056317035               0.000000000               0.477022473               0.059408517               0.000000000               0.500000000               0.062500000               0.000000000               0.130444442               0.025947013               0.000000000               0.153541665               0.032137825               0.000000000               0.176638887               0.038328636               0.000000000               0.199736109               0.044519448               0.000000000               0.222833332               0.050710260               0.000000000               0.245930554               0.056901071               0.000000000               0.269027776               0.063091883               0.000000000               0.292124999               0.069282695               0.000000000               0.315222221               0.075473506               0.000000000               0.338319444               0.081664318               0.000000000               0.361416666               0.087855130               0.000000000               0.384513888               0.094045942               0.000000000               0.407611111               0.100236753               0.000000000               0.430708333               0.106427565               0.000000000               0.453805555               0.112618377               0.000000000               0.476902778               0.118809188               0.000000000               0.500000000               0.125000000               0.000000000               0.127273065               0.038607862               0.000000000               0.150568498               0.047913621               0.000000000               0.173863932               0.057219379               0.000000000               0.197159365               0.066525138               0.000000000               0.220454798               0.075830897               0.000000000               0.243750232               0.085136655               0.000000000               0.267045665               0.094442414               0.000000000               0.290341099               0.103748172               0.000000000               0.313636532               0.113053931               0.000000000               0.336931966               0.122359690               0.000000000               0.360227399               0.131665448               0.000000000               0.383522833               0.140971207               0.000000000               0.406818266               0.150276966               0.000000000               0.430113700               0.159582724               0.000000000               0.453409133               0.168888483               0.000000000               0.476704567               0.178194241               0.000000000               0.500000000               0.187500000               0.000000000               0.122875978               0.050896897               0.000000000               0.146446229               0.063340840               0.000000000               0.170016481               0.075784784               0.000000000               0.193586732               0.088228728               0.000000000               0.217156983               0.100672672               0.000000000               0.240727235               0.113116616               0.000000000               0.264297486               0.125560560               0.000000000               0.287867738               0.138004504               0.000000000               0.311437989               0.150448448               0.000000000               0.335008240               0.162892392               0.000000000               0.358578492               0.175336336               0.000000000               0.382148743               0.187780280               0.000000000               0.405718994               0.200224224               0.000000000               0.429289246               0.212668168               0.000000000               0.452859497               0.225112112               0.000000000               0.476429749               0.237556056               0.000000000               0.500000000               0.250000000               0.000000000               0.117295528               0.062695766               0.000000000               0.141214558               0.078308531               0.000000000               0.165133587               0.093921295               0.000000000               0.189052617               0.109534060               0.000000000               0.212971646               0.125146824               0.000000000               0.236890676               0.140759589               0.000000000               0.260809705               0.156372354               0.000000000               0.284728735               0.171985118               0.000000000               0.308647764               0.187597883               0.000000000               0.332566794               0.203210648               0.000000000               0.356485823               0.218823412               0.000000000               0.380404853               0.234436177               0.000000000               0.404323882               0.250048941               0.000000000               0.428242912               0.265661706               0.000000000               0.452161941               0.281274471               0.000000000               0.476080971               0.296887235               0.000000000               0.500000000               0.312500000               0.000000000               0.110585458               0.073890841               0.000000000               0.134923867               0.092710163               0.000000000               0.159262276               0.111529486               0.000000000               0.183600685               0.130348808               0.000000000               0.207939094               0.149168131               0.000000000               0.232277503               0.167987453               0.000000000               0.256615912               0.186806776               0.000000000               0.280954320               0.205626098               0.000000000               0.305292729               0.224445420               0.000000000               0.329631138               0.243264743               0.000000000               0.353969547               0.262084065               0.000000000               0.378307956               0.280903388               0.000000000               0.402646365               0.299722710               0.000000000               0.426984773               0.318542033               0.000000000               0.451323182               0.337361355               0.000000000               0.475661591               0.356180678               0.000000000               0.500000000               0.375000000               0.000000000               0.102810390               0.084374307               0.000000000               0.127634741               0.106444663               0.000000000               0.152459092               0.128515018               0.000000000               0.177283442               0.150585374               0.000000000               0.202107793               0.172655730               0.000000000               0.226932143               0.194726086               0.000000000               0.251756494               0.216796442               0.000000000               0.276580845               0.238866798               0.000000000               0.301405195               0.260937153               0.000000000               0.326229546               0.283007509               0.000000000               0.351053896               0.305077865               0.000000000               0.375878247               0.327148221               0.000000000               0.400702598               0.349218577               0.000000000               0.425526948               0.371288933               0.000000000               0.450351299               0.393359288               0.000000000               0.475175649               0.415429644               0.000000000               0.500000000               0.437500000               0.000000000               0.094045202               0.094045202               0.000000000               0.119417377               0.119417377               0.000000000               0.144789552               0.144789552               0.000000000               0.170161727               0.170161727               0.000000000               0.195533901               0.195533901               0.000000000               0.220906076               0.220906076               0.000000000               0.246278251               0.246278251               0.000000000               0.271650426               0.271650426               0.000000000               0.297022601               0.297022601               0.000000000               0.322394776               0.322394776               0.000000000               0.347766951               0.347766951               0.000000000               0.373139126               0.373139126               0.000000000               0.398511300               0.398511300               0.000000000               0.423883475               0.423883475               0.000000000               0.449255650               0.449255650               0.000000000               0.474627825               0.474627825               0.000000000               0.500000000               0.500000000               0.000000000               0.084374307               0.102810390               0.000000000               0.106444663               0.127634741               0.000000000               0.128515018               0.152459092               0.000000000               0.150585374               0.177283442               0.000000000               0.172655730               0.202107793               0.000000000               0.194726086               0.226932143               0.000000000               0.216796442               0.251756494               0.000000000               0.238866798               0.276580845               0.000000000               0.260937153               0.301405195               0.000000000               0.283007509               0.326229546               0.000000000               0.305077865               0.351053896               0.000000000               0.327148221               0.375878247               0.000000000               0.349218577               0.400702598               0.000000000               0.371288933               0.425526948               0.000000000               0.393359288               0.450351299               0.000000000               0.415429644               0.475175649               0.000000000               0.437500000               0.500000000               0.000000000               0.073890841               0.110585458               0.000000000               0.092710163               0.134923867               0.000000000               0.111529486               0.159262276               0.000000000               0.130348808               0.183600685               0.000000000               0.149168131               0.207939094               0.000000000               0.167987453               0.232277503               0.000000000               0.186806776               0.256615912               0.000000000               0.205626098               0.280954320               0.000000000               0.224445420               0.305292729               0.000000000               0.243264743               0.329631138               0.000000000               0.262084065               0.353969547               0.000000000               0.280903388               0.378307956               0.000000000               0.299722710               0.402646365               0.000000000               0.318542033               0.426984773               0.000000000               0.337361355               0.451323182               0.000000000               0.356180678               0.475661591               0.000000000               0.375000000               0.500000000               0.000000000               0.062695766               0.117295528               0.000000000               0.078308531               0.141214558               0.000000000               0.093921295               0.165133587               0.000000000               0.109534060               0.189052617               0.000000000               0.125146824               0.212971646               0.000000000               0.140759589               0.236890676               0.000000000               0.156372354               0.260809705               0.000000000               0.171985118               0.284728735               0.000000000               0.187597883               0.308647764               0.000000000               0.203210648               0.332566794               0.000000000               0.218823412               0.356485823               0.000000000               0.234436177               0.380404853               0.000000000               0.250048941               0.404323882               0.000000000               0.265661706               0.428242912               0.000000000               0.281274471               0.452161941               0.000000000               0.296887235               0.476080971               0.000000000               0.312500000               0.500000000               0.000000000               0.050896897               0.122875978               0.000000000               0.063340840               0.146446229               0.000000000               0.075784784               0.170016481               0.000000000               0.088228728               0.193586732               0.000000000               0.100672672               0.217156983               0.000000000               0.113116616               0.240727235               0.000000000               0.125560560               0.264297486               0.000000000               0.138004504               0.287867738               0.000000000               0.150448448               0.311437989               0.000000000               0.162892392               0.335008240               0.000000000               0.175336336               0.358578492               0.000000000               0.187780280               0.382148743               0.000000000               0.200224224               0.405718994               0.000000000               0.212668168               0.429289246               0.000000000               0.225112112               0.452859497               0.000000000               0.237556056               0.476429749               0.000000000               0.250000000               0.500000000               0.000000000               0.038607862               0.127273065               0.000000000               0.047913621               0.150568498               0.000000000               0.057219379               0.173863932               0.000000000               0.066525138               0.197159365               0.000000000               0.075830897               0.220454798               0.000000000               0.085136655               0.243750232               0.000000000               0.094442414               0.267045665               0.000000000               0.103748172               0.290341099               0.000000000               0.113053931               0.313636532               0.000000000               0.122359690               0.336931966               0.000000000               0.131665448               0.360227399               0.000000000               0.140971207               0.383522833               0.000000000               0.150276966               0.406818266               0.000000000               0.159582724               0.430113700               0.000000000               0.168888483               0.453409133               0.000000000               0.178194241               0.476704567               0.000000000               0.187500000               0.500000000               0.000000000               0.025947013               0.130444442               0.000000000               0.032137825               0.153541665               0.000000000               0.038328636               0.176638887               0.000000000               0.044519448               0.199736109               0.000000000               0.050710260               0.222833332               0.000000000               0.056901071               0.245930554               0.000000000               0.063091883               0.269027776               0.000000000               0.069282695               0.292124999               0.000000000               0.075473506               0.315222221               0.000000000               0.081664318               0.338319444               0.000000000               0.087855130               0.361416666               0.000000000               0.094045942               0.384513888               0.000000000               0.100236753               0.407611111               0.000000000               0.106427565               0.430708333               0.000000000               0.112618377               0.453805555               0.000000000               0.118809188               0.476902778               0.000000000               0.125000000               0.500000000               0.000000000               0.013036280               0.132359569               0.000000000               0.016127762               0.155337096               0.000000000               0.019219245               0.178314623               0.000000000               0.022310727               0.201292150               0.000000000               0.025402210               0.224269676               0.000000000               0.028493692               0.247247203               0.000000000               0.031585175               0.270224730               0.000000000               0.034676657               0.293202257               0.000000000               0.037768140               0.316179784               0.000000000               0.040859622               0.339157311               0.000000000               0.043951105               0.362134838               0.000000000               0.047042587               0.385112365               0.000000000               0.050134070               0.408089892               0.000000000               0.053225552               0.431067419               0.000000000               0.056317035               0.454044946               0.000000000               0.059408517               0.477022473               0.000000000               0.062500000               0.500000000               0.000000000               0.000000000               0.133000000               0.000000000               0.000000000               0.155937500               0.000000000               0.000000000               0.178875000               0.000000000               0.000000000               0.201812500               0.000000000               0.000000000               0.224750000               0.000000000               0.000000000               0.247687500               0.000000000               0.000000000               0.270625000               0.000000000               0.000000000               0.293562500               0.000000000               0.000000000               0.316500000               0.000000000               0.000000000               0.339437500               0.000000000               0.000000000               0.362375000               0.000000000               0.000000000               0.385312500               0.000000000               0.000000000               0.408250000               0.000000000               0.000000000               0.431187500               0.000000000               0.000000000               0.454125000               0.000000000               0.000000000               0.477062500               0.000000000               0.000000000               0.500000000               0.000000000               0.133000000               0.000000000               0.000000000               0.155937500               0.000000000               0.000000000               0.178875000               0.000000000               0.000000000               0.201812500               0.000000000               0.000000000               0.224750000               0.000000000               0.000000000               0.247687500               0.000000000               0.000000000               0.270625000               0.000000000               0.000000000               0.293562500               0.000000000               0.000000000               0.316500000               0.000000000               0.000000000               0.339437500               0.000000000               0.000000000               0.362375000               0.000000000               0.000000000               0.385312500               0.000000000               0.000000000               0.408250000               0.000000000               0.000000000               0.431187500               0.000000000               0.000000000               0.454125000               0.000000000               0.000000000               0.477062500               0.000000000               0.000000000               0.500000000               0.000000000               0.000000000               0.132359569              -0.013036280               0.000000000               0.155337096              -0.016127762               0.000000000               0.178314623              -0.019219245               0.000000000               0.201292150              -0.022310727               0.000000000               0.224269676              -0.025402210               0.000000000               0.247247203              -0.028493692               0.000000000               0.270224730              -0.031585175               0.000000000               0.293202257              -0.034676657               0.000000000               0.316179784              -0.037768140               0.000000000               0.339157311              -0.040859622               0.000000000               0.362134838              -0.043951105               0.000000000               0.385112365              -0.047042587               0.000000000               0.408089892              -0.050134070               0.000000000               0.431067419              -0.053225552               0.000000000               0.454044946              -0.056317035               0.000000000               0.477022473              -0.059408517               0.000000000               0.500000000              -0.062500000               0.000000000               0.130444442              -0.025947013               0.000000000               0.153541665              -0.032137825               0.000000000               0.176638887              -0.038328636               0.000000000               0.199736109              -0.044519448               0.000000000               0.222833332              -0.050710260               0.000000000               0.245930554              -0.056901071               0.000000000               0.269027776              -0.063091883               0.000000000               0.292124999              -0.069282695               0.000000000               0.315222221              -0.075473506               0.000000000               0.338319444              -0.081664318               0.000000000               0.361416666              -0.087855130               0.000000000               0.384513888              -0.094045942               0.000000000               0.407611111              -0.100236753               0.000000000               0.430708333              -0.106427565               0.000000000               0.453805555              -0.112618377               0.000000000               0.476902778              -0.118809188               0.000000000               0.500000000              -0.125000000               0.000000000               0.127273065              -0.038607862               0.000000000               0.150568498              -0.047913621               0.000000000               0.173863932              -0.057219379               0.000000000               0.197159365              -0.066525138               0.000000000               0.220454798              -0.075830897               0.000000000               0.243750232              -0.085136655               0.000000000               0.267045665              -0.094442414               0.000000000               0.290341099              -0.103748172               0.000000000               0.313636532              -0.113053931               0.000000000               0.336931966              -0.122359690               0.000000000               0.360227399              -0.131665448               0.000000000               0.383522833              -0.140971207               0.000000000               0.406818266              -0.150276966               0.000000000               0.430113700              -0.159582724               0.000000000               0.453409133              -0.168888483               0.000000000               0.476704567              -0.178194241               0.000000000               0.500000000              -0.187500000               0.000000000               0.122875978              -0.050896897               0.000000000               0.146446229              -0.063340840               0.000000000               0.170016481              -0.075784784               0.000000000               0.193586732              -0.088228728               0.000000000               0.217156983              -0.100672672               0.000000000               0.240727235              -0.113116616               0.000000000               0.264297486              -0.125560560               0.000000000               0.287867738              -0.138004504               0.000000000               0.311437989              -0.150448448               0.000000000               0.335008240              -0.162892392               0.000000000               0.358578492              -0.175336336               0.000000000               0.382148743              -0.187780280               0.000000000               0.405718994              -0.200224224               0.000000000               0.429289246              -0.212668168               0.000000000               0.452859497              -0.225112112               0.000000000               0.476429749              -0.237556056               0.000000000               0.500000000              -0.250000000               0.000000000               0.117295528              -0.062695766               0.000000000               0.141214558              -0.078308531               0.000000000               0.165133587              -0.093921295               0.000000000               0.189052617              -0.109534060               0.000000000               0.212971646              -0.125146824               0.000000000               0.236890676              -0.140759589               0.000000000               0.260809705              -0.156372354               0.000000000               0.284728735              -0.171985118               0.000000000               0.308647764              -0.187597883               0.000000000               0.332566794              -0.203210648               0.000000000               0.356485823              -0.218823412               0.000000000               0.380404853              -0.234436177               0.000000000               0.404323882              -0.250048941               0.000000000               0.428242912              -0.265661706               0.000000000               0.452161941              -0.281274471               0.000000000               0.476080971              -0.296887235               0.000000000               0.500000000              -0.312500000               0.000000000               0.110585458              -0.073890841               0.000000000               0.134923867              -0.092710163               0.000000000               0.159262276              -0.111529486               0.000000000               0.183600685              -0.130348808               0.000000000               0.207939094              -0.149168131               0.000000000               0.232277503              -0.167987453               0.000000000               0.256615912              -0.186806776               0.000000000               0.280954320              -0.205626098               0.000000000               0.305292729              -0.224445420               0.000000000               0.329631138              -0.243264743               0.000000000               0.353969547              -0.262084065               0.000000000               0.378307956              -0.280903388               0.000000000               0.402646365              -0.299722710               0.000000000               0.426984773              -0.318542033               0.000000000               0.451323182              -0.337361355               0.000000000               0.475661591              -0.356180678               0.000000000               0.500000000              -0.375000000               0.000000000               0.102810390              -0.084374307               0.000000000               0.127634741              -0.106444663               0.000000000               0.152459092              -0.128515018               0.000000000               0.177283442              -0.150585374               0.000000000               0.202107793              -0.172655730               0.000000000               0.226932143              -0.194726086               0.000000000               0.251756494              -0.216796442               0.000000000               0.276580845              -0.238866798               0.000000000               0.301405195              -0.260937153               0.000000000               0.326229546              -0.283007509               0.000000000               0.351053896              -0.305077865               0.000000000               0.375878247              -0.327148221               0.000000000               0.400702598              -0.349218577               0.000000000               0.425526948              -0.371288933               0.000000000               0.450351299              -0.393359288               0.000000000               0.475175649              -0.415429644               0.000000000               0.500000000              -0.437500000               0.000000000               0.094045202              -0.094045202               0.000000000               0.119417377              -0.119417377               0.000000000               0.144789552              -0.144789552               0.000000000               0.170161727              -0.170161727               0.000000000               0.195533901              -0.195533901               0.000000000               0.220906076              -0.220906076               0.000000000               0.246278251              -0.246278251               0.000000000               0.271650426              -0.271650426               0.000000000               0.297022601              -0.297022601               0.000000000               0.322394776              -0.322394776               0.000000000               0.347766951              -0.347766951               0.000000000               0.373139126              -0.373139126               0.000000000               0.398511300              -0.398511300               0.000000000               0.423883475              -0.423883475               0.000000000               0.449255650              -0.449255650               0.000000000               0.474627825              -0.474627825               0.000000000               0.500000000              -0.500000000               0.000000000               0.084374307              -0.102810390               0.000000000               0.106444663              -0.127634741               0.000000000               0.128515018              -0.152459092               0.000000000               0.150585374              -0.177283442               0.000000000               0.172655730              -0.202107793               0.000000000               0.194726086              -0.226932143               0.000000000               0.216796442              -0.251756494               0.000000000               0.238866798              -0.276580845               0.000000000               0.260937153              -0.301405195               0.000000000               0.283007509              -0.326229546               0.000000000               0.305077865              -0.351053896               0.000000000               0.327148221              -0.375878247               0.000000000               0.349218577              -0.400702598               0.000000000               0.371288933              -0.425526948               0.000000000               0.393359288              -0.450351299               0.000000000               0.415429644              -0.475175649               0.000000000               0.437500000              -0.500000000               0.000000000               0.073890841              -0.110585458               0.000000000               0.092710163              -0.134923867               0.000000000               0.111529486              -0.159262276               0.000000000               0.130348808              -0.183600685               0.000000000               0.149168131              -0.207939094               0.000000000               0.167987453              -0.232277503               0.000000000               0.186806776              -0.256615912               0.000000000               0.205626098              -0.280954320               0.000000000               0.224445420              -0.305292729               0.000000000               0.243264743              -0.329631138               0.000000000               0.262084065              -0.353969547               0.000000000               0.280903388              -0.378307956               0.000000000               0.299722710              -0.402646365               0.000000000               0.318542033              -0.426984773               0.000000000               0.337361355              -0.451323182               0.000000000               0.356180678              -0.475661591               0.000000000               0.375000000              -0.500000000               0.000000000               0.062695766              -0.117295528               0.000000000               0.078308531              -0.141214558               0.000000000               0.093921295              -0.165133587               0.000000000               0.109534060              -0.189052617               0.000000000               0.125146824              -0.212971646               0.000000000               0.140759589              -0.236890676               0.000000000               0.156372354              -0.260809705               0.000000000               0.171985118              -0.284728735               0.000000000               0.187597883              -0.308647764               0.000000000               0.203210648              -0.332566794               0.000000000               0.218823412              -0.356485823               0.000000000               0.234436177              -0.380404853               0.000000000               0.250048941              -0.404323882               0.000000000               0.265661706              -0.428242912               0.000000000               0.281274471              -0.452161941               0.000000000               0.296887235              -0.476080971               0.000000000               0.312500000              -0.500000000               0.000000000               0.050896897              -0.122875978               0.000000000               0.063340840              -0.146446229               0.000000000               0.075784784              -0.170016481               0.000000000               0.088228728              -0.193586732               0.000000000               0.100672672              -0.217156983               0.000000000               0.113116616              -0.240727235               0.000000000               0.125560560              -0.264297486               0.000000000               0.138004504              -0.287867738               0.000000000               0.150448448              -0.311437989               0.000000000               0.162892392              -0.335008240               0.000000000               0.175336336              -0.358578492               0.000000000               0.187780280              -0.382148743               0.000000000               0.200224224              -0.405718994               0.000000000               0.212668168              -0.429289246               0.000000000               0.225112112              -0.452859497               0.000000000               0.237556056              -0.476429749               0.000000000               0.250000000              -0.500000000               0.000000000               0.038607862              -0.127273065               0.000000000               0.047913621              -0.150568498               0.000000000               0.057219379              -0.173863932               0.000000000               0.066525138              -0.197159365               0.000000000               0.075830897              -0.220454798               0.000000000               0.085136655              -0.243750232               0.000000000               0.094442414              -0.267045665               0.000000000               0.103748172              -0.290341099               0.000000000               0.113053931              -0.313636532               0.000000000               0.122359690              -0.336931966               0.000000000               0.131665448              -0.360227399               0.000000000               0.140971207              -0.383522833               0.000000000               0.150276966              -0.406818266               0.000000000               0.159582724              -0.430113700               0.000000000               0.168888483              -0.453409133               0.000000000               0.178194241              -0.476704567               0.000000000               0.187500000              -0.500000000               0.000000000               0.025947013              -0.130444442               0.000000000               0.032137825              -0.153541665               0.000000000               0.038328636              -0.176638887               0.000000000               0.044519448              -0.199736109               0.000000000               0.050710260              -0.222833332               0.000000000               0.056901071              -0.245930554               0.000000000               0.063091883              -0.269027776               0.000000000               0.069282695              -0.292124999               0.000000000               0.075473506              -0.315222221               0.000000000               0.081664318              -0.338319444               0.000000000               0.087855130              -0.361416666               0.000000000               0.094045942              -0.384513888               0.000000000               0.100236753              -0.407611111               0.000000000               0.106427565              -0.430708333               0.000000000               0.112618377              -0.453805555               0.000000000               0.118809188              -0.476902778               0.000000000               0.125000000              -0.500000000               0.000000000               0.013036280              -0.132359569               0.000000000               0.016127762              -0.155337096               0.000000000               0.019219245              -0.178314623               0.000000000               0.022310727              -0.201292150               0.000000000               0.025402210              -0.224269676               0.000000000               0.028493692              -0.247247203               0.000000000               0.031585175              -0.270224730               0.000000000               0.034676657              -0.293202257               0.000000000               0.037768140              -0.316179784               0.000000000               0.040859622              -0.339157311               0.000000000               0.043951105              -0.362134838               0.000000000               0.047042587              -0.385112365               0.000000000               0.050134070              -0.408089892               0.000000000               0.053225552              -0.431067419               0.000000000               0.056317035              -0.454044946               0.000000000               0.059408517              -0.477022473               0.000000000               0.062500000              -0.500000000               0.000000000               0.000000000              -0.133000000               0.000000000               0.000000000              -0.155937500               0.000000000               0.000000000              -0.178875000               0.000000000               0.000000000              -0.201812500               0.000000000               0.000000000              -0.224750000               0.000000000               0.000000000              -0.247687500               0.000000000               0.000000000              -0.270625000               0.000000000               0.000000000              -0.293562500               0.000000000               0.000000000              -0.316500000               0.000000000               0.000000000              -0.339437500               0.000000000               0.000000000              -0.362375000               0.000000000               0.000000000              -0.385312500               0.000000000               0.000000000              -0.408250000               0.000000000               0.000000000              -0.431187500               0.000000000               0.000000000              -0.454125000               0.000000000               0.000000000              -0.477062500               0.000000000               0.000000000              -0.500000000               0.000000000              -0.133000000               0.000000000               0.000000000              -0.155937500               0.000000000               0.000000000              -0.178875000               0.000000000               0.000000000              -0.201812500               0.000000000               0.000000000              -0.224750000               0.000000000               0.000000000              -0.247687500               0.000000000               0.000000000              -0.270625000               0.000000000               0.000000000              -0.293562500               0.000000000               0.000000000              -0.316500000               0.000000000               0.000000000              -0.339437500               0.000000000               0.000000000              -0.362375000               0.000000000               0.000000000              -0.385312500               0.000000000               0.000000000              -0.408250000               0.000000000               0.000000000              -0.431187500               0.000000000               0.000000000              -0.454125000               0.000000000               0.000000000              -0.477062500               0.000000000               0.000000000              -0.500000000               0.000000000               0.000000000              -0.132359569              -0.013036280               0.000000000              -0.155337096              -0.016127762               0.000000000              -0.178314623              -0.019219245               0.000000000              -0.201292150              -0.022310727               0.000000000              -0.224269676              -0.025402210               0.000000000              -0.247247203              -0.028493692               0.000000000              -0.270224730              -0.031585175               0.000000000              -0.293202257              -0.034676657               0.000000000              -0.316179784              -0.037768140               0.000000000              -0.339157311              -0.040859622               0.000000000              -0.362134838              -0.043951105               0.000000000              -0.385112365              -0.047042587               0.000000000              -0.408089892              -0.050134070               0.000000000              -0.431067419              -0.053225552               0.000000000              -0.454044946              -0.056317035               0.000000000              -0.477022473              -0.059408517               0.000000000              -0.500000000              -0.062500000               0.000000000              -0.130444442              -0.025947013               0.000000000              -0.153541665              -0.032137825               0.000000000              -0.176638887              -0.038328636               0.000000000              -0.199736109              -0.044519448               0.000000000              -0.222833332              -0.050710260               0.000000000              -0.245930554              -0.056901071               0.000000000              -0.269027776              -0.063091883               0.000000000              -0.292124999              -0.069282695               0.000000000              -0.315222221              -0.075473506               0.000000000              -0.338319444              -0.081664318               0.000000000              -0.361416666              -0.087855130               0.000000000              -0.384513888              -0.094045942               0.000000000              -0.407611111              -0.100236753               0.000000000              -0.430708333              -0.106427565               0.000000000              -0.453805555              -0.112618377               0.000000000              -0.476902778              -0.118809188               0.000000000              -0.500000000              -0.125000000               0.000000000              -0.127273065              -0.038607862               0.000000000              -0.150568498              -0.047913621               0.000000000              -0.173863932              -0.057219379               0.000000000              -0.197159365              -0.066525138               0.000000000              -0.220454798              -0.075830897               0.000000000              -0.243750232              -0.085136655               0.000000000              -0.267045665              -0.094442414               0.000000000              -0.290341099              -0.103748172               0.000000000              -0.313636532              -0.113053931               0.000000000              -0.336931966              -0.122359690               0.000000000              -0.360227399              -0.131665448               0.000000000              -0.383522833              -0.140971207               0.000000000              -0.406818266              -0.150276966               0.000000000              -0.430113700              -0.159582724               0.000000000              -0.453409133              -0.168888483               0.000000000              -0.476704567              -0.178194241               0.000000000              -0.500000000              -0.187500000               0.000000000              -0.122875978              -0.050896897               0.000000000              -0.146446229              -0.063340840               0.000000000              -0.170016481              -0.075784784               0.000000000              -0.193586732              -0.088228728               0.000000000              -0.217156983              -0.100672672               0.000000000              -0.240727235              -0.113116616               0.000000000              -0.264297486              -0.125560560               0.000000000              -0.287867738              -0.138004504               0.000000000              -0.311437989              -0.150448448               0.000000000              -0.335008240              -0.162892392               0.000000000              -0.358578492              -0.175336336               0.000000000              -0.382148743              -0.187780280               0.000000000              -0.405718994              -0.200224224               0.000000000              -0.429289246              -0.212668168               0.000000000              -0.452859497              -0.225112112               0.000000000              -0.476429749              -0.237556056               0.000000000              -0.500000000              -0.250000000               0.000000000              -0.117295528              -0.062695766               0.000000000              -0.141214558              -0.078308531               0.000000000              -0.165133587              -0.093921295               0.000000000              -0.189052617              -0.109534060               0.000000000              -0.212971646              -0.125146824               0.000000000              -0.236890676              -0.140759589               0.000000000              -0.260809705              -0.156372354               0.000000000              -0.284728735              -0.171985118               0.000000000              -0.308647764              -0.187597883               0.000000000              -0.332566794              -0.203210648               0.000000000              -0.356485823              -0.218823412               0.000000000              -0.380404853              -0.234436177               0.000000000              -0.404323882              -0.250048941               0.000000000              -0.428242912              -0.265661706               0.000000000              -0.452161941              -0.281274471               0.000000000              -0.476080971              -0.296887235               0.000000000              -0.500000000              -0.312500000               0.000000000              -0.110585458              -0.073890841               0.000000000              -0.134923867              -0.092710163               0.000000000              -0.159262276              -0.111529486               0.000000000              -0.183600685              -0.130348808               0.000000000              -0.207939094              -0.149168131               0.000000000              -0.232277503              -0.167987453               0.000000000              -0.256615912              -0.186806776               0.000000000              -0.280954320              -0.205626098               0.000000000              -0.305292729              -0.224445420               0.000000000              -0.329631138              -0.243264743               0.000000000              -0.353969547              -0.262084065               0.000000000              -0.378307956              -0.280903388               0.000000000              -0.402646365              -0.299722710               0.000000000              -0.426984773              -0.318542033               0.000000000              -0.451323182              -0.337361355               0.000000000              -0.475661591              -0.356180678               0.000000000              -0.500000000              -0.375000000               0.000000000              -0.102810390              -0.084374307               0.000000000              -0.127634741              -0.106444663               0.000000000              -0.152459092              -0.128515018               0.000000000              -0.177283442              -0.150585374               0.000000000              -0.202107793              -0.172655730               0.000000000              -0.226932143              -0.194726086               0.000000000              -0.251756494              -0.216796442               0.000000000              -0.276580845              -0.238866798               0.000000000              -0.301405195              -0.260937153               0.000000000              -0.326229546              -0.283007509               0.000000000              -0.351053896              -0.305077865               0.000000000              -0.375878247              -0.327148221               0.000000000              -0.400702598              -0.349218577               0.000000000              -0.425526948              -0.371288933               0.000000000              -0.450351299              -0.393359288               0.000000000              -0.475175649              -0.415429644               0.000000000              -0.500000000              -0.437500000               0.000000000              -0.094045202              -0.094045202               0.000000000              -0.119417377              -0.119417377               0.000000000              -0.144789552              -0.144789552               0.000000000              -0.170161727              -0.170161727               0.000000000              -0.195533901              -0.195533901               0.000000000              -0.220906076              -0.220906076               0.000000000              -0.246278251              -0.246278251               0.000000000              -0.271650426              -0.271650426               0.000000000              -0.297022601              -0.297022601               0.000000000              -0.322394776              -0.322394776               0.000000000              -0.347766951              -0.347766951               0.000000000              -0.373139126              -0.373139126               0.000000000              -0.398511300              -0.398511300               0.000000000              -0.423883475              -0.423883475               0.000000000              -0.449255650              -0.449255650               0.000000000              -0.474627825              -0.474627825               0.000000000              -0.500000000              -0.500000000               0.000000000              -0.084374307              -0.102810390               0.000000000              -0.106444663              -0.127634741               0.000000000              -0.128515018              -0.152459092               0.000000000              -0.150585374              -0.177283442               0.000000000              -0.172655730              -0.202107793               0.000000000              -0.194726086              -0.226932143               0.000000000              -0.216796442              -0.251756494               0.000000000              -0.238866798              -0.276580845               0.000000000              -0.260937153              -0.301405195               0.000000000              -0.283007509              -0.326229546               0.000000000              -0.305077865              -0.351053896               0.000000000              -0.327148221              -0.375878247               0.000000000              -0.349218577              -0.400702598               0.000000000              -0.371288933              -0.425526948               0.000000000              -0.393359288              -0.450351299               0.000000000              -0.415429644              -0.475175649               0.000000000              -0.437500000              -0.500000000               0.000000000              -0.073890841              -0.110585458               0.000000000              -0.092710163              -0.134923867               0.000000000              -0.111529486              -0.159262276               0.000000000              -0.130348808              -0.183600685               0.000000000              -0.149168131              -0.207939094               0.000000000              -0.167987453              -0.232277503               0.000000000              -0.186806776              -0.256615912               0.000000000              -0.205626098              -0.280954320               0.000000000              -0.224445420              -0.305292729               0.000000000              -0.243264743              -0.329631138               0.000000000              -0.262084065              -0.353969547               0.000000000              -0.280903388              -0.378307956               0.000000000              -0.299722710              -0.402646365               0.000000000              -0.318542033              -0.426984773               0.000000000              -0.337361355              -0.451323182               0.000000000              -0.356180678              -0.475661591               0.000000000              -0.375000000              -0.500000000               0.000000000              -0.062695766              -0.117295528               0.000000000              -0.078308531              -0.141214558               0.000000000              -0.093921295              -0.165133587               0.000000000              -0.109534060              -0.189052617               0.000000000              -0.125146824              -0.212971646               0.000000000              -0.140759589              -0.236890676               0.000000000              -0.156372354              -0.260809705               0.000000000              -0.171985118              -0.284728735               0.000000000              -0.187597883              -0.308647764               0.000000000              -0.203210648              -0.332566794               0.000000000              -0.218823412              -0.356485823               0.000000000              -0.234436177              -0.380404853               0.000000000              -0.250048941              -0.404323882               0.000000000              -0.265661706              -0.428242912               0.000000000              -0.281274471              -0.452161941               0.000000000              -0.296887235              -0.476080971               0.000000000              -0.312500000              -0.500000000               0.000000000              -0.050896897              -0.122875978               0.000000000              -0.063340840              -0.146446229               0.000000000              -0.075784784              -0.170016481               0.000000000              -0.088228728              -0.193586732               0.000000000              -0.100672672              -0.217156983               0.000000000              -0.113116616              -0.240727235               0.000000000              -0.125560560              -0.264297486               0.000000000              -0.138004504              -0.287867738               0.000000000              -0.150448448              -0.311437989               0.000000000              -0.162892392              -0.335008240               0.000000000              -0.175336336              -0.358578492               0.000000000              -0.187780280              -0.382148743               0.000000000              -0.200224224              -0.405718994               0.000000000              -0.212668168              -0.429289246               0.000000000              -0.225112112              -0.452859497               0.000000000              -0.237556056              -0.476429749               0.000000000              -0.250000000              -0.500000000               0.000000000              -0.038607862              -0.127273065               0.000000000              -0.047913621              -0.150568498               0.000000000              -0.057219379              -0.173863932               0.000000000              -0.066525138              -0.197159365               0.000000000              -0.075830897              -0.220454798               0.000000000              -0.085136655              -0.243750232               0.000000000              -0.094442414              -0.267045665               0.000000000              -0.103748172              -0.290341099               0.000000000              -0.113053931              -0.313636532               0.000000000              -0.122359690              -0.336931966               0.000000000              -0.131665448              -0.360227399               0.000000000              -0.140971207              -0.383522833               0.000000000              -0.150276966              -0.406818266               0.000000000              -0.159582724              -0.430113700               0.000000000              -0.168888483              -0.453409133               0.000000000              -0.178194241              -0.476704567               0.000000000              -0.187500000              -0.500000000               0.000000000              -0.025947013              -0.130444442               0.000000000              -0.032137825              -0.153541665               0.000000000              -0.038328636              -0.176638887               0.000000000              -0.044519448              -0.199736109               0.000000000              -0.050710260              -0.222833332               0.000000000              -0.056901071              -0.245930554               0.000000000              -0.063091883              -0.269027776               0.000000000              -0.069282695              -0.292124999               0.000000000              -0.075473506              -0.315222221               0.000000000              -0.081664318              -0.338319444               0.000000000              -0.087855130              -0.361416666               0.000000000              -0.094045942              -0.384513888               0.000000000              -0.100236753              -0.407611111               0.000000000              -0.106427565              -0.430708333               0.000000000              -0.112618377              -0.453805555               0.000000000              -0.118809188              -0.476902778               0.000000000              -0.125000000              -0.500000000               0.000000000              -0.013036280              -0.132359569               0.000000000              -0.016127762              -0.155337096               0.000000000              -0.019219245              -0.178314623               0.000000000              -0.022310727              -0.201292150               0.000000000              -0.025402210              -0.224269676               0.000000000              -0.028493692              -0.247247203               0.000000000              -0.031585175              -0.270224730               0.000000000              -0.034676657              -0.293202257               0.000000000              -0.037768140              -0.316179784               0.000000000              -0.040859622              -0.339157311               0.000000000              -0.043951105              -0.362134838               0.000000000              -0.047042587              -0.385112365               0.000000000              -0.050134070              -0.408089892               0.000000000              -0.053225552              -0.431067419               0.000000000              -0.056317035              -0.454044946               0.000000000              -0.059408517              -0.477022473               0.000000000              -0.062500000              -0.500000000               0.000000000               0.000000000              -0.133000000               0.000000000               0.000000000              -0.155937500               0.000000000               0.000000000              -0.178875000               0.000000000               0.000000000              -0.201812500               0.000000000               0.000000000              -0.224750000               0.000000000               0.000000000              -0.247687500               0.000000000               0.000000000              -0.270625000               0.000000000               0.000000000              -0.293562500               0.000000000               0.000000000              -0.316500000               0.000000000               0.000000000              -0.339437500               0.000000000               0.000000000              -0.362375000               0.000000000               0.000000000              -0.385312500               0.000000000               0.000000000              -0.408250000               0.000000000               0.000000000              -0.431187500               0.000000000               0.000000000              -0.454125000               0.000000000               0.000000000              -0.477062500               0.000000000               0.000000000              -0.500000000               0.000000000              -0.133000000               0.000000000               0.000000000              -0.155937500               0.000000000               0.000000000              -0.178875000               0.000000000               0.000000000              -0.201812500               0.000000000               0.000000000              -0.224750000               0.000000000               0.000000000              -0.247687500               0.000000000               0.000000000              -0.270625000               0.000000000               0.000000000              -0.293562500               0.000000000               0.000000000              -0.316500000               0.000000000               0.000000000              -0.339437500               0.000000000               0.000000000              -0.362375000               0.000000000               0.000000000              -0.385312500               0.000000000               0.000000000              -0.408250000               0.000000000               0.000000000              -0.431187500               0.000000000               0.000000000              -0.454125000               0.000000000               0.000000000              -0.477062500               0.000000000               0.000000000              -0.500000000               0.000000000               0.000000000              -0.132359569               0.013036280               0.000000000              -0.155337096               0.016127762               0.000000000              -0.178314623               0.019219245               0.000000000              -0.201292150               0.022310727               0.000000000              -0.224269676               0.025402210               0.000000000              -0.247247203               0.028493692               0.000000000              -0.270224730               0.031585175               0.000000000              -0.293202257               0.034676657               0.000000000              -0.316179784               0.037768140               0.000000000              -0.339157311               0.040859622               0.000000000              -0.362134838               0.043951105               0.000000000              -0.385112365               0.047042587               0.000000000              -0.408089892               0.050134070               0.000000000              -0.431067419               0.053225552               0.000000000              -0.454044946               0.056317035               0.000000000              -0.477022473               0.059408517               0.000000000              -0.500000000               0.062500000               0.000000000              -0.130444442               0.025947013               0.000000000              -0.153541665               0.032137825               0.000000000              -0.176638887               0.038328636               0.000000000              -0.199736109               0.044519448               0.000000000              -0.222833332               0.050710260               0.000000000              -0.245930554               0.056901071               0.000000000              -0.269027776               0.063091883               0.000000000              -0.292124999               0.069282695               0.000000000              -0.315222221               0.075473506               0.000000000              -0.338319444               0.081664318               0.000000000              -0.361416666               0.087855130               0.000000000              -0.384513888               0.094045942               0.000000000              -0.407611111               0.100236753               0.000000000              -0.430708333               0.106427565               0.000000000              -0.453805555               0.112618377               0.000000000              -0.476902778               0.118809188               0.000000000              -0.500000000               0.125000000               0.000000000              -0.127273065               0.038607862               0.000000000              -0.150568498               0.047913621               0.000000000              -0.173863932               0.057219379               0.000000000              -0.197159365               0.066525138               0.000000000              -0.220454798               0.075830897               0.000000000              -0.243750232               0.085136655               0.000000000              -0.267045665               0.094442414               0.000000000              -0.290341099               0.103748172               0.000000000              -0.313636532               0.113053931               0.000000000              -0.336931966               0.122359690               0.000000000              -0.360227399               0.131665448               0.000000000              -0.383522833               0.140971207               0.000000000              -0.406818266               0.150276966               0.000000000              -0.430113700               0.159582724               0.000000000              -0.453409133               0.168888483               0.000000000              -0.476704567               0.178194241               0.000000000              -0.500000000               0.187500000               0.000000000              -0.122875978               0.050896897               0.000000000              -0.146446229               0.063340840               0.000000000              -0.170016481               0.075784784               0.000000000              -0.193586732               0.088228728               0.000000000              -0.217156983               0.100672672               0.000000000              -0.240727235               0.113116616               0.000000000              -0.264297486               0.125560560               0.000000000              -0.287867738               0.138004504               0.000000000              -0.311437989               0.150448448               0.000000000              -0.335008240               0.162892392               0.000000000              -0.358578492               0.175336336               0.000000000              -0.382148743               0.187780280               0.000000000              -0.405718994               0.200224224               0.000000000              -0.429289246               0.212668168               0.000000000              -0.452859497               0.225112112               0.000000000              -0.476429749               0.237556056               0.000000000              -0.500000000               0.250000000               0.000000000              -0.117295528               0.062695766               0.000000000              -0.141214558               0.078308531               0.000000000              -0.165133587               0.093921295               0.000000000              -0.189052617               0.109534060               0.000000000              -0.212971646               0.125146824               0.000000000              -0.236890676               0.140759589               0.000000000              -0.260809705               0.156372354               0.000000000              -0.284728735               0.171985118               0.000000000              -0.308647764               0.187597883               0.000000000              -0.332566794               0.203210648               0.000000000              -0.356485823               0.218823412               0.000000000              -0.380404853               0.234436177               0.000000000              -0.404323882               0.250048941               0.000000000              -0.428242912               0.265661706               0.000000000              -0.452161941               0.281274471               0.000000000              -0.476080971               0.296887235               0.000000000              -0.500000000               0.312500000               0.000000000              -0.110585458               0.073890841               0.000000000              -0.134923867               0.092710163               0.000000000              -0.159262276               0.111529486               0.000000000              -0.183600685               0.130348808               0.000000000              -0.207939094               0.149168131               0.000000000              -0.232277503               0.167987453               0.000000000              -0.256615912               0.186806776               0.000000000              -0.280954320               0.205626098               0.000000000              -0.305292729               0.224445420               0.000000000              -0.329631138               0.243264743               0.000000000              -0.353969547               0.262084065               0.000000000              -0.378307956               0.280903388               0.000000000              -0.402646365               0.299722710               0.000000000              -0.426984773               0.318542033               0.000000000              -0.451323182               0.337361355               0.000000000              -0.475661591               0.356180678               0.000000000              -0.500000000               0.375000000               0.000000000              -0.102810390               0.084374307               0.000000000              -0.127634741               0.106444663               0.000000000              -0.152459092               0.128515018               0.000000000              -0.177283442               0.150585374               0.000000000              -0.202107793               0.172655730               0.000000000              -0.226932143               0.194726086               0.000000000              -0.251756494               0.216796442               0.000000000              -0.276580845               0.238866798               0.000000000              -0.301405195               0.260937153               0.000000000              -0.326229546               0.283007509               0.000000000              -0.351053896               0.305077865               0.000000000              -0.375878247               0.327148221               0.000000000              -0.400702598               0.349218577               0.000000000              -0.425526948               0.371288933               0.000000000              -0.450351299               0.393359288               0.000000000              -0.475175649               0.415429644               0.000000000              -0.500000000               0.437500000               0.000000000              -0.094045202               0.094045202               0.000000000              -0.119417377               0.119417377               0.000000000              -0.144789552               0.144789552               0.000000000              -0.170161727               0.170161727               0.000000000              -0.195533901               0.195533901               0.000000000              -0.220906076               0.220906076               0.000000000              -0.246278251               0.246278251               0.000000000              -0.271650426               0.271650426               0.000000000              -0.297022601               0.297022601               0.000000000              -0.322394776               0.322394776               0.000000000              -0.347766951               0.347766951               0.000000000              -0.373139126               0.373139126               0.000000000              -0.398511300               0.398511300               0.000000000              -0.423883475               0.423883475               0.000000000              -0.449255650               0.449255650               0.000000000              -0.474627825               0.474627825               0.000000000              -0.500000000               0.500000000               0.000000000              -0.084374307               0.102810390               0.000000000              -0.106444663               0.127634741               0.000000000              -0.128515018               0.152459092               0.000000000              -0.150585374               0.177283442               0.000000000              -0.172655730               0.202107793               0.000000000              -0.194726086               0.226932143               0.000000000              -0.216796442               0.251756494               0.000000000              -0.238866798               0.276580845               0.000000000              -0.260937153               0.301405195               0.000000000              -0.283007509               0.326229546               0.000000000              -0.305077865               0.351053896               0.000000000              -0.327148221               0.375878247               0.000000000              -0.349218577               0.400702598               0.000000000              -0.371288933               0.425526948               0.000000000              -0.393359288               0.450351299               0.000000000              -0.415429644               0.475175649               0.000000000              -0.437500000               0.500000000               0.000000000              -0.073890841               0.110585458               0.000000000              -0.092710163               0.134923867               0.000000000              -0.111529486               0.159262276               0.000000000              -0.130348808               0.183600685               0.000000000              -0.149168131               0.207939094               0.000000000              -0.167987453               0.232277503               0.000000000              -0.186806776               0.256615912               0.000000000              -0.205626098               0.280954320               0.000000000              -0.224445420               0.305292729               0.000000000              -0.243264743               0.329631138               0.000000000              -0.262084065               0.353969547               0.000000000              -0.280903388               0.378307956               0.000000000              -0.299722710               0.402646365               0.000000000              -0.318542033               0.426984773               0.000000000              -0.337361355               0.451323182               0.000000000              -0.356180678               0.475661591               0.000000000              -0.375000000               0.500000000               0.000000000              -0.062695766               0.117295528               0.000000000              -0.078308531               0.141214558               0.000000000              -0.093921295               0.165133587               0.000000000              -0.109534060               0.189052617               0.000000000              -0.125146824               0.212971646               0.000000000              -0.140759589               0.236890676               0.000000000              -0.156372354               0.260809705               0.000000000              -0.171985118               0.284728735               0.000000000              -0.187597883               0.308647764               0.000000000              -0.203210648               0.332566794               0.000000000              -0.218823412               0.356485823               0.000000000              -0.234436177               0.380404853               0.000000000              -0.250048941               0.404323882               0.000000000              -0.265661706               0.428242912               0.000000000              -0.281274471               0.452161941               0.000000000              -0.296887235               0.476080971               0.000000000              -0.312500000               0.500000000               0.000000000              -0.050896897               0.122875978               0.000000000              -0.063340840               0.146446229               0.000000000              -0.075784784               0.170016481               0.000000000              -0.088228728               0.193586732               0.000000000              -0.100672672               0.217156983               0.000000000              -0.113116616               0.240727235               0.000000000              -0.125560560               0.264297486               0.000000000              -0.138004504               0.287867738               0.000000000              -0.150448448               0.311437989               0.000000000              -0.162892392               0.335008240               0.000000000              -0.175336336               0.358578492               0.000000000              -0.187780280               0.382148743               0.000000000              -0.200224224               0.405718994               0.000000000              -0.212668168               0.429289246               0.000000000              -0.225112112               0.452859497               0.000000000              -0.237556056               0.476429749               0.000000000              -0.250000000               0.500000000               0.000000000              -0.038607862               0.127273065               0.000000000              -0.047913621               0.150568498               0.000000000              -0.057219379               0.173863932               0.000000000              -0.066525138               0.197159365               0.000000000              -0.075830897               0.220454798               0.000000000              -0.085136655               0.243750232               0.000000000              -0.094442414               0.267045665               0.000000000              -0.103748172               0.290341099               0.000000000              -0.113053931               0.313636532               0.000000000              -0.122359690               0.336931966               0.000000000              -0.131665448               0.360227399               0.000000000              -0.140971207               0.383522833               0.000000000              -0.150276966               0.406818266               0.000000000              -0.159582724               0.430113700               0.000000000              -0.168888483               0.453409133               0.000000000              -0.178194241               0.476704567               0.000000000              -0.187500000               0.500000000               0.000000000              -0.025947013               0.130444442               0.000000000              -0.032137825               0.153541665               0.000000000              -0.038328636               0.176638887               0.000000000              -0.044519448               0.199736109               0.000000000              -0.050710260               0.222833332               0.000000000              -0.056901071               0.245930554               0.000000000              -0.063091883               0.269027776               0.000000000              -0.069282695               0.292124999               0.000000000              -0.075473506               0.315222221               0.000000000              -0.081664318               0.338319444               0.000000000              -0.087855130               0.361416666               0.000000000              -0.094045942               0.384513888               0.000000000              -0.100236753               0.407611111               0.000000000              -0.106427565               0.430708333               0.000000000              -0.112618377               0.453805555               0.000000000              -0.118809188               0.476902778               0.000000000              -0.125000000               0.500000000               0.000000000              -0.013036280               0.132359569               0.000000000              -0.016127762               0.155337096               0.000000000              -0.019219245               0.178314623               0.000000000              -0.022310727               0.201292150               0.000000000              -0.025402210               0.224269676               0.000000000              -0.028493692               0.247247203               0.000000000              -0.031585175               0.270224730               0.000000000              -0.034676657               0.293202257               0.000000000              -0.037768140               0.316179784               0.000000000              -0.040859622               0.339157311               0.000000000              -0.043951105               0.362134838               0.000000000              -0.047042587               0.385112365               0.000000000              -0.050134070               0.408089892               0.000000000              -0.053225552               0.431067419               0.000000000              -0.056317035               0.454044946               0.000000000              -0.059408517               0.477022473               0.000000000              -0.062500000               0.500000000               0.000000000               0.000000000               0.133000000               0.000000000               0.000000000               0.155937500               0.000000000               0.000000000               0.178875000               0.000000000               0.000000000               0.201812500               0.000000000               0.000000000               0.224750000               0.000000000               0.000000000               0.247687500               0.000000000               0.000000000               0.270625000               0.000000000               0.000000000               0.293562500               0.000000000               0.000000000               0.316500000               0.000000000               0.000000000               0.339437500               0.000000000               0.000000000               0.362375000               0.000000000               0.000000000               0.385312500               0.000000000               0.000000000               0.408250000               0.000000000               0.000000000               0.431187500               0.000000000               0.000000000               0.454125000               0.000000000               0.000000000               0.477062500               0.000000000               0.000000000               0.500000000               0.000000000 </DataArray>
</Points>
<Cells>
<DataArray type="Int32"                                    Name="connectivity"                                                      NumberOfComponents=" 1" format="ascii">
         0          1         18         17          1          2         19         18          2          3         20         19          3          4         21         20          4          5         22         21          5          6         23         22          6          7         24         23          7          8         25         24          8          9         26         25          9         10         27         26         10         11         28         27         11         12         29         28         12         13         30         29         13         14         31         30         14         15         32         31         15         16         33         32         17         18         35         34         18         19         36         35         19         20         37         36         20         21         38         37         21         22         39         38         22         23         40         39         23         24         41         40         24         25         42         41         25         26         43         42         26         27         44         43         27         28         45         44         28         29         46         45         29         30         47         46         30         31         48         47         31         32         49         48         32         33         50         49         34         35         52         51         35         36         53         52         36         37         54         53         37         38         55         54         38         39         56         55         39         40         57         56         40         41         58         57         41         42         59         58         42         43         60         59         43         44         61         60         44         45         62         61         45         46         63         62         46         47         64         63         47         48         65         64         48         49         66         65         49         50         67         66         51         52         69         68         52         53         70         69         53         54         71         70         54         55         72         71         55         56         73         72         56         57         74         73         57         58         75         74         58         59         76         75         59         60         77         76         60         61         78         77         61         62         79         78         62         63         80         79         63         64         81         80         64         65         82         81         65         66         83         82         66         67         84         83         68         69         86         85         69         70         87         86         70         71         88         87         71         72         89         88         72         73         90         89         73         74         91         90         74         75         92         91         75         76         93         92         76         77         94         93         77         78         95         94         78         79         96         95         79         80         97         96         80         81         98         97         81         82         99         98         82         83        100         99         83         84        101        100         85         86        103        102         86         87        104        103         87         88        105        104         88         89        106        105         89         90        107        106         90         91        108        107         91         92        109        108         92         93        110        109         93         94        111        110         94         95        112        111         95         96        113        112         96         97        114        113         97         98        115        114         98         99        116        115         99        100        117        116        100        101        118        117        102        103        120        119        103        104        121        120        104        105        122        121        105        106        123        122        106        107        124        123        107        108        125        124        108        109        126        125        109        110        127        126        110        111        128        127        111        112        129        128        112        113        130        129        113        114        131        130        114        115        132        131        115        116        133        132        116        117        134        133        117        118        135        134        119        120        137        136        120        121        138        137        121        122        139        138        122        123        140        139        123        124        141        140        124        125        142        141        125        126        143        142        126        127        144        143        127        128        145        144        128        129        146        145        129        130        147        146        130        131        148        147        131        132        149        148        132        133        150        149        133        134        151        150        134        135        152        151        136        137        154        153        137        138        155        154        138        139        156        155        139        140        157        156        140        141        158        157        141        142        159        158        142        143        160        159        143        144        161        160        144        145        162        161        145        146        163        162        146        147        164        163        147        148        165        164        148        149        166        165        149        150        167        166        150        151        168        167        151        152        169        168        153        154        171        170        154        155        172        171        155        156        173        172        156        157        174        173        157        158        175        174        158        159        176        175        159        160        177        176        160        161        178        177        161        162        179        178        162        163        180        179        163        164        181        180        164        165        182        181        165        166        183        182        166        167        184        183        167        168        185        184        168        169        186        185        170        171        188        187        171        172        189        188        172        173        190        189        173        174        191        190        174        175        192        191        175        176        193        192        176        177        194        193        177        178        195        194        178        179        196        195        179        180        197        196        180        181        198        197        181        182        199        198        182        183        200        199        183        184        201        200        184        185        202        201        185        186        203        202        187        188        205        204        188        189        206        205        189        190        207        206        190        191        208        207        191        192        209        208        192        193        210        209        193        194        211        210        194        195        212        211        195        196        213        212        196        197        214        213        197        198        215        214        198        199        216        215        199        200        217        216        200        201        218        217        201        202        219        218        202        203        220        219        204        205        222        221        205        206        223        222        206        207        224        223        207        208        225        224        208        209        226        225        209        210        227        226        210        211        228        227        211        212        229        228        212        213        230        229        213        214        231        230        214        215        232        231        215        216        233        232        216        217        234        233        217        218        235        234        218        219        236        235        219        220        237        236        221        222        239        238        222        223        240        239        223        224        241        240        224        225        242        241        225        226        243        242        226        227        244        243        227        228        245        244        228        229        246        245        229        230        247        246        230        231        248        247        231        232        249        248        232        233        250        249        233        234        251        250        234        235        252        251        235        236        253        252        236        237        254        253        238        239        256        255        239        240        257        256        240        241        258        257        241        242        259        258        242        243        260        259        243        244        261        260        244        245        262        261        245        246        263        262        246        247        264        263        247        248        265        264        248        249        266        265        249        250        267        266        250        251        268        267        251        252        269        268        252        253        270        269        253        254        271        270        255        256        273        272        256        257        274        273        257        258        275        274        258        259        276        275        259        260        277        276        260        261        278        277        261        262        279        278        262        263        280        279        263        264        281        280        264        265        282        281        265        266        283        282        266        267        284        283        267        268        285        284        268        269        286        285        269        270        287        286        270        271        288        287        306        307          1          0        307        308          2          1        308        309          3          2        309        310          4          3        310        311          5          4        311        312          6          5        312        313          7          6        313        314          8          7        314        315          9          8        315        316         10          9        316        317         11         10        317        318         12         11        318        319         13         12        319        320         14         13        320        321         15         14        321        322         16         15        323        324        307        306        324        325        308        307        325        326        309        308        326        327        310        309        327        328        311        310        328        329        312        311        329        330        313        312        330        331        314        313        331        332        315        314        332        333        316        315        333        334        317        316        334        335        318        317        335        336        319        318        336        337        320        319        337        338        321        320        338        339        322        321        340        341        324        323        341        342        325        324        342        343        326        325        343        344        327        326        344        345        328        327        345        346        329        328        346        347        330        329        347        348        331        330        348        349        332        331        349        350        333        332        350        351        334        333        351        352        335        334        352        353        336        335        353        354        337        336        354        355        338        337        355        356        339        338        357        358        341        340        358        359        342        341        359        360        343        342        360        361        344        343        361        362        345        344        362        363        346        345        363        364        347        346        364        365        348        347        365        366        349        348        366        367        350        349        367        368        351        350        368        369        352        351        369        370        353        352        370        371        354        353        371        372        355        354        372        373        356        355        374        375        358        357        375        376        359        358        376        377        360        359        377        378        361        360        378        379        362        361        379        380        363        362        380        381        364        363        381        382        365        364        382        383        366        365        383        384        367        366        384        385        368        367        385        386        369        368        386        387        370        369        387        388        371        370        388        389        372        371        389        390        373        372        391        392        375        374        392        393        376        375        393        394        377        376        394        395        378        377        395        396        379        378        396        397        380        379        397        398        381        380        398        399        382        381        399        400        383        382        400        401        384        383        401        402        385        384        402        403        386        385        403        404        387        386        404        405        388        387        405        406        389        388        406        407        390        389        408        409        392        391        409        410        393        392        410        411        394        393        411        412        395        394        412        413        396        395        413        414        397        396        414        415        398        397        415        416        399        398        416        417        400        399        417        418        401        400        418        419        402        401        419        420        403        402        420        421        404        403        421        422        405        404        422        423        406        405        423        424        407        406        425        426        409        408        426        427        410        409        427        428        411        410        428        429        412        411        429        430        413        412        430        431        414        413        431        432        415        414        432        433        416        415        433        434        417        416        434        435        418        417        435        436        419        418        436        437        420        419        437        438        421        420        438        439        422        421        439        440        423        422        440        441        424        423        442        443        426        425        443        444        427        426        444        445        428        427        445        446        429        428        446        447        430        429        447        448        431        430        448        449        432        431        449        450        433        432        450        451        434        433        451        452        435        434        452        453        436        435        453        454        437        436        454        455        438        437        455        456        439        438        456        457        440        439        457        458        441        440        459        460        443        442        460        461        444        443        461        462        445        444        462        463        446        445        463        464        447        446        464        465        448        447        465        466        449        448        466        467        450        449        467        468        451        450        468        469        452        451        469        470        453        452        470        471        454        453        471        472        455        454        472        473        456        455        473        474        457        456        474        475        458        457        476        477        460        459        477        478        461        460        478        479        462        461        479        480        463        462        480        481        464        463        481        482        465        464        482        483        466        465        483        484        467        466        484        485        468        467        485        486        469        468        486        487        470        469        487        488        471        470        488        489        472        471        489        490        473        472        490        491        474        473        491        492        475        474        493        494        477        476        494        495        478        477        495        496        479        478        496        497        480        479        497        498        481        480        498        499        482        481        499        500        483        482        500        501        484        483        501        502        485        484        502        503        486        485        503        504        487        486        504        505        488        487        505        506        489        488        506        507        490        489        507        508        491        490        508        509        492        491        510        511        494        493        511        512        495        494        512        513        496        495        513        514        497        496        514        515        498        497        515        516        499        498        516        517        500        499        517        518        501        500        518        519        502        501        519        520        503        502        520        521        504        503        521        522        505        504        522        523        506        505        523        524        507        506        524        525        508        507        525        526        509        508        527        528        511        510        528        529        512        511        529        530        513        512        530        531        514        513        531        532        515        514        532        533        516        515        533        534        517        516        534        535        518        517        535        536        519        518        536        537        520        519        537        538        521        520        538        539        522        521        539        540        523        522        540        541        524        523        541        542        525        524        542        543        526        525        544        545        528        527        545        546        529        528        546        547        530        529        547        548        531        530        548        549        532        531        549        550        533        532        550        551        534        533        551        552        535        534        552        553        536        535        553        554        537        536        554        555        538        537        555        556        539        538        556        557        540        539        557        558        541        540        558        559        542        541        559        560        543        542        561        562        545        544        562        563        546        545        563        564        547        546        564        565        548        547        565        566        549        548        566        567        550        549        567        568        551        550        568        569        552        551        569        570        553        552        570        571        554        553        571        572        555        554        572        573        556        555        573        574        557        556        574        575        558        557        575        576        559        558        576        577        560        559        578        579        596        595        579        580        597        596        580        581        598        597        581        582        599        598        582        583        600        599        583        584        601        600        584        585        602        601        585        586        603        602        586        587        604        603        587        588        605        604        588        589        606        605        589        590        607        606        590        591        608        607        591        592        609        608        592        593        610        609        593        594        611        610        595        596        613        612        596        597        614        613        597        598        615        614        598        599        616        615        599        600        617        616        600        601        618        617        601        602        619        618        602        603        620        619        603        604        621        620        604        605        622        621        605        606        623        622        606        607        624        623        607        608        625        624        608        609        626        625        609        610        627        626        610        611        628        627        612        613        630        629        613        614        631        630        614        615        632        631        615        616        633        632        616        617        634        633        617        618        635        634        618        619        636        635        619        620        637        636        620        621        638        637        621        622        639        638        622        623        640        639        623        624        641        640        624        625        642        641        625        626        643        642        626        627        644        643        627        628        645        644        629        630        647        646        630        631        648        647        631        632        649        648        632        633        650        649        633        634        651        650        634        635        652        651        635        636        653        652        636        637        654        653        637        638        655        654        638        639        656        655        639        640        657        656        640        641        658        657        641        642        659        658        642        643        660        659        643        644        661        660        644        645        662        661        646        647        664        663        647        648        665        664        648        649        666        665        649        650        667        666        650        651        668        667        651        652        669        668        652        653        670        669        653        654        671        670        654        655        672        671        655        656        673        672        656        657        674        673        657        658        675        674        658        659        676        675        659        660        677        676        660        661        678        677        661        662        679        678        663        664        681        680        664        665        682        681        665        666        683        682        666        667        684        683        667        668        685        684        668        669        686        685        669        670        687        686        670        671        688        687        671        672        689        688        672        673        690        689        673        674        691        690        674        675        692        691        675        676        693        692        676        677        694        693        677        678        695        694        678        679        696        695        680        681        698        697        681        682        699        698        682        683        700        699        683        684        701        700        684        685        702        701        685        686        703        702        686        687        704        703        687        688        705        704        688        689        706        705        689        690        707        706        690        691        708        707        691        692        709        708        692        693        710        709        693        694        711        710        694        695        712        711        695        696        713        712        697        698        715        714        698        699        716        715        699        700        717        716        700        701        718        717        701        702        719        718        702        703        720        719        703        704        721        720        704        705        722        721        705        706        723        722        706        707        724        723        707        708        725        724        708        709        726        725        709        710        727        726        710        711        728        727        711        712        729        728        712        713        730        729        714        715        732        731        715        716        733        732        716        717        734        733        717        718        735        734        718        719        736        735        719        720        737        736        720        721        738        737        721        722        739        738        722        723        740        739        723        724        741        740        724        725        742        741        725        726        743        742        726        727        744        743        727        728        745        744        728        729        746        745        729        730        747        746        731        732        749        748        732        733        750        749        733        734        751        750        734        735        752        751        735        736        753        752        736        737        754        753        737        738        755        754        738        739        756        755        739        740        757        756        740        741        758        757        741        742        759        758        742        743        760        759        743        744        761        760        744        745        762        761        745        746        763        762        746        747        764        763        748        749        766        765        749        750        767        766        750        751        768        767        751        752        769        768        752        753        770        769        753        754        771        770        754        755        772        771        755        756        773        772        756        757        774        773        757        758        775        774        758        759        776        775        759        760        777        776        760        761        778        777        761        762        779        778        762        763        780        779        763        764        781        780        765        766        783        782        766        767        784        783        767        768        785        784        768        769        786        785        769        770        787        786        770        771        788        787        771        772        789        788        772        773        790        789        773        774        791        790        774        775        792        791        775        776        793        792        776        777        794        793        777        778        795        794        778        779        796        795        779        780        797        796        780        781        798        797        782        783        800        799        783        784        801        800        784        785        802        801        785        786        803        802        786        787        804        803        787        788        805        804        788        789        806        805        789        790        807        806        790        791        808        807        791        792        809        808        792        793        810        809        793        794        811        810        794        795        812        811        795        796        813        812        796        797        814        813        797        798        815        814        799        800        817        816        800        801        818        817        801        802        819        818        802        803        820        819        803        804        821        820        804        805        822        821        805        806        823        822        806        807        824        823        807        808        825        824        808        809        826        825        809        810        827        826        810        811        828        827        811        812        829        828        812        813        830        829        813        814        831        830        814        815        832        831        816        817        834        833        817        818        835        834        818        819        836        835        819        820        837        836        820        821        838        837        821        822        839        838        822        823        840        839        823        824        841        840        824        825        842        841        825        826        843        842        826        827        844        843        827        828        845        844        828        829        846        845        829        830        847        846        830        831        848        847        831        832        849        848        833        834        562        561        834        835        563        562        835        836        564        563        836        837        565        564        837        838        566        565        838        839        567        566        839        840        568        567        840        841        569        568        841        842        570        569        842        843        571        570        843        844        572        571        844        845        573        572        845        846        574        573        846        847        575        574        847        848        576        575        848        849        577        576        884        885        579        578        885        886        580        579        886        887        581        580        887        888        582        581        888        889        583        582        889        890        584        583        890        891        585        584        891        892        586        585        892        893        587        586        893        894        588        587        894        895        589        588        895        896        590        589        896        897        591        590        897        898        592        591        898        899        593        592        899        900        594        593        901        902        885        884        902        903        886        885        903        904        887        886        904        905        888        887        905        906        889        888        906        907        890        889        907        908        891        890        908        909        892        891        909        910        893        892        910        911        894        893        911        912        895        894        912        913        896        895        913        914        897        896        914        915        898        897        915        916        899        898        916        917        900        899        918        919        902        901        919        920        903        902        920        921        904        903        921        922        905        904        922        923        906        905        923        924        907        906        924        925        908        907        925        926        909        908        926        927        910        909        927        928        911        910        928        929        912        911        929        930        913        912        930        931        914        913        931        932        915        914        932        933        916        915        933        934        917        916        935        936        919        918        936        937        920        919        937        938        921        920        938        939        922        921        939        940        923        922        940        941        924        923        941        942        925        924        942        943        926        925        943        944        927        926        944        945        928        927        945        946        929        928        946        947        930        929        947        948        931        930        948        949        932        931        949        950        933        932        950        951        934        933        952        953        936        935        953        954        937        936        954        955        938        937        955        956        939        938        956        957        940        939        957        958        941        940        958        959        942        941        959        960        943        942        960        961        944        943        961        962        945        944        962        963        946        945        963        964        947        946        964        965        948        947        965        966        949        948        966        967        950        949        967        968        951        950        969        970        953        952        970        971        954        953        971        972        955        954        972        973        956        955        973        974        957        956        974        975        958        957        975        976        959        958        976        977        960        959        977        978        961        960        978        979        962        961        979        980        963        962        980        981        964        963        981        982        965        964        982        983        966        965        983        984        967        966        984        985        968        967        986        987        970        969        987        988        971        970        988        989        972        971        989        990        973        972        990        991        974        973        991        992        975        974        992        993        976        975        993        994        977        976        994        995        978        977        995        996        979        978        996        997        980        979        997        998        981        980        998        999        982        981        999       1000        983        982       1000       1001        984        983       1001       1002        985        984       1003       1004        987        986       1004       1005        988        987       1005       1006        989        988       1006       1007        990        989       1007       1008        991        990       1008       1009        992        991       1009       1010        993        992       1010       1011        994        993       1011       1012        995        994       1012       1013        996        995       1013       1014        997        996       1014       1015        998        997       1015       1016        999        998       1016       1017       1000        999       1017       1018       1001       1000       1018       1019       1002       1001       1020       1021       1004       1003       1021       1022       1005       1004       1022       1023       1006       1005       1023       1024       1007       1006       1024       1025       1008       1007       1025       1026       1009       1008       1026       1027       1010       1009       1027       1028       1011       1010       1028       1029       1012       1011       1029       1030       1013       1012       1030       1031       1014       1013       1031       1032       1015       1014       1032       1033       1016       1015       1033       1034       1017       1016       1034       1035       1018       1017       1035       1036       1019       1018       1037       1038       1021       1020       1038       1039       1022       1021       1039       1040       1023       1022       1040       1041       1024       1023       1041       1042       1025       1024       1042       1043       1026       1025       1043       1044       1027       1026       1044       1045       1028       1027       1045       1046       1029       1028       1046       1047       1030       1029       1047       1048       1031       1030       1048       1049       1032       1031       1049       1050       1033       1032       1050       1051       1034       1033       1051       1052       1035       1034       1052       1053       1036       1035       1054       1055       1038       1037       1055       1056       1039       1038       1056       1057       1040       1039       1057       1058       1041       1040       1058       1059       1042       1041       1059       1060       1043       1042       1060       1061       1044       1043       1061       1062       1045       1044       1062       1063       1046       1045       1063       1064       1047       1046       1064       1065       1048       1047       1065       1066       1049       1048       1066       1067       1050       1049       1067       1068       1051       1050       1068       1069       1052       1051       1069       1070       1053       1052       1071       1072       1055       1054       1072       1073       1056       1055       1073       1074       1057       1056       1074       1075       1058       1057       1075       1076       1059       1058       1076       1077       1060       1059       1077       1078       1061       1060       1078       1079       1062       1061       1079       1080       1063       1062       1080       1081       1064       1063       1081       1082       1065       1064       1082       1083       1066       1065       1083       1084       1067       1066       1084       1085       1068       1067       1085       1086       1069       1068       1086       1087       1070       1069       1088       1089       1072       1071       1089       1090       1073       1072       1090       1091       1074       1073       1091       1092       1075       1074       1092       1093       1076       1075       1093       1094       1077       1076       1094       1095       1078       1077       1095       1096       1079       1078       1096       1097       1080       1079       1097       1098       1081       1080       1098       1099       1082       1081       1099       1100       1083       1082       1100       1101       1084       1083       1101       1102       1085       1084       1102       1103       1086       1085       1103       1104       1087       1086       1105       1106       1089       1088       1106       1107       1090       1089       1107       1108       1091       1090       1108       1109       1092       1091       1109       1110       1093       1092       1110       1111       1094       1093       1111       1112       1095       1094       1112       1113       1096       1095       1113       1114       1097       1096       1114       1115       1098       1097       1115       1116       1099       1098       1116       1117       1100       1099       1117       1118       1101       1100       1118       1119       1102       1101       1119       1120       1103       1102       1120       1121       1104       1103       1122       1123       1106       1105       1123       1124       1107       1106       1124       1125       1108       1107       1125       1126       1109       1108       1126       1127       1110       1109       1127       1128       1111       1110       1128       1129       1112       1111       1129       1130       1113       1112       1130       1131       1114       1113       1131       1132       1115       1114       1132       1133       1116       1115       1133       1134       1117       1116       1134       1135       1118       1117       1135       1136       1119       1118       1136       1137       1120       1119       1137       1138       1121       1120        272        273       1123       1122        273        274       1124       1123        274        275       1125       1124        275        276       1126       1125        276        277       1127       1126        277        278       1128       1127        278        279       1129       1128        279        280       1130       1129        280        281       1131       1130        281        282       1132       1131        282        283       1133       1132        283        284       1134       1133        284        285       1135       1134        285        286       1136       1135        286        287       1137       1136        287        288       1138       1137 </DataArray>
<DataArray type="Int32"                                    Name="offsets"                                                      NumberOfComponents=" 1" format="ascii">
         4          8         12         16         20         24         28         32         36         40         44         48         52         56         60         64         68         72         76         80         84         88         92         96        100        104        108        112        116        120        124        128        132        136        140        144        148        152        156        160        164        168        172        176        180        184        188        192        196        200        204        208        212        216        220        224        228        232        236        240        244        248        252        256        260        264        268        272        276        280        284        288        292        296        300        304        308        312        316        320        324        328        332        336        340        344        348        352        356        360        364        368        372        376        380        384        388        392        396        400        404        408        412        416        420        424        428        432        436        440        444        448        452        456        460        464        468        472        476        480        484        488        492        496        500        504        508        512        516        520        524        528        532        536        540        544        548        552        556        560        564        568        572        576        580        584        588        592        596        600        604        608        612        616        620        624        628        632        636        640        644        648        652        656        660        664        668        672        676        680        684        688        692        696        700        704        708        712        716        720        724        728        732        736        740        744        748        752        756        760        764        768        772        776        780        784        788        792        796        800        804        808        812        816        820        824        828        832        836        840        844        848        852        856        860        864        868        872        876        880        884        888        892        896        900        904        908        912        916        920        924        928        932        936        940        944        948        952        956        960        964        968        972        976        980        984        988        992        996       1000       1004       1008       1012       1016       1020       1024       1028       1032       1036       1040       1044       1048       1052       1056       1060       1064       1068       1072       1076       1080       1084       1088       1092       1096       1100       1104       1108       1112       1116       1120       1124       1128       1132       1136       1140       1144       1148       1152       1156       1160       1164       1168       1172       1176       1180       1184       1188       1192       1196       1200       1204       1208       1212       1216       1220       1224       1228       1232       1236       1240       1244       1248       1252       1256       1260       1264       1268       1272       1276       1280       1284       1288       1292       1296       1300       1304       1308       1312       1316       1320       1324       1328       1332       1336       1340       1344       1348       1352       1356       1360       1364       1368       1372       1376       1380       1384       1388       1392       1396       1400       1404       1408       1412       1416       1420       1424       1428       1432       1436       1440       1444       1448       1452       1456       1460       1464       1468       1472       1476       1480       1484       1488       1492       1496       1500       1504       1508       1512       1516       1520       1524       1528       1532       1536       1540       1544       1548       1552       1556       1560       1564       1568       1572       1576       1580       1584       1588       1592       1596       1600       1604       1608       1612       1616       1620       1624       1628       1632       1636       1640       1644       1648       1652       1656       1660       1664       1668       1672       1676       1680       1684       1688       1692       1696       1700       1704       1708       1712       1716       1720       1724       1728       1732       1736       1740       1744       1748       1752       1756       1760       1764       1768       1772       1776       1780       1784       1788       1792       1796       1800       1804       1808       1812       1816       1820       1824       1828       1832       1836       1840       1844       1848       1852       1856       1860       1864       1868       1872       1876       1880       1884       1888       1892       1896       1900       1904       1908       1912       1916       1920       1924       1928       1932       1936       1940       1944       1948       1952       1956       1960       1964       1968       1972       1976       1980       1984       1988       1992       1996       2000       2004       2008       2012       2016       2020       2024       2028       2032       2036       2040       2044       2048       2052       2056       2060       2064       2068       2072       2076       2080       2084       2088       2092       2096       2100       2104       2108       2112       2116       2120       2124       2128       2132       2136       2140       2144       2148       2152       2156       2160       2164       2168       2172       2176       2180       2184       2188       2192       2196       2200       2204       2208       2212       2216       2220       2224       2228       2232       2236       2240       2244       2248       2252       2256       2260       2264       2268       2272       2276       2280       2284       2288       2292       2296       2300       2304       2308       2312       2316       2320       2324       2328       2332       2336       2340       2344       2348       2352       2356       2360       2364       2368       2372       2376       2380       2384       2388       2392       2396       2400       2404       2408       2412       2416       2420       2424       2428       2432       2436       2440       2444       2448       2452       2456       2460       2464       2468       2472       2476       2480       2484       2488       2492       2496       2500       2504       2508       2512       2516       2520       2524       2528       2532       2536       2540       2544       2548       2552       2556       2560       2564       2568       2572       2576       2580       2584       2588       2592       2596       2600       2604       2608       2612       2616       2620       2624       2628       2632       2636       2640       2644       2648       2652       2656       2660       2664       2668       2672       2676       2680       2684       2688       2692       2696       2700       2704       2708       2712       2716       2720       2724       2728       2732       2736       2740       2744       2748       2752       2756       2760       2764       2768       2772       2776       2780       2784       2788       2792       2796       2800       2804       2808       2812       2816       2820       2824       2828       2832       2836       2840       2844       2848       2852       2856       2860       2864       2868       2872       2876       2880       2884       2888       2892       2896       2900       2904       2908       2912       2916       2920       2924       2928       2932       2936       2940       2944       2948       2952       2956       2960       2964       2968       2972       2976       2980       2984       2988       2992       2996       3000       3004       3008       3012       3016       3020       3024       3028       3032       3036       3040       3044       3048       3052       3056       3060       3064       3068       3072       3076       3080       3084       3088       3092       3096       3100       3104       3108       3112       3116       3120       3124       3128       3132       3136       3140       3144       3148       3152       3156       3160       3164       3168       3172       3176       3180       3184       3188       3192       3196       3200       3204       3208       3212       3216       3220       3224       3228       3232       3236       3240       3244       3248       3252       3256       3260       3264       3268       3272       3276       3280       3284       3288       3292       3296       3300       3304       3308       3312       3316       3320       3324       3328       3332       3336       3340       3344       3348       3352       3356       3360       3364       3368       3372       3376       3380       3384       3388       3392       3396       3400       3404       3408       3412       3416       3420       3424       3428       3432       3436       3440       3444       3448       3452       3456       3460       3464       3468       3472       3476       3480       3484       3488       3492       3496       3500       3504       3508       3512       3516       3520       3524       3528       3532       3536       3540       3544       3548       3552       3556       3560       3564       3568       3572       3576       3580       3584       3588       3592       3596       3600       3604       3608       3612       3616       3620       3624       3628       3632       3636       3640       3644       3648       3652       3656       3660       3664       3668       3672       3676       3680       3684       3688       3692       3696       3700       3704       3708       3712       3716       3720       3724       3728       3732       3736       3740       3744       3748       3752       3756       3760       3764       3768       3772       3776       3780       3784       3788       3792       3796       3800       3804       3808       3812       3816       3820       3824       3828       3832       3836       3840       3844       3848       3852       3856       3860       3864       3868       3872       3876       3880       3884       3888       3892       3896       3900       3904       3908       3912       3916       3920       3924       3928       3932       3936       3940       3944       3948       3952       3956       3960       3964       3968       3972       3976       3980       3984       3988       3992       3996       4000       4004       4008       4012       4016       4020       4024       4028       4032       4036       4040       4044       4048       4052       4056       4060       4064       4068       4072       4076       4080       4084       4088       4092       4096 </DataArray>
<DataArray type="UInt8"                                    Name="types"                                                      NumberOfComponents=" 1" format="ascii">
         9          9          9          9          9          9          9          9          9          9          9          9          9          9          9          9          9          9          9          9          9          9          9          9          9          9          9          9          9          9          9          9          9          9          9          9          9          9          9          9          9          9          9          9          9          9          9          9          9          9          9          9          9          9          9          9          9          9          9          9          9          9          9          9          9          9          9          9          9          9          9          9          9          9          9          9          9          9          9          9          9          9          9          9          9          9          9          9          9          9          9          9          9          9          9          9          9          9          9          9          9          9          9          9          9          9          9          9          9          9          9          9          9          9          9          9          9          9          9          9          9          9          9          9          9          9          9          9          9          9          9          9          9          9          9          9          9          9          9          9          9          9          9          9          9          9          9          9          9          9          9          9          9          9          9          9          9          9          9          9          9          9          9          9          9          9          9          9          9          9          9          9          9          9          9          9          9          9          9          9          9          9          9          9          9          9          9          9          9          9          9          9          9          9          9          9          9          9          9          9          9          9          9          9          9          9          9          9          9          9          9          9          9          9          9          9          9          9          9          9          9          9          9          9          9          9          9          9          9          9          9          9          9          9          9          9          9          9          9          9          9          9          9          9          9          9          9          9          9          9          9          9          9          9          9          9          9          9          9          9          9          9          9          9          9          9          9          9          9          9          9          9          9          9          9          9          9          9          9          9          9          9          9          9          9          9          9          9          9          9          9          9          9          9          9          9          9          9          9          9          9          9          9          9          9          9          9          9          9          9          9          9          9          9          9          9          9          9          9          9          9          9          9          9          9          9          9          9          9          9          9          9          9          9          9          9          9          9          9          9          9          9          9          9          9          9          9          9          9          9          9          9          9          9          9          9          9          9          9          9          9          9          9          9          9          9          9          9          9          9          9          9          9          9          9          9          9          9          9          9          9          9          9          9          9          9          9          9          9          9          9          9          9          9          9          9          9          9          9          9          9          9          9          9          9          9          9          9          9          9          9          9          9          9          9          9          9          9          9          9          9          9          9          9          9          9          9          9          9          9          9          9          9          9          9          9          9          9          9          9          9          9          9          9          9          9          9          9          9          9          9          9          9          9          9          9          9          9          9          9          9          9          9          9          9          9          9          9          9          9          9          9          9          9          9          9          9          9          9          9          9          9          9          9          9          9          9          9          9          9          9          9          9          9          9          9          9          9          9          9          9          9          9          9          9          9          9          9          9          9          9          9          9          9          9          9          9          9          9          9          9          9          9          9          9          9          9          9          9          9          9          9          9          9          9          9          9          9          9          9          9          9          9          9          9          9          9          9          9          9          9          9          9          9          9          9          9          9          9          9          9          9          9          9          9          9          9          9          9          9          9          9          9          9          9          9          9          9          9          9          9          9          9          9          9          9          9          9          9          9          9          9          9          9          9          9          9          9          9          9          9          9          9          9          9          9          9          9          9          9          9          9          9          9          9          9          9          9          9          9          9          9          9          9          9          9          9          9          9          9          9          9          9          9          9          9          9          9          9          9          9          9          9          9          9          9          9          9          9          9          9          9          9          9          9          9          9          9          9          9          9          9          9          9          9          9          9          9          9          9          9          9          9          9          9          9          9          9          9          9          9          9          9          9          9          9          9          9          9          9          9          9          9          9          9          9          9          9          9          9          9          9          9          9          9          9          9          9          9          9          9          9          9          9          9          9          9          9          9          9          9          9          9          9          9          9          9          9          9          9          9          9          9          9          9          9          9          9          9          9          9          9          9          9          9          9          9          9          9          9          9          9          9          9          9          9          9          9          9          9          9          9          9          9          9          9          9          9          9          9          9          9          9          9          9          9          9          9          9          9          9          9          9          9          9          9          9          9          9          9          9          9          9          9          9          9          9          9          9          9          9          9          9          9          9          9          9          9          9          9          9          9          9          9          9          9          9          9          9          9          9          9          9          9          9          9          9          9          9          9          9          9          9          9          9          9          9          9          9          9          9          9          9          9          9          9          9          9          9          9          9          9          9          9          9          9          9          9          9          9          9          9          9          9          9          9          9          9          9          9          9          9          9          9          9          9          9          9          9          9          9          9          9          9          9          9          9          9          9          9          9          9          9          9          9          9          9          9          9          9          9          9          9          9          9          9          9          9          9          9          9          9          9          9          9          9          9          9          9          9          9          9          9          9          9          9          9          9          9          9          9          9          9          9          9          9          9          9          9          9          9          9          9          9          9          9          9          9          9          9          9          9          9          9          9          9          9          9          9          9          9          9          9          9          9          9          9          9          9          9          9          9          9          9          9          9          9          9          9          9          9          9          9          9          9          9          9          9          9          9          9          9          9          9          9          9          9          9          9          9          9          9          9          9          9          9          9          9          9          9          9          9          9          9          9          9          9          9          9          9          9          9          9          9 </DataArray>
</Cells>
<CellData>
<DataArray type="Int32"                                    Name="material"                                                      NumberOfComponents=" 1" format="ascii">
         1          1          1          1          1          1          1          1          1          1          1          1          1          1          1          1          1          1          1          1          1          1          1          1          1          1          1          1          1          1          1          1          1          1          1          1          1          1          1          1          1          1          1          1          1          1          1          1          1          1          1          1          1          1          1          1          1          1          1          1          1          1          1          1          1          1          1          1          1          1          1          1          1          1          1          1          1          1          1          1          1          1          1          1          1          1          1          1          1          1          1          1          1          1          1          1          1          1          1          1          1          1          1          1          1          1          1          1          1          1          1          1          1          1          1          1          1          1          1          1          1          1          1          1          1          1          1          1          1          1          1          1          1          1          1          1          1          1          1          1          1          1          1          1          1          1          1          1          1          1          1          1          1          1          1          1          1          1          1          1          1          1          1          1          1          1          1          1          1          1          1          1          1          1          1          1          1          1          1          1          1          1          1          1          1          1          1          1          1          1          1          1          1          1          1          1          1          1          1          1          1          1          1          1          1          1          1          1          1          1          1          1          1          1          1          1          1          1          1          1          1          1          1          1          1          1          1          1          1          1          1          1          1          1          1          1          1          1          1          1          1          1          1          1          1          1          1          1          1          1          1          1          1          1          1          1          1          1          1          1          1          1          1          1          1          1          1          1          1          1          1          1          1          1          1          1          1          1          1          1          1          1          1          1          1          1          1          1          1          1          1          1          1          1          1          1          1          1          1          1          1          1          1          1          1          1          1          1          1          1          1          1          1          1          1          1          1          1          1          1          1          1          1          1          1          1          1          1          1          1          1          1          1          1          1          1          1          1          1          1          1          1          1          1          1          1          1          1          1          1          1          1          1          1          1          1          1          1          1          1          1          1          1          1          1          1          1          1          1          1          1          1          1          1          1          1          1          1          1          1          1          1          1          1          1          1          1          1          1          1          1          1          1          1          1          1          1          1          1          1          1          1          1          1          1          1          1          1          1          1          1          1          1          1          1          1          1          1          1          1          1          1          1          1          1          1          1          1          1          1          1          1          1          1          1          1          1          1          1          1          1          1          1          1          1          1          1          1          1          1          1          1          1          1          1          1          1          1          1          1          1          1          1          1          1          1          1          1          1          1          1          1          1          1          1          1          1          1          1          1          1          1          1          1          1          1          1          1          1          1          1          1          1          1          1          1          1          1          1          1          1          1          1          1          1          1          1          1          1          1          1          1          1          1          1          1          1          1          1          1          1          1          1          1          1          1          1          1          1          1          1          1          1          1          1          1          1          1          1          1          1          1          1          1          1          1          1          1          1          1          1          1          1          1          1          1          1          1          1          1          1          1          1          1          1          1          1          1          1          1          1          1          1          1          1          1          1          1          1          1          1          1          1          1          1          1          1          1          1          1          1          1          1          1          1          1          1          1          1          1          1          1          1          1          1          1          1          1          1          1          1          1          1          1          1          1          1          1          1          1          1          1          1          1          1          1          1          1          1          1          1          1          1          1          1          1          1          1          1          1          1          1          1          1          1          1          1          1          1          1          1          1          1          1          1          1          1          1          1          1          1          1          1          1          1          1          1          1          1          1          1          1          1          1          1          1          1          1          1          1          1          1          1          1          1          1          1          1          1          1          1          1          1          1          1          1          1          1          1          1          1          1          1          1          1          1          1          1          1          1          1          1          1          1          1          1          1          1          1          1          1          1          1          1          1          1          1          1          1          1          1          1          1          1          1          1          1          1          1          1          1          1          1          1          1          1          1          1          1          1          1          1          1          1          1          1          1          1          1          1          1          1          1          1          1          1          1          1          1          1          1          1          1          1          1          1          1          1          1          1          1          1          1          1          1          1          1          1          1          1          1          1          1          1          1          1          1          1          1          1          1          1          1          1          1          1          1          1          1          1          1          1          1          1          1          1          1          1          1          1          1          1          1          1          1          1          1          1          1          1          1          1          1          1          1          1          1          1          1          1          1          1          1          1          1          1          1          1          1          1          1          1          1          1          1          1          1          1          1          1          1          1          1          1          1          1          1          1          1          1          1          1          1          1          1          1          1          1          1          1          1          1          1          1          1          1          1          1          1          1          1          1          1          1          1          1          1          1          1          1          1          1          1          1          1          1          1          1          1          1          1          1          1          1          1          1          1          1          1          1          1          1          1          1          1          1          1          1          1          1          1          1          1          1          1          1          1          1          1          1          1          1          1          1          1          1          1          1          1          1          1          1          1          1          1          1          1          1          1          1          1          1          1          1          1          1          1          1          1          1          1          1          1          1          1          1          1          1          1          1          1          1          1          1          1          1          1          1          1          1          1          1          1          1          1          1          1          1          1          1          1          1          1          1          1          1          1          1          1          1          1          1          1          1          1          1          1          1          1          1          1          1          1          1 </DataArray>
</CellData>
<PointData>
<DataArray type="Float64"                                    Name="u"                                                      NumberOfComponents=" 3" format="ascii">
             -0.000000066               0.000000000               1.000000000              -0.000000044               0.000000000               1.000000000               0.000000035               0.000000000               1.000000000               0.000000030              -0.000000000               1.000000000               0.000000059              -0.000000000               1.000000000               0.000000116               0.000000000               1.000000000               0.000000163               0.000000000               1.000000000               0.000000201              -0.000000000               1.000000000               0.000000234              -0.000000000               1.000000000               0.000000252              -0.000000000               1.000000000               0.000000225               0.000000000               1.000000000               0.000000139               0.000000000               1.000000000               0.000000013              -0.000000000               1.000000000              -0.000000102              -0.000000000               1.000000000              -0.000000148              -0.000000000               1.000000000              -0.000000085               0.000000000               1.000000000               0.000000075               0.000000000               1.000000000               0.000000043               0.000000161               1.000000000               0.000000018               0.000000062               1.000000000              -0.000000004               0.000000118               1.000000000              -0.000000008               0.000000103               1.000000000              -0.000000017               0.000000040               1.000000000              -0.000000045              -0.000000011               1.000000000              -0.000000063              -0.000000109               1.000000000              -0.000000072              -0.000000215               1.000000000              -0.000000090              -0.000000321               1.000000000              -0.000000118              -0.000000384               1.000000000              -0.000000155              -0.000000405               1.000000000              -0.000000185              -0.000000413               1.000000000              -0.000000190              -0.000000459               1.000000000              -0.000000157              -0.000000584               1.000000000              -0.000000086              -0.000000789               1.000000000              -0.000000001              -0.000001019               1.000000000               0.000000063              -0.000001170               1.000000000               0.000000029               0.000000146               1.000000000               0.000000005               0.000000073               1.000000000              -0.000000014               0.000000017               1.000000000               0.000000007              -0.000000017               1.000000000              -0.000000008              -0.000000087               1.000000000              -0.000000030              -0.000000161               1.000000000              -0.000000061              -0.000000239               1.000000000              -0.000000102              -0.000000295               1.000000000              -0.000000145              -0.000000299               1.000000000              -0.000000186              -0.000000259               1.000000000              -0.000000189              -0.000000208               1.000000000              -0.000000118              -0.000000184               1.000000000               0.000000033              -0.000000216               1.000000000               0.000000227              -0.000000284               1.000000000               0.000000378              -0.000000320               1.000000000               0.000000383              -0.000000226               1.000000000               0.000000140               0.000000073               1.000000000              -0.000000070              -0.000000007               1.000000000              -0.000000013              -0.000000027               1.000000000               0.000000001              -0.000000176               1.000000000              -0.000000031              -0.000000200               1.000000000              -0.000000026              -0.000000261               1.000000000              -0.000000022              -0.000000252               1.000000000              -0.000000020              -0.000000159               1.000000000              -0.000000005               0.000000017               1.000000000               0.000000008               0.000000283               1.000000000               0.000000053               0.000000575               1.000000000               0.000000158               0.000000843               1.000000000               0.000000312               0.000001060               1.000000000               0.000000454               0.000001278               1.000000000               0.000000483               0.000001617               1.000000000               0.000000283               0.000002228               1.000000000              -0.000000249               0.000003251               1.000000000              -0.000001207               0.000004827               1.000000000               0.000000008              -0.000000162               1.000000000               0.000000022              -0.000000098               1.000000000               0.000000007              -0.000000248               1.000000000              -0.000000008              -0.000000193               1.000000000              -0.000000006              -0.000000080               1.000000000               0.000000013               0.000000184               1.000000000               0.000000044               0.000000590               1.000000000               0.000000070               0.000001157               1.000000000               0.000000124               0.000001815               1.000000000               0.000000211               0.000002496               1.000000000               0.000000306               0.000003170               1.000000000               0.000000327               0.000003887               1.000000000               0.000000147               0.000004796               1.000000000              -0.000000357               0.000006067               1.000000000              -0.000001288               0.000007868               1.000000000              -0.000002712               0.000010350               1.000000000              -0.000004653               0.000013641               1.000000000               0.000000046              -0.000000325               1.000000000              -0.000000020              -0.000000116               1.000000000               0.000000046              -0.000000153               1.000000000               0.000000024               0.000000107               1.000000000               0.000000011               0.000000585               1.000000000               0.000000060               0.000001260               1.000000000               0.000000080               0.000002185               1.000000000               0.000000100               0.000003305               1.000000000               0.000000128               0.000004524               1.000000000               0.000000130               0.000005808               1.000000000               0.000000017               0.000007183               1.000000000              -0.000000349               0.000008815               1.000000000              -0.000001103               0.000010879               1.000000000              -0.000002355               0.000013549               1.000000000              -0.000004158               0.000016963               1.000000000              -0.000006513               0.000021204               1.000000000              -0.000009383               0.000026299               1.000000000               0.000000026              -0.000000436               1.000000000              -0.000000064              -0.000000093               1.000000000               0.000000029               0.000000118               1.000000000              -0.000000002               0.000000719               1.000000000               0.000000030               0.000001691               1.000000000               0.000000076               0.000002954               1.000000000               0.000000103               0.000004579               1.000000000               0.000000087               0.000006409               1.000000000               0.000000037               0.000008418               1.000000000              -0.000000160               0.000010582               1.000000000              -0.000000631               0.000013050               1.000000000              -0.000001534               0.000016009               1.000000000              -0.000002982               0.000019640               1.000000000              -0.000005031               0.000024084               1.000000000              -0.000007668               0.000029398               1.000000000              -0.000010858               0.000035582               1.000000000              -0.000014546               0.000042626               1.000000000               0.000000054              -0.000000428               1.000000000              -0.000000081               0.000000016               1.000000000               0.000000026               0.000000673               1.000000000               0.000000039               0.000001715               1.000000000               0.000000037               0.000003290               1.000000000               0.000000074               0.000005295               1.000000000               0.000000057               0.000007715               1.000000000              -0.000000038               0.000010476               1.000000000              -0.000000241               0.000013494               1.000000000              -0.000000717               0.000016891               1.000000000              -0.000001619               0.000020828               1.000000000              -0.000003095               0.000025527               1.000000000              -0.000005196               0.000031121               1.000000000              -0.000007928               0.000037687               1.000000000              -0.000011251               0.000045195               1.000000000              -0.000015119               0.000053606               1.000000000              -0.000019446               0.000062794               1.000000000               0.000000058              -0.000000347               1.000000000              -0.000000098               0.000000248               1.000000000               0.000000010               0.000001426               1.000000000               0.000000043               0.000003027               1.000000000               0.000000031               0.000005371               1.000000000               0.000000076               0.000008267               1.000000000              -0.000000018               0.000011697               1.000000000              -0.000000193               0.000015553               1.000000000              -0.000000586               0.000019896               1.000000000              -0.000001370               0.000024846               1.000000000              -0.000002709               0.000030653               1.000000000              -0.000004686               0.000037456               1.000000000              -0.000007319               0.000045371               1.000000000              -0.000010547               0.000054387               1.000000000              -0.000014329               0.000064462               1.000000000              -0.000018560               0.000075459               1.000000000              -0.000023093               0.000087158               1.000000000               0.000000010              -0.000000176               1.000000000              -0.000000072               0.000000452               1.000000000              -0.000000055               0.000001835               1.000000000               0.000000070               0.000003642               1.000000000               0.000000010               0.000006005               1.000000000               0.000000056               0.000009019               1.000000000               0.000000003               0.000012571               1.000000000              -0.000000128               0.000016589               1.000000000              -0.000000349               0.000021101               1.000000000              -0.000000774               0.000026106               1.000000000              -0.000001531               0.000031759               1.000000000              -0.000002717               0.000038199               1.000000000              -0.000004375               0.000045521               1.000000000              -0.000006495               0.000053810               1.000000000              -0.000009029               0.000063083               1.000000000              -0.000011968               0.000073349               1.000000000              -0.000015250               0.000084563               1.000000000              -0.000000015               0.000000116               1.000000000              -0.000000026               0.000000690               1.000000000              -0.000000108               0.000002214               1.000000000               0.000000044               0.000004199               1.000000000               0.000000039               0.000006654               1.000000000               0.000000040               0.000009710               1.000000000               0.000000054               0.000013382               1.000000000              -0.000000032               0.000017526               1.000000000              -0.000000159               0.000022160               1.000000000              -0.000000365               0.000027300               1.000000000              -0.000000742               0.000032953               1.000000000              -0.000001361               0.000039249               1.000000000              -0.000002276               0.000046240               1.000000000              -0.000003510               0.000054033               1.000000000              -0.000005042               0.000062620               1.000000000              -0.000006846               0.000072104               1.000000000              -0.000008957               0.000082426               1.000000000               0.000000000               0.000000473               1.000000000               0.000000020               0.000000960               1.000000000              -0.000000114               0.000002588               1.000000000              -0.000000003               0.000004680               1.000000000               0.000000045               0.000007269               1.000000000               0.000000007               0.000010321               1.000000000               0.000000030               0.000014018               1.000000000               0.000000009               0.000018270               1.000000000              -0.000000069               0.000022978               1.000000000              -0.000000156               0.000028231               1.000000000              -0.000000296               0.000033960               1.000000000              -0.000000549               0.000040248               1.000000000              -0.000000957               0.000047111               1.000000000              -0.000001543               0.000054644               1.000000000              -0.000002321               0.000062838               1.000000000              -0.000003257               0.000071775               1.000000000              -0.000004325               0.000081426               1.000000000              -0.000000003               0.000000801               1.000000000               0.000000048               0.000001240               1.000000000              -0.000000110               0.000002889               1.000000000              -0.000000046               0.000005080               1.000000000               0.000000038               0.000007780               1.000000000               0.000000016               0.000010899               1.000000000               0.000000023               0.000014551               1.000000000               0.000000041               0.000018844               1.000000000               0.000000019               0.000023622               1.000000000              -0.000000024               0.000028897               1.000000000              -0.000000065               0.000034707               1.000000000              -0.000000129               0.000041008               1.000000000              -0.000000250               0.000047849               1.000000000              -0.000000451               0.000055266               1.000000000              -0.000000741               0.000063275               1.000000000              -0.000001119               0.000071912               1.000000000              -0.000001544               0.000081171               1.000000000              -0.000000012               0.000001105               1.000000000               0.000000080               0.000001569               1.000000000              -0.000000071               0.000003155               1.000000000              -0.000000060               0.000005425               1.000000000               0.000000025               0.000008179               1.000000000               0.000000013               0.000011378               1.000000000               0.000000009               0.000015028               1.000000000               0.000000027               0.000019263               1.000000000               0.000000036               0.000024087               1.000000000               0.000000020               0.000029350               1.000000000               0.000000010               0.000035172               1.000000000               0.000000012               0.000041491               1.000000000               0.000000018               0.000048318               1.000000000               0.000000005               0.000055666               1.000000000              -0.000000041               0.000063568               1.000000000              -0.000000130               0.000072016               1.000000000              -0.000000263               0.000081045               1.000000000              -0.000000013               0.000001336               1.000000000               0.000000076               0.000001854               1.000000000              -0.000000043               0.000003348               1.000000000              -0.000000057               0.000005640               1.000000000               0.000000006               0.000008474               1.000000000               0.000000004               0.000011736               1.000000000              -0.000000011               0.000015415               1.000000000              -0.000000005               0.000019598               1.000000000               0.000000012               0.000024411               1.000000000               0.000000018               0.000029673               1.000000000               0.000000019               0.000035465               1.000000000               0.000000026               0.000041777               1.000000000               0.000000040               0.000048594               1.000000000               0.000000065               0.000055888               1.000000000               0.000000088               0.000063715               1.000000000               0.000000097               0.000072041               1.000000000               0.000000077               0.000080919               1.000000000              -0.000000016               0.000001463               1.000000000               0.000000035               0.000002003               1.000000000              -0.000000030               0.000003459               1.000000000              -0.000000025               0.000005762               1.000000000               0.000000003               0.000008617               1.000000000               0.000000012               0.000011904               1.000000000              -0.000000009               0.000015614               1.000000000              -0.000000009               0.000019794               1.000000000               0.000000006               0.000024598               1.000000000               0.000000015               0.000029871               1.000000000               0.000000013               0.000035632               1.000000000               0.000000010               0.000041913               1.000000000               0.000000010               0.000048718               1.000000000               0.000000018               0.000055996               1.000000000               0.000000040               0.000063801               1.000000000               0.000000068               0.000072090               1.000000000               0.000000091               0.000080905               1.000000000               0.000000000               0.000001541               1.000000000              -0.000000000               0.000002101               1.000000000               0.000000000               0.000003557               1.000000000              -0.000000000               0.000005851               1.000000000              -0.000000000               0.000008698               1.000000000              -0.000000000               0.000011992               1.000000000              -0.000000000               0.000015720               1.000000000               0.000000000               0.000019906               1.000000000               0.000000000               0.000024693               1.000000000               0.000000000               0.000029950               1.000000000               0.000000000               0.000035682               1.000000000              -0.000000000               0.000041944               1.000000000               0.000000000               0.000048746               1.000000000              -0.000000000               0.000056033               1.000000000               0.000000000               0.000063851               1.000000000              -0.000000000               0.000072147               1.000000000              -0.000000000               0.000080951               1.000000000              -0.000000066               0.000000000               1.000000000              -0.000000044               0.000000000               1.000000000               0.000000035               0.000000000               1.000000000               0.000000030              -0.000000000               1.000000000               0.000000059              -0.000000000               1.000000000               0.000000116               0.000000000               1.000000000               0.000000163               0.000000000               1.000000000               0.000000201              -0.000000000               1.000000000               0.000000234              -0.000000000               1.000000000               0.000000252              -0.000000000               1.000000000               0.000000225               0.000000000               1.000000000               0.000000139               0.000000000               1.000000000               0.000000013              -0.000000000               1.000000000              -0.000000102              -0.000000000               1.000000000              -0.000000148              -0.000000000               1.000000000              -0.000000085               0.000000000               1.000000000               0.000000075               0.000000000               1.000000000               0.000000043              -0.000000161               1.000000000               0.000000018              -0.000000062               1.000000000              -0.000000004              -0.000000118               1.000000000              -0.000000008              -0.000000103               1.000000000              -0.000000017              -0.000000040               1.000000000              -0.000000045               0.000000011               1.000000000              -0.000000063               0.000000109               1.000000000              -0.000000072               0.000000215               1.000000000              -0.000000090               0.000000321               1.000000000              -0.000000118               0.000000384               1.000000000              -0.000000155               0.000000405               1.000000000              -0.000000185               0.000000413               1.000000000              -0.000000190               0.000000459               1.000000000              -0.000000157               0.000000584               1.000000000              -0.000000086               0.000000789               1.000000000              -0.000000001               0.000001019               1.000000000               0.000000063               0.000001170               1.000000000               0.000000029              -0.000000146               1.000000000               0.000000005              -0.000000073               1.000000000              -0.000000014              -0.000000017               1.000000000               0.000000007               0.000000017               1.000000000              -0.000000008               0.000000087               1.000000000              -0.000000030               0.000000161               1.000000000              -0.000000061               0.000000239               1.000000000              -0.000000102               0.000000295               1.000000000              -0.000000145               0.000000299               1.000000000              -0.000000186               0.000000259               1.000000000              -0.000000189               0.000000208               1.000000000              -0.000000118               0.000000184               1.000000000               0.000000033               0.000000216               1.000000000               0.000000227               0.000000284               1.000000000               0.000000378               0.000000320               1.000000000               0.000000383               0.000000226               1.000000000               0.000000140              -0.000000073               1.000000000              -0.000000070               0.000000007               1.000000000              -0.000000013               0.000000027               1.000000000               0.000000001               0.000000176               1.000000000              -0.000000031               0.000000200               1.000000000              -0.000000026               0.000000261               1.000000000              -0.000000022               0.000000252               1.000000000              -0.000000020               0.000000159               1.000000000              -0.000000005              -0.000000017               1.000000000               0.000000008              -0.000000283               1.000000000               0.000000053              -0.000000575               1.000000000               0.000000158              -0.000000843               1.000000000               0.000000312              -0.000001060               1.000000000               0.000000454              -0.000001278               1.000000000               0.000000483              -0.000001617               1.000000000               0.000000283              -0.000002228               1.000000000              -0.000000249              -0.000003251               1.000000000              -0.000001207              -0.000004827               1.000000000               0.000000008               0.000000162               1.000000000               0.000000022               0.000000098               1.000000000               0.000000007               0.000000248               1.000000000              -0.000000008               0.000000193               1.000000000              -0.000000006               0.000000080               1.000000000               0.000000013              -0.000000184               1.000000000               0.000000044              -0.000000590               1.000000000               0.000000070              -0.000001157               1.000000000               0.000000124              -0.000001815               1.000000000               0.000000211              -0.000002496               1.000000000               0.000000306              -0.000003170               1.000000000               0.000000327              -0.000003887               1.000000000               0.000000147              -0.000004796               1.000000000              -0.000000357              -0.000006067               1.000000000              -0.000001288              -0.000007868               1.000000000              -0.000002712              -0.000010350               1.000000000              -0.000004653              -0.000013641               1.000000000               0.000000046               0.000000325               1.000000000              -0.000000020               0.000000116               1.000000000               0.000000046               0.000000153               1.000000000               0.000000024              -0.000000107               1.000000000               0.000000011              -0.000000585               1.000000000               0.000000060              -0.000001260               1.000000000               0.000000080              -0.000002185               1.000000000               0.000000100              -0.000003305               1.000000000               0.000000128              -0.000004524               1.000000000               0.000000130              -0.000005808               1.000000000               0.000000017              -0.000007183               1.000000000              -0.000000349              -0.000008815               1.000000000              -0.000001103              -0.000010879               1.000000000              -0.000002355              -0.000013549               1.000000000              -0.000004158              -0.000016963               1.000000000              -0.000006513              -0.000021204               1.000000000              -0.000009383              -0.000026299               1.000000000               0.000000026               0.000000436               1.000000000              -0.000000064               0.000000093               1.000000000               0.000000029              -0.000000118               1.000000000              -0.000000002              -0.000000719               1.000000000               0.000000030              -0.000001691               1.000000000               0.000000076              -0.000002954               1.000000000               0.000000103              -0.000004579               1.000000000               0.000000087              -0.000006409               1.000000000               0.000000037              -0.000008418               1.000000000              -0.000000160              -0.000010582               1.000000000              -0.000000631              -0.000013050               1.000000000              -0.000001534              -0.000016009               1.000000000              -0.000002982              -0.000019640               1.000000000              -0.000005031              -0.000024084               1.000000000              -0.000007668              -0.000029398               1.000000000              -0.000010858              -0.000035582               1.000000000              -0.000014546              -0.000042626               1.000000000               0.000000054               0.000000428               1.000000000              -0.000000081              -0.000000016               1.000000000               0.000000026              -0.000000673               1.000000000               0.000000039              -0.000001715               1.000000000               0.000000037              -0.000003290               1.000000000               0.000000074              -0.000005295               1.000000000               0.000000057              -0.000007715               1.000000000              -0.000000038              -0.000010476               1.000000000              -0.000000241              -0.000013494               1.000000000              -0.000000717              -0.000016891               1.000000000              -0.000001619              -0.000020828               1.000000000              -0.000003095              -0.000025527               1.000000000              -0.000005196              -0.000031121               1.000000000              -0.000007928              -0.000037687               1.000000000              -0.000011251              -0.000045195               1.000000000              -0.000015119              -0.000053606               1.000000000              -0.000019446              -0.000062794               1.000000000               0.000000058               0.000000347               1.000000000              -0.000000098              -0.000000248               1.000000000               0.000000010              -0.000001426               1.000000000               0.000000043              -0.000003027               1.000000000               0.000000031              -0.000005371               1.000000000               0.000000076              -0.000008267               1.000000000              -0.000000018              -0.000011697               1.000000000              -0.000000193              -0.000015553               1.000000000              -0.000000586              -0.000019896               1.000000000              -0.000001370              -0.000024846               1.000000000              -0.000002709              -0.000030653               1.000000000              -0.000004686              -0.000037456               1.000000000              -0.000007319              -0.000045371               1.000000000              -0.000010547              -0.000054387               1.000000000              -0.000014329              -0.000064462               1.000000000              -0.000018560              -0.000075459               1.000000000              -0.000023093              -0.000087158               1.000000000               0.000000010               0.000000176               1.000000000              -0.000000072              -0.000000452               1.000000000              -0.000000055              -0.000001835               1.000000000               0.000000070              -0.000003642               1.000000000               0.000000010              -0.000006005               1.000000000               0.000000056              -0.000009019               1.000000000               0.000000003              -0.000012571               1.000000000              -0.000000128              -0.000016589               1.000000000              -0.000000349              -0.000021101               1.000000000              -0.000000774              -0.000026106               1.000000000              -0.000001531              -0.000031759               1.000000000              -0.000002717              -0.000038199               1.000000000              -0.000004375              -0.000045521               1.000000000              -0.000006495              -0.000053810               1.000000000              -0.000009029              -0.000063083               1.000000000              -0.000011968              -0.000073349               1.000000000              -0.000015250              -0.000084563               1.000000000              -0.000000015              -0.000000116               1.000000000              -0.000000026              -0.000000690               1.000000000              -0.000000108              -0.000002214               1.000000000               0.000000044              -0.000004199               1.000000000               0.000000039              -0.000006654               1.000000000               0.000000040              -0.000009710               1.000000000               0.000000054              -0.000013382               1.000000000              -0.000000032              -0.000017526               1.000000000              -0.000000159              -0.000022160               1.000000000              -0.000000365              -0.000027300               1.000000000              -0.000000742              -0.000032953               1.000000000              -0.000001361              -0.000039249               1.000000000              -0.000002276              -0.000046240               1.000000000              -0.000003510              -0.000054033               1.000000000              -0.000005042              -0.000062620               1.000000000              -0.000006846              -0.000072104               1.000000000              -0.000008957              -0.000082426               1.000000000               0.000000000              -0.000000473               1.000000000               0.000000020              -0.000000960               1.000000000              -0.000000114              -0.000002588               1.000000000              -0.000000003              -0.000004680               1.000000000               0.000000045              -0.000007269               1.000000000               0.000000007              -0.000010321               1.000000000               0.000000030              -0.000014018               1.000000000               0.000000009              -0.000018270               1.000000000              -0.000000069              -0.000022978               1.000000000              -0.000000156              -0.000028231               1.000000000              -0.000000296              -0.000033960               1.000000000              -0.000000549              -0.000040248               1.000000000              -0.000000957              -0.000047111               1.000000000              -0.000001543              -0.000054644               1.000000000              -0.000002321              -0.000062838               1.000000000              -0.000003257              -0.000071775               1.000000000              -0.000004325              -0.000081426               1.000000000              -0.000000003              -0.000000801               1.000000000               0.000000048              -0.000001240               1.000000000              -0.000000110              -0.000002889               1.000000000              -0.000000046              -0.000005080               1.000000000               0.000000038              -0.000007780               1.000000000               0.000000016              -0.000010899               1.000000000               0.000000023              -0.000014551               1.000000000               0.000000041              -0.000018844               1.000000000               0.000000019              -0.000023622               1.000000000              -0.000000024              -0.000028897               1.000000000              -0.000000065              -0.000034707               1.000000000              -0.000000129              -0.000041008               1.000000000              -0.000000250              -0.000047849               1.000000000              -0.000000451              -0.000055266               1.000000000              -0.000000741              -0.000063275               1.000000000              -0.000001119              -0.000071912               1.000000000              -0.000001544              -0.000081171               1.000000000              -0.000000012              -0.000001105               1.000000000               0.000000080              -0.000001569               1.000000000              -0.000000071              -0.000003155               1.000000000              -0.000000060              -0.000005425               1.000000000               0.000000025              -0.000008179               1.000000000               0.000000013              -0.000011378               1.000000000               0.000000009              -0.000015028               1.000000000               0.000000027              -0.000019263               1.000000000               0.000000036              -0.000024087               1.000000000               0.000000020              -0.000029350               1.000000000               0.000000010              -0.000035172               1.000000000               0.000000012              -0.000041491               1.000000000               0.000000018              -0.000048318               1.000000000               0.000000005              -0.000055666               1.000000000              -0.000000041              -0.000063568               1.000000000              -0.000000130              -0.000072016               1.000000000              -0.000000263              -0.000081045               1.000000000              -0.000000013              -0.000001336               1.000000000               0.000000076              -0.000001854               1.000000000              -0.000000043              -0.000003348               1.000000000              -0.000000057              -0.000005640               1.000000000               0.000000006              -0.000008474               1.000000000               0.000000004              -0.000011736               1.000000000              -0.000000011              -0.000015415               1.000000000              -0.000000005              -0.000019598               1.000000000               0.000000012              -0.000024411               1.000000000               0.000000018              -0.000029673               1.000000000               0.000000019              -0.000035465               1.000000000               0.000000026              -0.000041777               1.000000000               0.000000040              -0.000048594               1.000000000               0.000000065              -0.000055888               1.000000000               0.000000088              -0.000063715               1.000000000               0.000000097              -0.000072041               1.000000000               0.000000077              -0.000080919               1.000000000              -0.000000016              -0.000001463               1.000000000               0.000000035              -0.000002003               1.000000000              -0.000000030              -0.000003459               1.000000000              -0.000000025              -0.000005762               1.000000000               0.000000003              -0.000008617               1.000000000               0.000000012              -0.000011904               1.000000000              -0.000000009              -0.000015614               1.000000000              -0.000000009              -0.000019794               1.000000000               0.000000006              -0.000024598               1.000000000               0.000000015              -0.000029871               1.000000000               0.000000013              -0.000035632               1.000000000               0.000000010              -0.000041913               1.000000000               0.000000010              -0.000048718               1.000000000               0.000000018              -0.000055996               1.000000000               0.000000040              -0.000063801               1.000000000               0.000000068              -0.000072090               1.000000000               0.000000091              -0.000080905               1.000000000              -0.000000000              -0.000001541               1.000000000               0.000000000              -0.000002101               1.000000000              -0.000000000              -0.000003557               1.000000000              -0.000000000              -0.000005851               1.000000000               0.000000000              -0.000008698               1.000000000              -0.000000000              -0.000011992               1.000000000              -0.000000000              -0.000015720               1.000000000              -0.000000000              -0.000019906               1.000000000              -0.000000000              -0.000024693               1.000000000               0.000000000              -0.000029950               1.000000000              -0.000000000              -0.000035682               1.000000000              -0.000000000              -0.000041944               1.000000000              -0.000000000              -0.000048746               1.000000000              -0.000000000              -0.000056033               1.000000000               0.000000000              -0.000063851               1.000000000               0.000000000              -0.000072147               1.000000000               0.000000000              -0.000080951               1.000000000               0.000000066               0.000000000               1.000000000               0.000000044              -0.000000000               1.000000000              -0.000000035               0.000000000               1.000000000              -0.000000030              -0.000000000               1.000000000              -0.000000059              -0.000000000               1.000000000              -0.000000116              -0.000000000               1.000000000              -0.000000163              -0.000000000               1.000000000              -0.000000201               0.000000000               1.000000000              -0.000000234               0.000000000               1.000000000              -0.000000252               0.000000000               1.000000000              -0.000000225              -0.000000000               1.000000000              -0.000000139               0.000000000               1.000000000              -0.000000013               0.000000000               1.000000000               0.000000102               0.000000000               1.000000000               0.000000148               0.000000000               1.000000000               0.000000085               0.000000000               1.000000000              -0.000000075              -0.000000000               1.000000000              -0.000000043              -0.000000161               1.000000000              -0.000000018              -0.000000062               1.000000000               0.000000004              -0.000000118               1.000000000               0.000000008              -0.000000103               1.000000000               0.000000017              -0.000000040               1.000000000               0.000000045               0.000000011               1.000000000               0.000000063               0.000000109               1.000000000               0.000000072               0.000000215               1.000000000               0.000000090               0.000000321               1.000000000               0.000000118               0.000000384               1.000000000               0.000000155               0.000000405               1.000000000               0.000000185               0.000000413               1.000000000               0.000000190               0.000000459               1.000000000               0.000000157               0.000000584               1.000000000               0.000000086               0.000000789               1.000000000               0.000000001               0.000001019               1.000000000              -0.000000063               0.000001170               1.000000000              -0.000000029              -0.000000146               1.000000000              -0.000000005              -0.000000073               1.000000000               0.000000014              -0.000000017               1.000000000              -0.000000007               0.000000017               1.000000000               0.000000008               0.000000087               1.000000000               0.000000030               0.000000161               1.000000000               0.000000061               0.000000239               1.000000000               0.000000102               0.000000295               1.000000000               0.000000145               0.000000299               1.000000000               0.000000186               0.000000259               1.000000000               0.000000189               0.000000208               1.000000000               0.000000118               0.000000184               1.000000000              -0.000000033               0.000000216               1.000000000              -0.000000227               0.000000284               1.000000000              -0.000000378               0.000000320               1.000000000              -0.000000383               0.000000226               1.000000000              -0.000000140              -0.000000073               1.000000000               0.000000070               0.000000007               1.000000000               0.000000013               0.000000027               1.000000000              -0.000000001               0.000000176               1.000000000               0.000000031               0.000000200               1.000000000               0.000000026               0.000000261               1.000000000               0.000000022               0.000000252               1.000000000               0.000000020               0.000000159               1.000000000               0.000000005              -0.000000017               1.000000000              -0.000000008              -0.000000283               1.000000000              -0.000000053              -0.000000575               1.000000000              -0.000000158              -0.000000843               1.000000000              -0.000000312              -0.000001060               1.000000000              -0.000000454              -0.000001278               1.000000000              -0.000000483              -0.000001617               1.000000000              -0.000000283              -0.000002228               1.000000000               0.000000249              -0.000003251               1.000000000               0.000001207              -0.000004827               1.000000000              -0.000000008               0.000000162               1.000000000              -0.000000022               0.000000098               1.000000000              -0.000000007               0.000000248               1.000000000               0.000000008               0.000000193               1.000000000               0.000000006               0.000000080               1.000000000              -0.000000013              -0.000000184               1.000000000              -0.000000044              -0.000000590               1.000000000              -0.000000070              -0.000001157               1.000000000              -0.000000124              -0.000001815               1.000000000              -0.000000211              -0.000002496               1.000000000              -0.000000306              -0.000003170               1.000000000              -0.000000327              -0.000003887               1.000000000              -0.000000147              -0.000004796               1.000000000               0.000000357              -0.000006067               1.000000000               0.000001288              -0.000007868               1.000000000               0.000002712              -0.000010350               1.000000000               0.000004653              -0.000013641               1.000000000              -0.000000046               0.000000325               1.000000000               0.000000020               0.000000116               1.000000000              -0.000000046               0.000000153               1.000000000              -0.000000024              -0.000000107               1.000000000              -0.000000011              -0.000000585               1.000000000              -0.000000060              -0.000001260               1.000000000              -0.000000080              -0.000002185               1.000000000              -0.000000100              -0.000003305               1.000000000              -0.000000128              -0.000004524               1.000000000              -0.000000130              -0.000005808               1.000000000              -0.000000017              -0.000007183               1.000000000               0.000000349              -0.000008815               1.000000000               0.000001103              -0.000010879               1.000000000               0.000002355              -0.000013549               1.000000000               0.000004158              -0.000016963               1.000000000               0.000006513              -0.000021204               1.000000000               0.000009383              -0.000026299               1.000000000              -0.000000026               0.000000436               1.000000000               0.000000064               0.000000093               1.000000000              -0.000000029              -0.000000118               1.000000000               0.000000002              -0.000000719               1.000000000              -0.000000030              -0.000001691               1.000000000              -0.000000076              -0.000002954               1.000000000              -0.000000103              -0.000004579               1.000000000              -0.000000087              -0.000006409               1.000000000              -0.000000037              -0.000008418               1.000000000               0.000000160              -0.000010582               1.000000000               0.000000631              -0.000013050               1.000000000               0.000001534              -0.000016009               1.000000000               0.000002982              -0.000019640               1.000000000               0.000005031              -0.000024084               1.000000000               0.000007668              -0.000029398               1.000000000               0.000010858              -0.000035582               1.000000000               0.000014546              -0.000042626               1.000000000              -0.000000054               0.000000428               1.000000000               0.000000081              -0.000000016               1.000000000              -0.000000026              -0.000000673               1.000000000              -0.000000039              -0.000001715               1.000000000              -0.000000037              -0.000003290               1.000000000              -0.000000074              -0.000005295               1.000000000              -0.000000057              -0.000007715               1.000000000               0.000000038              -0.000010476               1.000000000               0.000000241              -0.000013494               1.000000000               0.000000717              -0.000016891               1.000000000               0.000001619              -0.000020828               1.000000000               0.000003095              -0.000025527               1.000000000               0.000005196              -0.000031121               1.000000000               0.000007928              -0.000037687               1.000000000               0.000011251              -0.000045195               1.000000000               0.000015119              -0.000053606               1.000000000               0.000019446              -0.000062794               1.000000000              -0.000000058               0.000000347               1.000000000               0.000000098              -0.000000248               1.000000000              -0.000000010              -0.000001426               1.000000000              -0.000000043              -0.000003027               1.000000000              -0.000000031              -0.000005371               1.000000000              -0.000000076              -0.000008267               1.000000000               0.000000018              -0.000011697               1.000000000               0.000000193              -0.000015553               1.000000000               0.000000586              -0.000019896               1.000000000               0.000001370              -0.000024846               1.000000000               0.000002709              -0.000030653               1.000000000               0.000004686              -0.000037456               1.000000000               0.000007319              -0.000045371               1.000000000               0.000010547              -0.000054387               1.000000000               0.000014329              -0.000064462               1.000000000               0.000018560              -0.000075459               1.000000000               0.000023093              -0.000087158               1.000000000              -0.000000010               0.000000176               1.000000000               0.000000072              -0.000000452               1.000000000               0.000000055              -0.000001835               1.000000000              -0.000000070              -0.000003642               1.000000000              -0.000000010              -0.000006005               1.000000000              -0.000000056              -0.000009019               1.000000000              -0.000000003              -0.000012571               1.000000000               0.000000128              -0.000016589               1.000000000               0.000000349              -0.000021101               1.000000000               0.000000774              -0.000026106               1.000000000               0.000001531              -0.000031759               1.000000000               0.000002717              -0.000038199               1.000000000               0.000004375              -0.000045521               1.000000000               0.000006495              -0.000053810               1.000000000               0.000009029              -0.000063083               1.000000000               0.000011968              -0.000073349               1.000000000               0.000015250              -0.000084563               1.000000000               0.000000015              -0.000000116               1.000000000               0.000000026              -0.000000690               1.000000000               0.000000108              -0.000002214               1.000000000              -0.000000044              -0.000004199               1.000000000              -0.000000039              -0.000006654               1.000000000              -0.000000040              -0.000009710               1.000000000              -0.000000054              -0.000013382               1.000000000               0.000000032              -0.000017526               1.000000000               0.000000159              -0.000022160               1.000000000               0.000000365              -0.000027300               1.000000000               0.000000742              -0.000032953               1.000000000               0.000001361              -0.000039249               1.000000000               0.000002276              -0.000046240               1.000000000               0.000003510              -0.000054033               1.000000000               0.000005042              -0.000062620               1.000000000               0.000006846              -0.000072104               1.000000000               0.000008957              -0.000082426               1.000000000              -0.000000000              -0.000000473               1.000000000              -0.000000020              -0.000000960               1.000000000               0.000000114              -0.000002588               1.000000000               0.000000003              -0.000004680               1.000000000              -0.000000045              -0.000007269               1.000000000              -0.000000007              -0.000010321               1.000000000              -0.000000030              -0.000014018               1.000000000              -0.000000009              -0.000018270               1.000000000               0.000000069              -0.000022978               1.000000000               0.000000156              -0.000028231               1.000000000               0.000000296              -0.000033960               1.000000000               0.000000549              -0.000040248               1.000000000               0.000000957              -0.000047111               1.000000000               0.000001543              -0.000054644               1.000000000               0.000002321              -0.000062838               1.000000000               0.000003257              -0.000071775               1.000000000               0.000004325              -0.000081426               1.000000000               0.000000003              -0.000000801               1.000000000              -0.000000048              -0.000001240               1.000000000               0.000000110              -0.000002889               1.000000000               0.000000046              -0.000005080               1.000000000              -0.000000038              -0.000007780               1.000000000              -0.000000016              -0.000010899               1.000000000              -0.000000023              -0.000014551               1.000000000              -0.000000041              -0.000018844               1.000000000              -0.000000019              -0.000023622               1.000000000               0.000000024              -0.000028897               1.000000000               0.000000065              -0.000034707               1.000000000               0.000000129              -0.000041008               1.000000000               0.000000250              -0.000047849               1.000000000               0.000000451              -0.000055266               1.000000000               0.000000741              -0.000063275               1.000000000               0.000001119              -0.000071912               1.000000000               0.000001544              -0.000081171               1.000000000               0.000000012              -0.000001105               1.000000000              -0.000000080              -0.000001569               1.000000000               0.000000071              -0.000003155               1.000000000               0.000000060              -0.000005425               1.000000000              -0.000000025              -0.000008179               1.000000000              -0.000000013              -0.000011378               1.000000000              -0.000000009              -0.000015028               1.000000000              -0.000000027              -0.000019263               1.000000000              -0.000000036              -0.000024087               1.000000000              -0.000000020              -0.000029350               1.000000000              -0.000000010              -0.000035172               1.000000000              -0.000000012              -0.000041491               1.000000000              -0.000000018              -0.000048318               1.000000000              -0.000000005              -0.000055666               1.000000000               0.000000041              -0.000063568               1.000000000               0.000000130              -0.000072016               1.000000000               0.000000263              -0.000081045               1.000000000               0.000000013              -0.000001336               1.000000000              -0.000000076              -0.000001854               1.000000000               0.000000043              -0.000003348               1.000000000               0.000000057              -0.000005640               1.000000000              -0.000000006              -0.000008474               1.000000000              -0.000000004              -0.000011736               1.000000000               0.000000011              -0.000015415               1.000000000               0.000000005              -0.000019598               1.000000000              -0.000000012              -0.000024411               1.000000000              -0.000000018              -0.000029673               1.000000000              -0.000000019              -0.000035465               1.000000000              -0.000000026              -0.000041777               1.000000000              -0.000000040              -0.000048594               1.000000000              -0.000000065              -0.000055888               1.000000000              -0.000000088              -0.000063715               1.000000000              -0.000000097              -0.000072041               1.000000000              -0.000000077              -0.000080919               1.000000000               0.000000016              -0.000001463               1.000000000              -0.000000035              -0.000002003               1.000000000               0.000000030              -0.000003459               1.000000000               0.000000025              -0.000005762               1.000000000              -0.000000003              -0.000008617               1.000000000              -0.000000012              -0.000011904               1.000000000               0.000000009              -0.000015614               1.000000000               0.000000009              -0.000019794               1.000000000              -0.000000006              -0.000024598               1.000000000              -0.000000015              -0.000029871               1.000000000              -0.000000013              -0.000035632               1.000000000              -0.000000010              -0.000041913               1.000000000              -0.000000010              -0.000048718               1.000000000              -0.000000018              -0.000055996               1.000000000              -0.000000040              -0.000063801               1.000000000              -0.000000068              -0.000072090               1.000000000              -0.000000091              -0.000080905               1.000000000              -0.000000000              -0.000001541               1.000000000               0.000000000              -0.000002101               1.000000000              -0.000000000              -0.000003557               1.000000000              -0.000000000              -0.000005851               1.000000000               0.000000000              -0.000008698               1.000000000              -0.000000000              -0.000011992               1.000000000              -0.000000000              -0.000015720               1.000000000              -0.000000000              -0.000019906               1.000000000              -0.000000000              -0.000024693               1.000000000               0.000000000              -0.000029950               1.000000000              -0.000000000              -0.000035682               1.000000000              -0.000000000              -0.000041944               1.000000000              -0.000000000              -0.000048746               1.000000000              -0.000000000              -0.000056033               1.000000000               0.000000000              -0.000063851               1.000000000               0.000000000              -0.000072147               1.000000000               0.000000000              -0.000080951               1.000000000               0.000000066               0.000000000               1.000000000               0.000000044              -0.000000000               1.000000000              -0.000000035               0.000000000               1.000000000              -0.000000030              -0.000000000               1.000000000              -0.000000059              -0.000000000               1.000000000              -0.000000116              -0.000000000               1.000000000              -0.000000163              -0.000000000               1.000000000              -0.000000201               0.000000000               1.000000000              -0.000000234               0.000000000               1.000000000              -0.000000252               0.000000000               1.000000000              -0.000000225              -0.000000000               1.000000000              -0.000000139               0.000000000               1.000000000              -0.000000013               0.000000000               1.000000000               0.000000102               0.000000000               1.000000000               0.000000148               0.000000000               1.000000000               0.000000085               0.000000000               1.000000000              -0.000000075              -0.000000000               1.000000000              -0.000000043               0.000000161               1.000000000              -0.000000018               0.000000062               1.000000000               0.000000004               0.000000118               1.000000000               0.000000008               0.000000103               1.000000000               0.000000017               0.000000040               1.000000000               0.000000045              -0.000000011               1.000000000               0.000000063              -0.000000109               1.000000000               0.000000072              -0.000000215               1.000000000               0.000000090              -0.000000321               1.000000000               0.000000118              -0.000000384               1.000000000               0.000000155              -0.000000405               1.000000000               0.000000185              -0.000000413               1.000000000               0.000000190              -0.000000459               1.000000000               0.000000157              -0.000000584               1.000000000               0.000000086              -0.000000789               1.000000000               0.000000001              -0.000001019               1.000000000              -0.000000063              -0.000001170               1.000000000              -0.000000029               0.000000146               1.000000000              -0.000000005               0.000000073               1.000000000               0.000000014               0.000000017               1.000000000              -0.000000007              -0.000000017               1.000000000               0.000000008              -0.000000087               1.000000000               0.000000030              -0.000000161               1.000000000               0.000000061              -0.000000239               1.000000000               0.000000102              -0.000000295               1.000000000               0.000000145              -0.000000299               1.000000000               0.000000186              -0.000000259               1.000000000               0.000000189              -0.000000208               1.000000000               0.000000118              -0.000000184               1.000000000              -0.000000033              -0.000000216               1.000000000              -0.000000227              -0.000000284               1.000000000              -0.000000378              -0.000000320               1.000000000              -0.000000383              -0.000000226               1.000000000              -0.000000140               0.000000073               1.000000000               0.000000070              -0.000000007               1.000000000               0.000000013              -0.000000027               1.000000000              -0.000000001              -0.000000176               1.000000000               0.000000031              -0.000000200               1.000000000               0.000000026              -0.000000261               1.000000000               0.000000022              -0.000000252               1.000000000               0.000000020              -0.000000159               1.000000000               0.000000005               0.000000017               1.000000000              -0.000000008               0.000000283               1.000000000              -0.000000053               0.000000575               1.000000000              -0.000000158               0.000000843               1.000000000              -0.000000312               0.000001060               1.000000000              -0.000000454               0.000001278               1.000000000              -0.000000483               0.000001617               1.000000000              -0.000000283               0.000002228               1.000000000               0.000000249               0.000003251               1.000000000               0.000001207               0.000004827               1.000000000              -0.000000008              -0.000000162               1.000000000              -0.000000022              -0.000000098               1.000000000              -0.000000007              -0.000000248               1.000000000               0.000000008              -0.000000193               1.000000000               0.000000006              -0.000000080               1.000000000              -0.000000013               0.000000184               1.000000000              -0.000000044               0.000000590               1.000000000              -0.000000070               0.000001157               1.000000000              -0.000000124               0.000001815               1.000000000              -0.000000211               0.000002496               1.000000000              -0.000000306               0.000003170               1.000000000              -0.000000327               0.000003887               1.000000000              -0.000000147               0.000004796               1.000000000               0.000000357               0.000006067               1.000000000               0.000001288               0.000007868               1.000000000               0.000002712               0.000010350               1.000000000               0.000004653               0.000013641               1.000000000              -0.000000046              -0.000000325               1.000000000               0.000000020              -0.000000116               1.000000000              -0.000000046              -0.000000153               1.000000000              -0.000000024               0.000000107               1.000000000              -0.000000011               0.000000585               1.000000000              -0.000000060               0.000001260               1.000000000              -0.000000080               0.000002185               1.000000000              -0.000000100               0.000003305               1.000000000              -0.000000128               0.000004524               1.000000000              -0.000000130               0.000005808               1.000000000              -0.000000017               0.000007183               1.000000000               0.000000349               0.000008815               1.000000000               0.000001103               0.000010879               1.000000000               0.000002355               0.000013549               1.000000000               0.000004158               0.000016963               1.000000000               0.000006513               0.000021204               1.000000000               0.000009383               0.000026299               1.000000000              -0.000000026              -0.000000436               1.000000000               0.000000064              -0.000000093               1.000000000              -0.000000029               0.000000118               1.000000000               0.000000002               0.000000719               1.000000000              -0.000000030               0.000001691               1.000000000              -0.000000076               0.000002954               1.000000000              -0.000000103               0.000004579               1.000000000              -0.000000087               0.000006409               1.000000000              -0.000000037               0.000008418               1.000000000               0.000000160               0.000010582               1.000000000               0.000000631               0.000013050               1.000000000               0.000001534               0.000016009               1.000000000               0.000002982               0.000019640               1.000000000               0.000005031               0.000024084               1.000000000               0.000007668               0.000029398               1.000000000               0.000010858               0.000035582               1.000000000               0.000014546               0.000042626               1.000000000              -0.000000054              -0.000000428               1.000000000               0.000000081               0.000000016               1.000000000              -0.000000026               0.000000673               1.000000000              -0.000000039               0.000001715               1.000000000              -0.000000037               0.000003290               1.000000000              -0.000000074               0.000005295               1.000000000              -0.000000057               0.000007715               1.000000000               0.000000038               0.000010476               1.000000000               0.000000241               0.000013494               1.000000000               0.000000717               0.000016891               1.000000000               0.000001619               0.000020828               1.000000000               0.000003095               0.000025527               1.000000000               0.000005196               0.000031121               1.000000000               0.000007928               0.000037687               1.000000000               0.000011251               0.000045195               1.000000000               0.000015119               0.000053606               1.000000000               0.000019446               0.000062794               1.000000000              -0.000000058              -0.000000347               1.000000000               0.000000098               0.000000248               1.000000000              -0.000000010               0.000001426               1.000000000              -0.000000043               0.000003027               1.000000000              -0.000000031               0.000005371               1.000000000              -0.000000076               0.000008267               1.000000000               0.000000018               0.000011697               1.000000000               0.000000193               0.000015553               1.000000000               0.000000586               0.000019896               1.000000000               0.000001370               0.000024846               1.000000000               0.000002709               0.000030653               1.000000000               0.000004686               0.000037456               1.000000000               0.000007319               0.000045371               1.000000000               0.000010547               0.000054387               1.000000000               0.000014329               0.000064462               1.000000000               0.000018560               0.000075459               1.000000000               0.000023093               0.000087158               1.000000000              -0.000000010              -0.000000176               1.000000000               0.000000072               0.000000452               1.000000000               0.000000055               0.000001835               1.000000000              -0.000000070               0.000003642               1.000000000              -0.000000010               0.000006005               1.000000000              -0.000000056               0.000009019               1.000000000              -0.000000003               0.000012571               1.000000000               0.000000128               0.000016589               1.000000000               0.000000349               0.000021101               1.000000000               0.000000774               0.000026106               1.000000000               0.000001531               0.000031759               1.000000000               0.000002717               0.000038199               1.000000000               0.000004375               0.000045521               1.000000000               0.000006495               0.000053810               1.000000000               0.000009029               0.000063083               1.000000000               0.000011968               0.000073349               1.000000000               0.000015250               0.000084563               1.000000000               0.000000015               0.000000116               1.000000000               0.000000026               0.000000690               1.000000000               0.000000108               0.000002214               1.000000000              -0.000000044               0.000004199               1.000000000              -0.000000039               0.000006654               1.000000000              -0.000000040               0.000009710               1.000000000              -0.000000054               0.000013382               1.000000000               0.000000032               0.000017526               1.000000000               0.000000159               0.000022160               1.000000000               0.000000365               0.000027300               1.000000000               0.000000742               0.000032953               1.000000000               0.000001361               0.000039249               1.000000000               0.000002276               0.000046240               1.000000000               0.000003510               0.000054033               1.000000000               0.000005042               0.000062620               1.000000000               0.000006846               0.000072104               1.000000000               0.000008957               0.000082426               1.000000000              -0.000000000               0.000000473               1.000000000              -0.000000020               0.000000960               1.000000000               0.000000114               0.000002588               1.000000000               0.000000003               0.000004680               1.000000000              -0.000000045               0.000007269               1.000000000              -0.000000007               0.000010321               1.000000000              -0.000000030               0.000014018               1.000000000              -0.000000009               0.000018270               1.000000000               0.000000069               0.000022978               1.000000000               0.000000156               0.000028231               1.000000000               0.000000296               0.000033960               1.000000000               0.000000549               0.000040248               1.000000000               0.000000957               0.000047111               1.000000000               0.000001543               0.000054644               1.000000000               0.000002321               0.000062838               1.000000000               0.000003257               0.000071775               1.000000000               0.000004325               0.000081426               1.000000000               0.000000003               0.000000801               1.000000000              -0.000000048               0.000001240               1.000000000               0.000000110               0.000002889               1.000000000               0.000000046               0.000005080               1.000000000              -0.000000038               0.000007780               1.000000000              -0.000000016               0.000010899               1.000000000              -0.000000023               0.000014551               1.000000000              -0.000000041               0.000018844               1.000000000              -0.000000019               0.000023622               1.000000000               0.000000024               0.000028897               1.000000000               0.000000065               0.000034707               1.000000000               0.000000129               0.000041008               1.000000000               0.000000250               0.000047849               1.000000000               0.000000451               0.000055266               1.000000000               0.000000741               0.000063275               1.000000000               0.000001119               0.000071912               1.000000000               0.000001544               0.000081171               1.000000000               0.000000012               0.000001105               1.000000000              -0.000000080               0.000001569               1.000000000               0.000000071               0.000003155               1.000000000               0.000000060               0.000005425               1.000000000              -0.000000025               0.000008179               1.000000000              -0.000000013               0.000011378               1.000000000              -0.000000009               0.000015028               1.000000000              -0.000000027               0.000019263               1.000000000              -0.000000036               0.000024087               1.000000000              -0.000000020               0.000029350               1.000000000              -0.000000010               0.000035172               1.000000000              -0.000000012               0.000041491               1.000000000              -0.000000018               0.000048318               1.000000000              -0.000000005               0.000055666               1.000000000               0.000000041               0.000063568               1.000000000               0.000000130               0.000072016               1.000000000               0.000000263               0.000081045               1.000000000               0.000000013               0.000001336               1.000000000              -0.000000076               0.000001854               1.000000000               0.000000043               0.000003348               1.000000000               0.000000057               0.000005640               1.000000000              -0.000000006               0.000008474               1.000000000              -0.000000004               0.000011736               1.000000000               0.000000011               0.000015415               1.000000000               0.000000005               0.000019598               1.000000000              -0.000000012               0.000024411               1.000000000              -0.000000018               0.000029673               1.000000000              -0.000000019               0.000035465               1.000000000              -0.000000026               0.000041777               1.000000000              -0.000000040               0.000048594               1.000000000              -0.000000065               0.000055888               1.000000000              -0.000000088               0.000063715               1.000000000              -0.000000097               0.000072041               1.000000000              -0.000000077               0.000080919               1.000000000               0.000000016               0.000001463               1.000000000              -0.000000035               0.000002003               1.000000000               0.000000030               0.000003459               1.000000000               0.000000025               0.000005762               1.000000000              -0.000000003               0.000008617               1.000000000              -0.000000012               0.000011904               1.000000000               0.000000009               0.000015614               1.000000000               0.000000009               0.000019794               1.000000000              -0.000000006               0.000024598               1.000000000              -0.000000015               0.000029871               1.000000000              -0.000000013               0.000035632               1.000000000              -0.000000010               0.000041913               1.000000000              -0.000000010               0.000048718               1.000000000              -0.000000018               0.000055996               1.000000000              -0.000000040               0.000063801               1.000000000              -0.000000068               0.000072090               1.000000000              -0.000000091               0.000080905               1.000000000               0.000000000               0.000001541               1.000000000              -0.000000000               0.000002101               1.000000000               0.000000000               0.000003557               1.000000000              -0.000000000               0.000005851               1.000000000              -0.000000000               0.000008698               1.000000000              -0.000000000               0.000011992               1.000000000              -0.000000000               0.000015720               1.000000000               0.000000000               0.000019906               1.000000000               0.000000000               0.000024693               1.000000000               0.000000000               0.000029950               1.000000000               0.000000000               0.000035682               1.000000000              -0.000000000               0.000041944               1.000000000               0.000000000               0.000048746               1.000000000              -0.000000000               0.000056033               1.000000000               0.000000000               0.000063851               1.000000000              -0.000000000               0.000072147               1.000000000              -0.000000000               0.000080951               1.000000000 </DataArray>
<DataArray type="Float64"                                    Name="defo"                                                      NumberOfComponents=" 3" format="ascii">
             -0.000000066               0.000000000               1.000000000              -0.000000044               0.000000000               1.000000000               0.000000035               0.000000000               1.000000000               0.000000030              -0.000000000               1.000000000               0.000000059              -0.000000000               1.000000000               0.000000116               0.000000000               1.000000000               0.000000163               0.000000000               1.000000000               0.000000201              -0.000000000               1.000000000               0.000000234              -0.000000000               1.000000000               0.000000252              -0.000000000               1.000000000               0.000000225               0.000000000               1.000000000               0.000000139               0.000000000               1.000000000               0.000000013              -0.000000000               1.000000000              -0.000000102              -0.000000000               1.000000000              -0.000000148              -0.000000000               1.000000000              -0.000000085               0.000000000               1.000000000               0.000000075               0.000000000               1.000000000               0.000000043               0.000000161               1.000000000               0.000000018               0.000000062               1.000000000              -0.000000004               0.000000118               1.000000000              -0.000000008               0.000000103               1.000000000              -0.000000017               0.000000040               1.000000000              -0.000000045              -0.000000011               1.000000000              -0.000000063              -0.000000109               1.000000000              -0.000000072              -0.000000215               1.000000000              -0.000000090              -0.000000321               1.000000000              -0.000000118              -0.000000384               1.000000000              -0.000000155              -0.000000405               1.000000000              -0.000000185              -0.000000413               1.000000000              -0.000000190              -0.000000459               1.000000000              -0.000000157              -0.000000584               1.000000000              -0.000000086              -0.000000789               1.000000000              -0.000000001              -0.000001019               1.000000000               0.000000063              -0.000001170               1.000000000               0.000000029               0.000000146               1.000000000               0.000000005               0.000000073               1.000000000              -0.000000014               0.000000017               1.000000000               0.000000007              -0.000000017               1.000000000              -0.000000008              -0.000000087               1.000000000              -0.000000030              -0.000000161               1.000000000              -0.000000061              -0.000000239               1.000000000              -0.000000102              -0.000000295               1.000000000              -0.000000145              -0.000000299               1.000000000              -0.000000186              -0.000000259               1.000000000              -0.000000189              -0.000000208               1.000000000              -0.000000118              -0.000000184               1.000000000               0.000000033              -0.000000216               1.000000000               0.000000227              -0.000000284               1.000000000               0.000000378              -0.000000320               1.000000000               0.000000383              -0.000000226               1.000000000               0.000000140               0.000000073               1.000000000              -0.000000070              -0.000000007               1.000000000              -0.000000013              -0.000000027               1.000000000               0.000000001              -0.000000176               1.000000000              -0.000000031              -0.000000200               1.000000000              -0.000000026              -0.000000261               1.000000000              -0.000000022              -0.000000252               1.000000000              -0.000000020              -0.000000159               1.000000000              -0.000000005               0.000000017               1.000000000               0.000000008               0.000000283               1.000000000               0.000000053               0.000000575               1.000000000               0.000000158               0.000000843               1.000000000               0.000000312               0.000001060               1.000000000               0.000000454               0.000001278               1.000000000               0.000000483               0.000001617               1.000000000               0.000000283               0.000002228               1.000000000              -0.000000249               0.000003251               1.000000000              -0.000001207               0.000004827               1.000000000               0.000000008              -0.000000162               1.000000000               0.000000022              -0.000000098               1.000000000               0.000000007              -0.000000248               1.000000000              -0.000000008              -0.000000193               1.000000000              -0.000000006              -0.000000080               1.000000000               0.000000013               0.000000184               1.000000000               0.000000044               0.000000590               1.000000000               0.000000070               0.000001157               1.000000000               0.000000124               0.000001815               1.000000000               0.000000211               0.000002496               1.000000000               0.000000306               0.000003170               1.000000000               0.000000327               0.000003887               1.000000000               0.000000147               0.000004796               1.000000000              -0.000000357               0.000006067               1.000000000              -0.000001288               0.000007868               1.000000000              -0.000002712               0.000010350               1.000000000              -0.000004653               0.000013641               1.000000000               0.000000046              -0.000000325               1.000000000              -0.000000020              -0.000000116               1.000000000               0.000000046              -0.000000153               1.000000000               0.000000024               0.000000107               1.000000000               0.000000011               0.000000585               1.000000000               0.000000060               0.000001260               1.000000000               0.000000080               0.000002185               1.000000000               0.000000100               0.000003305               1.000000000               0.000000128               0.000004524               1.000000000               0.000000130               0.000005808               1.000000000               0.000000017               0.000007183               1.000000000              -0.000000349               0.000008815               1.000000000              -0.000001103               0.000010879               1.000000000              -0.000002355               0.000013549               1.000000000              -0.000004158               0.000016963               1.000000000              -0.000006513               0.000021204               1.000000000              -0.000009383               0.000026299               1.000000000               0.000000026              -0.000000436               1.000000000              -0.000000064              -0.000000093               1.000000000               0.000000029               0.000000118               1.000000000              -0.000000002               0.000000719               1.000000000               0.000000030               0.000001691               1.000000000               0.000000076               0.000002954               1.000000000               0.000000103               0.000004579               1.000000000               0.000000087               0.000006409               1.000000000               0.000000037               0.000008418               1.000000000              -0.000000160               0.000010582               1.000000000              -0.000000631               0.000013050               1.000000000              -0.000001534               0.000016009               1.000000000              -0.000002982               0.000019640               1.000000000              -0.000005031               0.000024084               1.000000000              -0.000007668               0.000029398               1.000000000              -0.000010858               0.000035582               1.000000000              -0.000014546               0.000042626               1.000000000               0.000000054              -0.000000428               1.000000000              -0.000000081               0.000000016               1.000000000               0.000000026               0.000000673               1.000000000               0.000000039               0.000001715               1.000000000               0.000000037               0.000003290               1.000000000               0.000000074               0.000005295               1.000000000               0.000000057               0.000007715               1.000000000              -0.000000038               0.000010476               1.000000000              -0.000000241               0.000013494               1.000000000              -0.000000717               0.000016891               1.000000000              -0.000001619               0.000020828               1.000000000              -0.000003095               0.000025527               1.000000000              -0.000005196               0.000031121               1.000000000              -0.000007928               0.000037687               1.000000000              -0.000011251               0.000045195               1.000000000              -0.000015119               0.000053606               1.000000000              -0.000019446               0.000062794               1.000000000               0.000000058              -0.000000347               1.000000000              -0.000000098               0.000000248               1.000000000               0.000000010               0.000001426               1.000000000               0.000000043               0.000003027               1.000000000               0.000000031               0.000005371               1.000000000               0.000000076               0.000008267               1.000000000              -0.000000018               0.000011697               1.000000000              -0.000000193               0.000015553               1.000000000              -0.000000586               0.000019896               1.000000000              -0.000001370               0.000024846               1.000000000              -0.000002709               0.000030653               1.000000000              -0.000004686               0.000037456               1.000000000              -0.000007319               0.000045371               1.000000000              -0.000010547               0.000054387               1.000000000              -0.000014329               0.000064462               1.000000000              -0.000018560               0.000075459               1.000000000              -0.000023093               0.000087158               1.000000000               0.000000010              -0.000000176               1.000000000              -0.000000072               0.000000452               1.000000000              -0.000000055               0.000001835               1.000000000               0.000000070               0.000003642               1.000000000               0.000000010               0.000006005               1.000000000               0.000000056               0.000009019               1.000000000               0.000000003               0.000012571               1.000000000              -0.000000128               0.000016589               1.000000000              -0.000000349               0.000021101               1.000000000              -0.000000774               0.000026106               1.000000000              -0.000001531               0.000031759               1.000000000              -0.000002717               0.000038199               1.000000000              -0.000004375               0.000045521               1.000000000              -0.000006495               0.000053810               1.000000000              -0.000009029               0.000063083               1.000000000              -0.000011968               0.000073349               1.000000000              -0.000015250               0.000084563               1.000000000              -0.000000015               0.000000116               1.000000000              -0.000000026               0.000000690               1.000000000              -0.000000108               0.000002214               1.000000000               0.000000044               0.000004199               1.000000000               0.000000039               0.000006654               1.000000000               0.000000040               0.000009710               1.000000000               0.000000054               0.000013382               1.000000000              -0.000000032               0.000017526               1.000000000              -0.000000159               0.000022160               1.000000000              -0.000000365               0.000027300               1.000000000              -0.000000742               0.000032953               1.000000000              -0.000001361               0.000039249               1.000000000              -0.000002276               0.000046240               1.000000000              -0.000003510               0.000054033               1.000000000              -0.000005042               0.000062620               1.000000000              -0.000006846               0.000072104               1.000000000              -0.000008957               0.000082426               1.000000000               0.000000000               0.000000473               1.000000000               0.000000020               0.000000960               1.000000000              -0.000000114               0.000002588               1.000000000              -0.000000003               0.000004680               1.000000000               0.000000045               0.000007269               1.000000000               0.000000007               0.000010321               1.000000000               0.000000030               0.000014018               1.000000000               0.000000009               0.000018270               1.000000000              -0.000000069               0.000022978               1.000000000              -0.000000156               0.000028231               1.000000000              -0.000000296               0.000033960               1.000000000              -0.000000549               0.000040248               1.000000000              -0.000000957               0.000047111               1.000000000              -0.000001543               0.000054644               1.000000000              -0.000002321               0.000062838               1.000000000              -0.000003257               0.000071775               1.000000000              -0.000004325               0.000081426               1.000000000              -0.000000003               0.000000801               1.000000000               0.000000048               0.000001240               1.000000000              -0.000000110               0.000002889               1.000000000              -0.000000046               0.000005080               1.000000000               0.000000038               0.000007780               1.000000000               0.000000016               0.000010899               1.000000000               0.000000023               0.000014551               1.000000000               0.000000041               0.000018844               1.000000000               0.000000019               0.000023622               1.000000000              -0.000000024               0.000028897               1.000000000              -0.000000065               0.000034707               1.000000000              -0.000000129               0.000041008               1.000000000              -0.000000250               0.000047849               1.000000000              -0.000000451               0.000055266               1.000000000              -0.000000741               0.000063275               1.000000000              -0.000001119               0.000071912               1.000000000              -0.000001544               0.000081171               1.000000000              -0.000000012               0.000001105               1.000000000               0.000000080               0.000001569               1.000000000              -0.000000071               0.000003155               1.000000000              -0.000000060               0.000005425               1.000000000               0.000000025               0.000008179               1.000000000               0.000000013               0.000011378               1.000000000               0.000000009               0.000015028               1.000000000               0.000000027               0.000019263               1.000000000               0.000000036               0.000024087               1.000000000               0.000000020               0.000029350               1.000000000               0.000000010               0.000035172               1.000000000               0.000000012               0.000041491               1.000000000               0.000000018               0.000048318               1.000000000               0.000000005               0.000055666               1.000000000              -0.000000041               0.000063568               1.000000000              -0.000000130               0.000072016               1.000000000              -0.000000263               0.000081045               1.000000000              -0.000000013               0.000001336               1.000000000               0.000000076               0.000001854               1.000000000              -0.000000043               0.000003348               1.000000000              -0.000000057               0.000005640               1.000000000               0.000000006               0.000008474               1.000000000               0.000000004               0.000011736               1.000000000              -0.000000011               0.000015415               1.000000000              -0.000000005               0.000019598               1.000000000               0.000000012               0.000024411               1.000000000               0.000000018               0.000029673               1.000000000               0.000000019               0.000035465               1.000000000               0.000000026               0.000041777               1.000000000               0.000000040               0.000048594               1.000000000               0.000000065               0.000055888               1.000000000               0.000000088               0.000063715               1.000000000               0.000000097               0.000072041               1.000000000               0.000000077               0.000080919               1.000000000              -0.000000016               0.000001463               1.000000000               0.000000035               0.000002003               1.000000000              -0.000000030               0.000003459               1.000000000              -0.000000025               0.000005762               1.000000000               0.000000003               0.000008617               1.000000000               0.000000012               0.000011904               1.000000000              -0.000000009               0.000015614               1.000000000              -0.000000009               0.000019794               1.000000000               0.000000006               0.000024598               1.000000000               0.000000015               0.000029871               1.000000000               0.000000013               0.000035632               1.000000000               0.000000010               0.000041913               1.000000000               0.000000010               0.000048718               1.000000000               0.000000018               0.000055996               1.000000000               0.000000040               0.000063801               1.000000000               0.000000068               0.000072090               1.000000000               0.000000091               0.000080905               1.000000000               0.000000000               0.000001541               1.000000000              -0.000000000               0.000002101               1.000000000               0.000000000               0.000003557               1.000000000              -0.000000000               0.000005851               1.000000000              -0.000000000               0.000008698               1.000000000              -0.000000000               0.000011992               1.000000000              -0.000000000               0.000015720               1.000000000               0.000000000               0.000019906               1.000000000               0.000000000               0.000024693               1.000000000               0.000000000               0.000029950               1.000000000               0.000000000               0.000035682               1.000000000              -0.000000000               0.000041944               1.000000000               0.000000000               0.000048746               1.000000000              -0.000000000               0.000056033               1.000000000               0.000000000               0.000063851               1.000000000              -0.000000000               0.000072147               1.000000000              -0.000000000               0.000080951               1.000000000              -0.000000066               0.000000000               1.000000000              -0.000000044               0.000000000               1.000000000               0.000000035               0.000000000               1.000000000               0.000000030              -0.000000000               1.000000000               0.000000059              -0.000000000               1.000000000               0.000000116               0.000000000               1.000000000               0.000000163               0.000000000               1.000000000               0.000000201              -0.000000000               1.000000000               0.000000234              -0.000000000               1.000000000               0.000000252              -0.000000000               1.000000000               0.000000225               0.000000000               1.000000000               0.000000139               0.000000000               1.000000000               0.000000013              -0.000000000               1.000000000              -0.000000102              -0.000000000               1.000000000              -0.000000148              -0.000000000               1.000000000              -0.000000085               0.000000000               1.000000000               0.000000075               0.000000000               1.000000000               0.000000043              -0.000000161               1.000000000               0.000000018              -0.000000062               1.000000000              -0.000000004              -0.000000118               1.000000000              -0.000000008              -0.000000103               1.000000000              -0.000000017              -0.000000040               1.000000000              -0.000000045               0.000000011               1.000000000              -0.000000063               0.000000109               1.000000000              -0.000000072               0.000000215               1.000000000              -0.000000090               0.000000321               1.000000000              -0.000000118               0.000000384               1.000000000              -0.000000155               0.000000405               1.000000000              -0.000000185               0.000000413               1.000000000              -0.000000190               0.000000459               1.000000000              -0.000000157               0.000000584               1.000000000              -0.000000086               0.000000789               1.000000000              -0.000000001               0.000001019               1.000000000               0.000000063               0.000001170               1.000000000               0.000000029              -0.000000146               1.000000000               0.000000005              -0.000000073               1.000000000              -0.000000014              -0.000000017               1.000000000               0.000000007               0.000000017               1.000000000              -0.000000008               0.000000087               1.000000000              -0.000000030               0.000000161               1.000000000              -0.000000061               0.000000239               1.000000000              -0.000000102               0.000000295               1.000000000              -0.000000145               0.000000299               1.000000000              -0.000000186               0.000000259               1.000000000              -0.000000189               0.000000208               1.000000000              -0.000000118               0.000000184               1.000000000               0.000000033               0.000000216               1.000000000               0.000000227               0.000000284               1.000000000               0.000000378               0.000000320               1.000000000               0.000000383               0.000000226               1.000000000               0.000000140              -0.000000073               1.000000000              -0.000000070               0.000000007               1.000000000              -0.000000013               0.000000027               1.000000000               0.000000001               0.000000176               1.000000000              -0.000000031               0.000000200               1.000000000              -0.000000026               0.000000261               1.000000000              -0.000000022               0.000000252               1.000000000              -0.000000020               0.000000159               1.000000000              -0.000000005              -0.000000017               1.000000000               0.000000008              -0.000000283               1.000000000               0.000000053              -0.000000575               1.000000000               0.000000158              -0.000000843               1.000000000               0.000000312              -0.000001060               1.000000000               0.000000454              -0.000001278               1.000000000               0.000000483              -0.000001617               1.000000000               0.000000283              -0.000002228               1.000000000              -0.000000249              -0.000003251               1.000000000              -0.000001207              -0.000004827               1.000000000               0.000000008               0.000000162               1.000000000               0.000000022               0.000000098               1.000000000               0.000000007               0.000000248               1.000000000              -0.000000008               0.000000193               1.000000000              -0.000000006               0.000000080               1.000000000               0.000000013              -0.000000184               1.000000000               0.000000044              -0.000000590               1.000000000               0.000000070              -0.000001157               1.000000000               0.000000124              -0.000001815               1.000000000               0.000000211              -0.000002496               1.000000000               0.000000306              -0.000003170               1.000000000               0.000000327              -0.000003887               1.000000000               0.000000147              -0.000004796               1.000000000              -0.000000357              -0.000006067               1.000000000              -0.000001288              -0.000007868               1.000000000              -0.000002712              -0.000010350               1.000000000              -0.000004653              -0.000013641               1.000000000               0.000000046               0.000000325               1.000000000              -0.000000020               0.000000116               1.000000000               0.000000046               0.000000153               1.000000000               0.000000024              -0.000000107               1.000000000               0.000000011              -0.000000585               1.000000000               0.000000060              -0.000001260               1.000000000               0.000000080              -0.000002185               1.000000000               0.000000100              -0.000003305               1.000000000               0.000000128              -0.000004524               1.000000000               0.000000130              -0.000005808               1.000000000               0.000000017              -0.000007183               1.000000000              -0.000000349              -0.000008815               1.000000000              -0.000001103              -0.000010879               1.000000000              -0.000002355              -0.000013549               1.000000000              -0.000004158              -0.000016963               1.000000000              -0.000006513              -0.000021204               1.000000000              -0.000009383              -0.000026299               1.000000000               0.000000026               0.000000436               1.000000000              -0.000000064               0.000000093               1.000000000               0.000000029              -0.000000118               1.000000000              -0.000000002              -0.000000719               1.000000000               0.000000030              -0.000001691               1.000000000               0.000000076              -0.000002954               1.000000000               0.000000103              -0.000004579               1.000000000               0.000000087              -0.000006409               1.000000000               0.000000037              -0.000008418               1.000000000              -0.000000160              -0.000010582               1.000000000              -0.000000631              -0.000013050               1.000000000              -0.000001534              -0.000016009               1.000000000              -0.000002982              -0.000019640               1.000000000              -0.000005031              -0.000024084               1.000000000              -0.000007668              -0.000029398               1.000000000              -0.000010858              -0.000035582               1.000000000              -0.000014546              -0.000042626               1.000000000               0.000000054               0.000000428               1.000000000              -0.000000081              -0.000000016               1.000000000               0.000000026              -0.000000673               1.000000000               0.000000039              -0.000001715               1.000000000               0.000000037              -0.000003290               1.000000000               0.000000074              -0.000005295               1.000000000               0.000000057              -0.000007715               1.000000000              -0.000000038              -0.000010476               1.000000000              -0.000000241              -0.000013494               1.000000000              -0.000000717              -0.000016891               1.000000000              -0.000001619              -0.000020828               1.000000000              -0.000003095              -0.000025527               1.000000000              -0.000005196              -0.000031121               1.000000000              -0.000007928              -0.000037687               1.000000000              -0.000011251              -0.000045195               1.000000000              -0.000015119              -0.000053606               1.000000000              -0.000019446              -0.000062794               1.000000000               0.000000058               0.000000347               1.000000000              -0.000000098              -0.000000248               1.000000000               0.000000010              -0.000001426               1.000000000               0.000000043              -0.000003027               1.000000000               0.000000031              -0.000005371               1.000000000               0.000000076              -0.000008267               1.000000000              -0.000000018              -0.000011697               1.000000000              -0.000000193              -0.000015553               1.000000000              -0.000000586              -0.000019896               1.000000000              -0.000001370              -0.000024846               1.000000000              -0.000002709              -0.000030653               1.000000000              -0.000004686              -0.000037456               1.000000000              -0.000007319              -0.000045371               1.000000000              -0.000010547              -0.000054387               1.000000000              -0.000014329              -0.000064462               1.000000000              -0.000018560              -0.000075459               1.000000000              -0.000023093              -0.000087158               1.000000000               0.000000010               0.000000176               1.000000000              -0.000000072              -0.000000452               1.000000000              -0.000000055              -0.000001835               1.000000000               0.000000070              -0.000003642               1.000000000               0.000000010              -0.000006005               1.000000000               0.000000056              -0.000009019               1.000000000               0.000000003              -0.000012571               1.000000000              -0.000000128              -0.000016589               1.000000000              -0.000000349              -0.000021101               1.000000000              -0.000000774              -0.000026106               1.000000000              -0.000001531              -0.000031759               1.000000000              -0.000002717              -0.000038199               1.000000000              -0.000004375              -0.000045521               1.000000000              -0.000006495              -0.000053810               1.000000000              -0.000009029              -0.000063083               1.000000000              -0.000011968              -0.000073349               1.000000000              -0.000015250              -0.000084563               1.000000000              -0.000000015              -0.000000116               1.000000000              -0.000000026              -0.000000690               1.000000000              -0.000000108              -0.000002214               1.000000000               0.000000044              -0.000004199               1.000000000               0.000000039              -0.000006654               1.000000000               0.000000040              -0.000009710               1.000000000               0.000000054              -0.000013382               1.000000000              -0.000000032              -0.000017526               1.000000000              -0.000000159              -0.000022160               1.000000000              -0.000000365              -0.000027300               1.000000000              -0.000000742              -0.000032953               1.000000000              -0.000001361              -0.000039249               1.000000000              -0.000002276              -0.000046240               1.000000000              -0.000003510              -0.000054033               1.000000000              -0.000005042              -0.000062620               1.000000000              -0.000006846              -0.000072104               1.000000000              -0.000008957              -0.000082426               1.000000000               0.000000000              -0.000000473               1.000000000               0.000000020              -0.000000960               1.000000000              -0.000000114              -0.000002588               1.000000000              -0.000000003              -0.000004680               1.000000000               0.000000045              -0.000007269               1.000000000               0.000000007              -0.000010321               1.000000000               0.000000030              -0.000014018               1.000000000               0.000000009              -0.000018270               1.000000000              -0.000000069              -0.000022978               1.000000000              -0.000000156              -0.000028231               1.000000000              -0.000000296              -0.000033960               1.000000000              -0.000000549              -0.000040248               1.000000000              -0.000000957              -0.000047111               1.000000000              -0.000001543              -0.000054644               1.000000000              -0.000002321              -0.000062838               1.000000000              -0.000003257              -0.000071775               1.000000000              -0.000004325              -0.000081426               1.000000000              -0.000000003              -0.000000801               1.000000000               0.000000048              -0.000001240               1.000000000              -0.000000110              -0.000002889               1.000000000              -0.000000046              -0.000005080               1.000000000               0.000000038              -0.000007780               1.000000000               0.000000016              -0.000010899               1.000000000               0.000000023              -0.000014551               1.000000000               0.000000041              -0.000018844               1.000000000               0.000000019              -0.000023622               1.000000000              -0.000000024              -0.000028897               1.000000000              -0.000000065              -0.000034707               1.000000000              -0.000000129              -0.000041008               1.000000000              -0.000000250              -0.000047849               1.000000000              -0.000000451              -0.000055266               1.000000000              -0.000000741              -0.000063275               1.000000000              -0.000001119              -0.000071912               1.000000000              -0.000001544              -0.000081171               1.000000000              -0.000000012              -0.000001105               1.000000000               0.000000080              -0.000001569               1.000000000              -0.000000071              -0.000003155               1.000000000              -0.000000060              -0.000005425               1.000000000               0.000000025              -0.000008179               1.000000000               0.000000013              -0.000011378               1.000000000               0.000000009              -0.000015028               1.000000000               0.000000027              -0.000019263               1.000000000               0.000000036              -0.000024087               1.000000000               0.000000020              -0.000029350               1.000000000               0.000000010              -0.000035172               1.000000000               0.000000012              -0.000041491               1.000000000               0.000000018              -0.000048318               1.000000000               0.000000005              -0.000055666               1.000000000              -0.000000041              -0.000063568               1.000000000              -0.000000130              -0.000072016               1.000000000              -0.000000263              -0.000081045               1.000000000              -0.000000013              -0.000001336               1.000000000               0.000000076              -0.000001854               1.000000000              -0.000000043              -0.000003348               1.000000000              -0.000000057              -0.000005640               1.000000000               0.000000006              -0.000008474               1.000000000               0.000000004              -0.000011736               1.000000000              -0.000000011              -0.000015415               1.000000000              -0.000000005              -0.000019598               1.000000000               0.000000012              -0.000024411               1.000000000               0.000000018              -0.000029673               1.000000000               0.000000019              -0.000035465               1.000000000               0.000000026              -0.000041777               1.000000000               0.000000040              -0.000048594               1.000000000               0.000000065              -0.000055888               1.000000000               0.000000088              -0.000063715               1.000000000               0.000000097              -0.000072041               1.000000000               0.000000077              -0.000080919               1.000000000              -0.000000016              -0.000001463               1.000000000               0.000000035              -0.000002003               1.000000000              -0.000000030              -0.000003459               1.000000000              -0.000000025              -0.000005762               1.000000000               0.000000003              -0.000008617               1.000000000               0.000000012              -0.000011904               1.000000000              -0.000000009              -0.000015614               1.000000000              -0.000000009              -0.000019794               1.000000000               0.000000006              -0.000024598               1.000000000               0.000000015              -0.000029871               1.000000000               0.000000013              -0.000035632               1.000000000               0.000000010              -0.000041913               1.000000000               0.000000010              -0.000048718               1.000000000               0.000000018              -0.000055996               1.000000000               0.000000040              -0.000063801               1.000000000               0.000000068              -0.000072090               1.000000000               0.000000091              -0.000080905               1.000000000              -0.000000000              -0.000001541               1.000000000               0.000000000              -0.000002101               1.000000000              -0.000000000              -0.000003557               1.000000000              -0.000000000              -0.000005851               1.000000000               0.000000000              -0.000008698               1.000000000              -0.000000000              -0.000011992               1.000000000              -0.000000000              -0.000015720               1.000000000              -0.000000000              -0.000019906               1.000000000              -0.000000000              -0.000024693               1.000000000               0.000000000              -0.000029950               1.000000000              -0.000000000              -0.000035682               1.000000000              -0.000000000              -0.000041944               1.000000000              -0.000000000              -0.000048746               1.000000000              -0.000000000              -0.000056033               1.000000000               0.000000000              -0.000063851               1.000000000               0.000000000              -0.000072147               1.000000000               0.000000000              -0.000080951               1.000000000               0.000000066               0.000000000               1.000000000               0.000000044              -0.000000000               1.000000000              -0.000000035               0.000000000               1.000000000              -0.000000030              -0.000000000               1.000000000              -0.000000059              -0.000000000               1.000000000              -0.000000116              -0.000000000               1.000000000              -0.000000163              -0.000000000               1.000000000              -0.000000201               0.000000000               1.000000000              -0.000000234               0.000000000               1.000000000              -0.000000252               0.000000000               1.000000000              -0.000000225              -0.000000000               1.000000000              -0.000000139               0.000000000               1.000000000              -0.000000013               0.000000000               1.000000000               0.000000102               0.000000000               1.000000000               0.000000148               0.000000000               1.000000000               0.000000085               0.000000000               1.000000000              -0.000000075              -0.000000000               1.000000000              -0.000000043              -0.000000161               1.000000000              -0.000000018              -0.000000062               1.000000000               0.000000004              -0.000000118               1.000000000               0.000000008              -0.000000103               1.000000000               0.000000017              -0.000000040               1.000000000               0.000000045               0.000000011               1.000000000               0.000000063               0.000000109               1.000000000               0.000000072               0.000000215               1.000000000               0.000000090               0.000000321               1.000000000               0.000000118               0.000000384               1.000000000               0.000000155               0.000000405               1.000000000               0.000000185               0.000000413               1.000000000               0.000000190               0.000000459               1.000000000               0.000000157               0.000000584               1.000000000               0.000000086               0.000000789               1.000000000               0.000000001               0.000001019               1.000000000              -0.000000063               0.000001170               1.000000000              -0.000000029              -0.000000146               1.000000000              -0.000000005              -0.000000073               1.000000000               0.000000014              -0.000000017               1.000000000              -0.000000007               0.000000017               1.000000000               0.000000008               0.000000087               1.000000000               0.000000030               0.000000161               1.000000000               0.000000061               0.000000239               1.000000000               0.000000102               0.000000295               1.000000000               0.000000145               0.000000299               1.000000000               0.000000186               0.000000259               1.000000000               0.000000189               0.000000208               1.000000000               0.000000118               0.000000184               1.000000000              -0.000000033               0.000000216               1.000000000              -0.000000227               0.000000284               1.000000000              -0.000000378               0.000000320               1.000000000              -0.000000383               0.000000226               1.000000000              -0.000000140              -0.000000073               1.000000000               0.000000070               0.000000007               1.000000000               0.000000013               0.000000027               1.000000000              -0.000000001               0.000000176               1.000000000               0.000000031               0.000000200               1.000000000               0.000000026               0.000000261               1.000000000               0.000000022               0.000000252               1.000000000               0.000000020               0.000000159               1.000000000               0.000000005              -0.000000017               1.000000000              -0.000000008              -0.000000283               1.000000000              -0.000000053              -0.000000575               1.000000000              -0.000000158              -0.000000843               1.000000000              -0.000000312              -0.000001060               1.000000000              -0.000000454              -0.000001278               1.000000000              -0.000000483              -0.000001617               1.000000000              -0.000000283              -0.000002228               1.000000000               0.000000249              -0.000003251               1.000000000               0.000001207              -0.000004827               1.000000000              -0.000000008               0.000000162               1.000000000              -0.000000022               0.000000098               1.000000000              -0.000000007               0.000000248               1.000000000               0.000000008               0.000000193               1.000000000               0.000000006               0.000000080               1.000000000              -0.000000013              -0.000000184               1.000000000              -0.000000044              -0.000000590               1.000000000              -0.000000070              -0.000001157               1.000000000              -0.000000124              -0.000001815               1.000000000              -0.000000211              -0.000002496               1.000000000              -0.000000306              -0.000003170               1.000000000              -0.000000327              -0.000003887               1.000000000              -0.000000147              -0.000004796               1.000000000               0.000000357              -0.000006067               1.000000000               0.000001288              -0.000007868               1.000000000               0.000002712              -0.000010350               1.000000000               0.000004653              -0.000013641               1.000000000              -0.000000046               0.000000325               1.000000000               0.000000020               0.000000116               1.000000000              -0.000000046               0.000000153               1.000000000              -0.000000024              -0.000000107               1.000000000              -0.000000011              -0.000000585               1.000000000              -0.000000060              -0.000001260               1.000000000              -0.000000080              -0.000002185               1.000000000              -0.000000100              -0.000003305               1.000000000              -0.000000128              -0.000004524               1.000000000              -0.000000130              -0.000005808               1.000000000              -0.000000017              -0.000007183               1.000000000               0.000000349              -0.000008815               1.000000000               0.000001103              -0.000010879               1.000000000               0.000002355              -0.000013549               1.000000000               0.000004158              -0.000016963               1.000000000               0.000006513              -0.000021204               1.000000000               0.000009383              -0.000026299               1.000000000              -0.000000026               0.000000436               1.000000000               0.000000064               0.000000093               1.000000000              -0.000000029              -0.000000118               1.000000000               0.000000002              -0.000000719               1.000000000              -0.000000030              -0.000001691               1.000000000              -0.000000076              -0.000002954               1.000000000              -0.000000103              -0.000004579               1.000000000              -0.000000087              -0.000006409               1.000000000              -0.000000037              -0.000008418               1.000000000               0.000000160              -0.000010582               1.000000000               0.000000631              -0.000013050               1.000000000               0.000001534              -0.000016009               1.000000000               0.000002982              -0.000019640               1.000000000               0.000005031              -0.000024084               1.000000000               0.000007668              -0.000029398               1.000000000               0.000010858              -0.000035582               1.000000000               0.000014546              -0.000042626               1.000000000              -0.000000054               0.000000428               1.000000000               0.000000081              -0.000000016               1.000000000              -0.000000026              -0.000000673               1.000000000              -0.000000039              -0.000001715               1.000000000              -0.000000037              -0.000003290               1.000000000              -0.000000074              -0.000005295               1.000000000              -0.000000057              -0.000007715               1.000000000               0.000000038              -0.000010476               1.000000000               0.000000241              -0.000013494               1.000000000               0.000000717              -0.000016891               1.000000000               0.000001619              -0.000020828               1.000000000               0.000003095              -0.000025527               1.000000000               0.000005196              -0.000031121               1.000000000               0.000007928              -0.000037687               1.000000000               0.000011251              -0.000045195               1.000000000               0.000015119              -0.000053606               1.000000000               0.000019446              -0.000062794               1.000000000              -0.000000058               0.000000347               1.000000000               0.000000098              -0.000000248               1.000000000              -0.000000010              -0.000001426               1.000000000              -0.000000043              -0.000003027               1.000000000              -0.000000031              -0.000005371               1.000000000              -0.000000076              -0.000008267               1.000000000               0.000000018              -0.000011697               1.000000000               0.000000193              -0.000015553               1.000000000               0.000000586              -0.000019896               1.000000000               0.000001370              -0.000024846               1.000000000               0.000002709              -0.000030653               1.000000000               0.000004686              -0.000037456               1.000000000               0.000007319              -0.000045371               1.000000000               0.000010547              -0.000054387               1.000000000               0.000014329              -0.000064462               1.000000000               0.000018560              -0.000075459               1.000000000               0.000023093              -0.000087158               1.000000000              -0.000000010               0.000000176               1.000000000               0.000000072              -0.000000452               1.000000000               0.000000055              -0.000001835               1.000000000              -0.000000070              -0.000003642               1.000000000              -0.000000010              -0.000006005               1.000000000              -0.000000056              -0.000009019               1.000000000              -0.000000003              -0.000012571               1.000000000               0.000000128              -0.000016589               1.000000000               0.000000349              -0.000021101               1.000000000               0.000000774              -0.000026106               1.000000000               0.000001531              -0.000031759               1.000000000               0.000002717              -0.000038199               1.000000000               0.000004375              -0.000045521               1.000000000               0.000006495              -0.000053810               1.000000000               0.000009029              -0.000063083               1.000000000               0.000011968              -0.000073349               1.000000000               0.000015250              -0.000084563               1.000000000               0.000000015              -0.000000116               1.000000000               0.000000026              -0.000000690               1.000000000               0.000000108              -0.000002214               1.000000000              -0.000000044              -0.000004199               1.000000000              -0.000000039              -0.000006654               1.000000000              -0.000000040              -0.000009710               1.000000000              -0.000000054              -0.000013382               1.000000000               0.000000032              -0.000017526               1.000000000               0.000000159              -0.000022160               1.000000000               0.000000365              -0.000027300               1.000000000               0.000000742              -0.000032953               1.000000000               0.000001361              -0.000039249               1.000000000               0.000002276              -0.000046240               1.000000000               0.000003510              -0.000054033               1.000000000               0.000005042              -0.000062620               1.000000000               0.000006846              -0.000072104               1.000000000               0.000008957              -0.000082426               1.000000000              -0.000000000              -0.000000473               1.000000000              -0.000000020              -0.000000960               1.000000000               0.000000114              -0.000002588               1.000000000               0.000000003              -0.000004680               1.000000000              -0.000000045              -0.000007269               1.000000000              -0.000000007              -0.000010321               1.000000000              -0.000000030              -0.000014018               1.000000000              -0.000000009              -0.000018270               1.000000000               0.000000069              -0.000022978               1.000000000               0.000000156              -0.000028231               1.000000000               0.000000296              -0.000033960               1.000000000               0.000000549              -0.000040248               1.000000000               0.000000957              -0.000047111               1.000000000               0.000001543              -0.000054644               1.000000000               0.000002321              -0.000062838               1.000000000               0.000003257              -0.000071775               1.000000000               0.000004325              -0.000081426               1.000000000               0.000000003              -0.000000801               1.000000000              -0.000000048              -0.000001240               1.000000000               0.000000110              -0.000002889               1.000000000               0.000000046              -0.000005080               1.000000000              -0.000000038              -0.000007780               1.000000000              -0.000000016              -0.000010899               1.000000000              -0.000000023              -0.000014551               1.000000000              -0.000000041              -0.000018844               1.000000000              -0.000000019              -0.000023622               1.000000000               0.000000024              -0.000028897               1.000000000               0.000000065              -0.000034707               1.000000000               0.000000129              -0.000041008               1.000000000               0.000000250              -0.000047849               1.000000000               0.000000451              -0.000055266               1.000000000               0.000000741              -0.000063275               1.000000000               0.000001119              -0.000071912               1.000000000               0.000001544              -0.000081171               1.000000000               0.000000012              -0.000001105               1.000000000              -0.000000080              -0.000001569               1.000000000               0.000000071              -0.000003155               1.000000000               0.000000060              -0.000005425               1.000000000              -0.000000025              -0.000008179               1.000000000              -0.000000013              -0.000011378               1.000000000              -0.000000009              -0.000015028               1.000000000              -0.000000027              -0.000019263               1.000000000              -0.000000036              -0.000024087               1.000000000              -0.000000020              -0.000029350               1.000000000              -0.000000010              -0.000035172               1.000000000              -0.000000012              -0.000041491               1.000000000              -0.000000018              -0.000048318               1.000000000              -0.000000005              -0.000055666               1.000000000               0.000000041              -0.000063568               1.000000000               0.000000130              -0.000072016               1.000000000               0.000000263              -0.000081045               1.000000000               0.000000013              -0.000001336               1.000000000              -0.000000076              -0.000001854               1.000000000               0.000000043              -0.000003348               1.000000000               0.000000057              -0.000005640               1.000000000              -0.000000006              -0.000008474               1.000000000              -0.000000004              -0.000011736               1.000000000               0.000000011              -0.000015415               1.000000000               0.000000005              -0.000019598               1.000000000              -0.000000012              -0.000024411               1.000000000              -0.000000018              -0.000029673               1.000000000              -0.000000019              -0.000035465               1.000000000              -0.000000026              -0.000041777               1.000000000              -0.000000040              -0.000048594               1.000000000              -0.000000065              -0.000055888               1.000000000              -0.000000088              -0.000063715               1.000000000              -0.000000097              -0.000072041               1.000000000              -0.000000077              -0.000080919               1.000000000               0.000000016              -0.000001463               1.000000000              -0.000000035              -0.000002003               1.000000000               0.000000030              -0.000003459               1.000000000               0.000000025              -0.000005762               1.000000000              -0.000000003              -0.000008617               1.000000000              -0.000000012              -0.000011904               1.000000000               0.000000009              -0.000015614               1.000000000               0.000000009              -0.000019794               1.000000000              -0.000000006              -0.000024598               1.000000000              -0.000000015              -0.000029871               1.000000000              -0.000000013              -0.000035632               1.000000000              -0.000000010              -0.000041913               1.000000000              -0.000000010              -0.000048718               1.000000000              -0.000000018              -0.000055996               1.000000000              -0.000000040              -0.000063801               1.000000000              -0.000000068              -0.000072090               1.000000000              -0.000000091              -0.000080905               1.000000000              -0.000000000              -0.000001541               1.000000000               0.000000000              -0.000002101               1.000000000              -0.000000000              -0.000003557               1.000000000              -0.000000000              -0.000005851               1.000000000               0.000000000              -0.000008698               1.000000000              -0.000000000              -0.000011992               1.000000000              -0.000000000              -0.000015720               1.000000000              -0.000000000              -0.000019906               1.000000000              -0.000000000              -0.000024693               1.000000000               0.000000000              -0.000029950               1.000000000              -0.000000000              -0.000035682               1.000000000              -0.000000000              -0.000041944               1.000000000              -0.000000000              -0.000048746               1.000000000              -0.000000000              -0.000056033               1.000000000               0.000000000              -0.000063851               1.000000000               0.000000000              -0.000072147               1.000000000               0.000000000              -0.000080951               1.000000000               0.000000066               0.000000000               1.000000000               0.000000044              -0.000000000               1.000000000              -0.000000035               0.000000000               1.000000000              -0.000000030              -0.000000000               1.000000000              -0.000000059              -0.000000000               1.000000000              -0.000000116              -0.000000000               1.000000000              -0.000000163              -0.000000000               1.000000000              -0.000000201               0.000000000               1.000000000              -0.000000234               0.000000000               1.000000000              -0.000000252               0.000000000               1.000000000              -0.000000225              -0.000000000               1.000000000              -0.000000139               0.000000000               1.000000000              -0.000000013               0.000000000               1.000000000               0.000000102               0.000000000               1.000000000               0.000000148               0.000000000               1.000000000               0.000000085               0.000000000               1.000000000              -0.000000075              -0.000000000               1.000000000              -0.000000043               0.000000161               1.000000000              -0.000000018               0.000000062               1.000000000               0.000000004               0.000000118               1.000000000               0.000000008               0.000000103               1.000000000               0.000000017               0.000000040               1.000000000               0.000000045              -0.000000011               1.000000000               0.000000063              -0.000000109               1.000000000               0.000000072              -0.000000215               1.000000000               0.000000090              -0.000000321               1.000000000               0.000000118              -0.000000384               1.000000000               0.000000155              -0.000000405               1.000000000               0.000000185              -0.000000413               1.000000000               0.000000190              -0.000000459               1.000000000               0.000000157              -0.000000584               1.000000000               0.000000086              -0.000000789               1.000000000               0.000000001              -0.000001019               1.000000000              -0.000000063              -0.000001170               1.000000000              -0.000000029               0.000000146               1.000000000              -0.000000005               0.000000073               1.000000000               0.000000014               0.000000017               1.000000000              -0.000000007              -0.000000017               1.000000000               0.000000008              -0.000000087               1.000000000               0.000000030              -0.000000161               1.000000000               0.000000061              -0.000000239               1.000000000               0.000000102              -0.000000295               1.000000000               0.000000145              -0.000000299               1.000000000               0.000000186              -0.000000259               1.000000000               0.000000189              -0.000000208               1.000000000               0.000000118              -0.000000184               1.000000000              -0.000000033              -0.000000216               1.000000000              -0.000000227              -0.000000284               1.000000000              -0.000000378              -0.000000320               1.000000000              -0.000000383              -0.000000226               1.000000000              -0.000000140               0.000000073               1.000000000               0.000000070              -0.000000007               1.000000000               0.000000013              -0.000000027               1.000000000              -0.000000001              -0.000000176               1.000000000               0.000000031              -0.000000200               1.000000000               0.000000026              -0.000000261               1.000000000               0.000000022              -0.000000252               1.000000000               0.000000020              -0.000000159               1.000000000               0.000000005               0.000000017               1.000000000              -0.000000008               0.000000283               1.000000000              -0.000000053               0.000000575               1.000000000              -0.000000158               0.000000843               1.000000000              -0.000000312               0.000001060               1.000000000              -0.000000454               0.000001278               1.000000000              -0.000000483               0.000001617               1.000000000              -0.000000283               0.000002228               1.000000000               0.000000249               0.000003251               1.000000000               0.000001207               0.000004827               1.000000000              -0.000000008              -0.000000162               1.000000000              -0.000000022              -0.000000098               1.000000000              -0.000000007              -0.000000248               1.000000000               0.000000008              -0.000000193               1.000000000               0.000000006              -0.000000080               1.000000000              -0.000000013               0.000000184               1.000000000              -0.000000044               0.000000590               1.000000000              -0.000000070               0.000001157               1.000000000              -0.000000124               0.000001815               1.000000000              -0.000000211               0.000002496               1.000000000              -0.000000306               0.000003170               1.000000000              -0.000000327               0.000003887               1.000000000              -0.000000147               0.000004796               1.000000000               0.000000357               0.000006067               1.000000000               0.000001288               0.000007868               1.000000000               0.000002712               0.000010350               1.000000000               0.000004653               0.000013641               1.000000000              -0.000000046              -0.000000325               1.000000000               0.000000020              -0.000000116               1.000000000              -0.000000046              -0.000000153               1.000000000              -0.000000024               0.000000107               1.000000000              -0.000000011               0.000000585               1.000000000              -0.000000060               0.000001260               1.000000000              -0.000000080               0.000002185               1.000000000              -0.000000100               0.000003305               1.000000000              -0.000000128               0.000004524               1.000000000              -0.000000130               0.000005808               1.000000000              -0.000000017               0.000007183               1.000000000               0.000000349               0.000008815               1.000000000               0.000001103               0.000010879               1.000000000               0.000002355               0.000013549               1.000000000               0.000004158               0.000016963               1.000000000               0.000006513               0.000021204               1.000000000               0.000009383               0.000026299               1.000000000              -0.000000026              -0.000000436               1.000000000               0.000000064              -0.000000093               1.000000000              -0.000000029               0.000000118               1.000000000               0.000000002               0.000000719               1.000000000              -0.000000030               0.000001691               1.000000000              -0.000000076               0.000002954               1.000000000              -0.000000103               0.000004579               1.000000000              -0.000000087               0.000006409               1.000000000              -0.000000037               0.000008418               1.000000000               0.000000160               0.000010582               1.000000000               0.000000631               0.000013050               1.000000000               0.000001534               0.000016009               1.000000000               0.000002982               0.000019640               1.000000000               0.000005031               0.000024084               1.000000000               0.000007668               0.000029398               1.000000000               0.000010858               0.000035582               1.000000000               0.000014546               0.000042626               1.000000000              -0.000000054              -0.000000428               1.000000000               0.000000081               0.000000016               1.000000000              -0.000000026               0.000000673               1.000000000              -0.000000039               0.000001715               1.000000000              -0.000000037               0.000003290               1.000000000              -0.000000074               0.000005295               1.000000000              -0.000000057               0.000007715               1.000000000               0.000000038               0.000010476               1.000000000               0.000000241               0.000013494               1.000000000               0.000000717               0.000016891               1.000000000               0.000001619               0.000020828               1.000000000               0.000003095               0.000025527               1.000000000               0.000005196               0.000031121               1.000000000               0.000007928               0.000037687               1.000000000               0.000011251               0.000045195               1.000000000               0.000015119               0.000053606               1.000000000               0.000019446               0.000062794               1.000000000              -0.000000058              -0.000000347               1.000000000               0.000000098               0.000000248               1.000000000              -0.000000010               0.000001426               1.000000000              -0.000000043               0.000003027               1.000000000              -0.000000031               0.000005371               1.000000000              -0.000000076               0.000008267               1.000000000               0.000000018               0.000011697               1.000000000               0.000000193               0.000015553               1.000000000               0.000000586               0.000019896               1.000000000               0.000001370               0.000024846               1.000000000               0.000002709               0.000030653               1.000000000               0.000004686               0.000037456               1.000000000               0.000007319               0.000045371               1.000000000               0.000010547               0.000054387               1.000000000               0.000014329               0.000064462               1.000000000               0.000018560               0.000075459               1.000000000               0.000023093               0.000087158               1.000000000              -0.000000010              -0.000000176               1.000000000               0.000000072               0.000000452               1.000000000               0.000000055               0.000001835               1.000000000              -0.000000070               0.000003642               1.000000000              -0.000000010               0.000006005               1.000000000              -0.000000056               0.000009019               1.000000000              -0.000000003               0.000012571               1.000000000               0.000000128               0.000016589               1.000000000               0.000000349               0.000021101               1.000000000               0.000000774               0.000026106               1.000000000               0.000001531               0.000031759               1.000000000               0.000002717               0.000038199               1.000000000               0.000004375               0.000045521               1.000000000               0.000006495               0.000053810               1.000000000               0.000009029               0.000063083               1.000000000               0.000011968               0.000073349               1.000000000               0.000015250               0.000084563               1.000000000               0.000000015               0.000000116               1.000000000               0.000000026               0.000000690               1.000000000               0.000000108               0.000002214               1.000000000              -0.000000044               0.000004199               1.000000000              -0.000000039               0.000006654               1.000000000              -0.000000040               0.000009710               1.000000000              -0.000000054               0.000013382               1.000000000               0.000000032               0.000017526               1.000000000               0.000000159               0.000022160               1.000000000               0.000000365               0.000027300               1.000000000               0.000000742               0.000032953               1.000000000               0.000001361               0.000039249               1.000000000               0.000002276               0.000046240               1.000000000               0.000003510               0.000054033               1.000000000               0.000005042               0.000062620               1.000000000               0.000006846               0.000072104               1.000000000               0.000008957               0.000082426               1.000000000              -0.000000000               0.000000473               1.000000000              -0.000000020               0.000000960               1.000000000               0.000000114               0.000002588               1.000000000               0.000000003               0.000004680               1.000000000              -0.000000045               0.000007269               1.000000000              -0.000000007               0.000010321               1.000000000              -0.000000030               0.000014018               1.000000000              -0.000000009               0.000018270               1.000000000               0.000000069               0.000022978               1.000000000               0.000000156               0.000028231               1.000000000               0.000000296               0.000033960               1.000000000               0.000000549               0.000040248               1.000000000               0.000000957               0.000047111               1.000000000               0.000001543               0.000054644               1.000000000               0.000002321               0.000062838               1.000000000               0.000003257               0.000071775               1.000000000               0.000004325               0.000081426               1.000000000               0.000000003               0.000000801               1.000000000              -0.000000048               0.000001240               1.000000000               0.000000110               0.000002889               1.000000000               0.000000046               0.000005080               1.000000000              -0.000000038               0.000007780               1.000000000              -0.000000016               0.000010899               1.000000000              -0.000000023               0.000014551               1.000000000              -0.000000041               0.000018844               1.000000000              -0.000000019               0.000023622               1.000000000               0.000000024               0.000028897               1.000000000               0.000000065               0.000034707               1.000000000               0.000000129               0.000041008               1.000000000               0.000000250               0.000047849               1.000000000               0.000000451               0.000055266               1.000000000               0.000000741               0.000063275               1.000000000               0.000001119               0.000071912               1.000000000               0.000001544               0.000081171               1.000000000               0.000000012               0.000001105               1.000000000              -0.000000080               0.000001569               1.000000000               0.000000071               0.000003155               1.000000000               0.000000060               0.000005425               1.000000000              -0.000000025               0.000008179               1.000000000              -0.000000013               0.000011378               1.000000000              -0.000000009               0.000015028               1.000000000              -0.000000027               0.000019263               1.000000000              -0.000000036               0.000024087               1.000000000              -0.000000020               0.000029350               1.000000000              -0.000000010               0.000035172               1.000000000              -0.000000012               0.000041491               1.000000000              -0.000000018               0.000048318               1.000000000              -0.000000005               0.000055666               1.000000000               0.000000041               0.000063568               1.000000000               0.000000130               0.000072016               1.000000000               0.000000263               0.000081045               1.000000000               0.000000013               0.000001336               1.000000000              -0.000000076               0.000001854               1.000000000               0.000000043               0.000003348               1.000000000               0.000000057               0.000005640               1.000000000              -0.000000006               0.000008474               1.000000000              -0.000000004               0.000011736               1.000000000               0.000000011               0.000015415               1.000000000               0.000000005               0.000019598               1.000000000              -0.000000012               0.000024411               1.000000000              -0.000000018               0.000029673               1.000000000              -0.000000019               0.000035465               1.000000000              -0.000000026               0.000041777               1.000000000              -0.000000040               0.000048594               1.000000000              -0.000000065               0.000055888               1.000000000              -0.000000088               0.000063715               1.000000000              -0.000000097               0.000072041               1.000000000              -0.000000077               0.000080919               1.000000000               0.000000016               0.000001463               1.000000000              -0.000000035               0.000002003               1.000000000               0.000000030               0.000003459               1.000000000               0.000000025               0.000005762               1.000000000              -0.000000003               0.000008617               1.000000000              -0.000000012               0.000011904               1.000000000               0.000000009               0.000015614               1.000000000               0.000000009               0.000019794               1.000000000              -0.000000006               0.000024598               1.000000000              -0.000000015               0.000029871               1.000000000              -0.000000013               0.000035632               1.000000000              -0.000000010               0.000041913               1.000000000              -0.000000010               0.000048718               1.000000000              -0.000000018               0.000055996               1.000000000              -0.000000040               0.000063801               1.000000000              -0.000000068               0.000072090               1.000000000              -0.000000091               0.000080905               1.000000000               0.000000000               0.000001541               1.000000000              -0.000000000               0.000002101               1.000000000               0.000000000               0.000003557               1.000000000              -0.000000000               0.000005851               1.000000000              -0.000000000               0.000008698               1.000000000              -0.000000000               0.000011992               1.000000000              -0.000000000               0.000015720               1.000000000               0.000000000               0.000019906               1.000000000               0.000000000               0.000024693               1.000000000               0.000000000               0.000029950               1.000000000               0.000000000               0.000035682               1.000000000              -0.000000000               0.000041944               1.000000000               0.000000000               0.000048746               1.000000000              -0.000000000               0.000056033               1.000000000               0.000000000               0.000063851               1.000000000              -0.000000000               0.000072147               1.000000000              -0.000000000               0.000080951               1.000000000 </DataArray>
<DataArray type="Float64"                                    Name="stress"                                                      NumberOfComponents="10" format="ascii">
              0.000008883               0.000027017              -0.000000000              -0.000000046               0.000009021               0.000008975               0.000000000               0.000000000               0.000000000               0.000000000               0.000008523               0.000017352               0.000000000               0.000001027               0.000005442               0.000006469               0.000000000               0.000000000               0.000000000               0.000000000               0.000008170               0.000017448               0.000000000               0.000000883               0.000005522               0.000006404               0.000000000               0.000000000               0.000000000               0.000000000               0.000005312               0.000013033              -0.000000000               0.000000363               0.000004223               0.000004586               0.000000000               0.000000000               0.000000000               0.000000000               0.000005035               0.000006008              -0.000000000               0.000001137               0.000001624               0.000002761               0.000000000               0.000000000               0.000000000               0.000000000               0.000003583              -0.000000587              -0.000000000               0.000001417              -0.000000668               0.000000749               0.000000000               0.000000000               0.000000000               0.000000000               0.000000534              -0.000009151               0.000000000               0.000001344              -0.000003499              -0.000002154               0.000000000               0.000000000               0.000000000               0.000000000              -0.000002633              -0.000017436              -0.000000000               0.000001192              -0.000006210              -0.000005017               0.000000000               0.000000000               0.000000000               0.000000000              -0.000005951              -0.000024154              -0.000000000               0.000000788              -0.000008314              -0.000007526               0.000000000               0.000000000               0.000000000               0.000000000              -0.000009904              -0.000027908              -0.000000000              -0.000000226              -0.000009228              -0.000009453               0.000000000               0.000000000               0.000000000               0.000000000              -0.000014468              -0.000029243               0.000000000              -0.000001770              -0.000009158              -0.000010928               0.000000000               0.000000000               0.000000000               0.000000000              -0.000018039              -0.000029779               0.000000000              -0.000003042              -0.000008912              -0.000011955               0.000000000               0.000000000               0.000000000               0.000000000              -0.000018755              -0.000031367               0.000000000              -0.000003112              -0.000009418              -0.000012531               0.000000000               0.000000000               0.000000000               0.000000000              -0.000015748              -0.000035179               0.000000000              -0.000001508              -0.000011223              -0.000012732               0.000000000               0.000000000               0.000000000               0.000000000              -0.000009931              -0.000040872               0.000000000               0.000001385              -0.000014086              -0.000012701               0.000000000               0.000000000               0.000000000               0.000000000              -0.000004049              -0.000046511               0.000000000               0.000004295              -0.000016935              -0.000012640               0.000000000               0.000000000               0.000000000               0.000000000              -0.000001563              -0.000049104              -0.000000000               0.000005552              -0.000018219              -0.000012667               0.000000000               0.000000000               0.000000000               0.000000000               0.000001131               0.000010919              -0.000000989              -0.000000941               0.000003953               0.000003012               0.000000000               0.000000000               0.000000000               0.000000000               0.000000656               0.000006175               0.000000073              -0.000000526               0.000002234               0.000001708               0.000000000               0.000000000               0.000000000               0.000000000               0.000000476               0.000001612              -0.000000401              -0.000000023               0.000000545               0.000000522               0.000000000               0.000000000               0.000000000               0.000000000              -0.000000695              -0.000001816              -0.000002052              -0.000000033              -0.000000594              -0.000000628               0.000000000               0.000000000               0.000000000               0.000000000              -0.000002555              -0.000005700              -0.000003211              -0.000000246              -0.000001818              -0.000002064               0.000000000               0.000000000               0.000000000               0.000000000              -0.000003704              -0.000009024              -0.000004798              -0.000000261              -0.000002921              -0.000003182               0.000000000               0.000000000               0.000000000               0.000000000              -0.000003907              -0.000011470              -0.000006473              -0.000000031              -0.000003813              -0.000003844               0.000000000               0.000000000               0.000000000               0.000000000              -0.000004230              -0.000012584              -0.000007175              -0.000000013              -0.000004190              -0.000004203               0.000000000               0.000000000               0.000000000               0.000000000              -0.000004711              -0.000011936              -0.000006964              -0.000000274              -0.000003887              -0.000004162               0.000000000               0.000000000               0.000000000               0.000000000              -0.000004962              -0.000010045              -0.000005911              -0.000000605              -0.000003147              -0.000003752               0.000000000               0.000000000               0.000000000               0.000000000              -0.000004546              -0.000007932              -0.000004576              -0.000000713              -0.000002406              -0.000003120               0.000000000               0.000000000               0.000000000               0.000000000              -0.000003004              -0.000006469              -0.000003375              -0.000000318              -0.000002050              -0.000002368               0.000000000               0.000000000               0.000000000               0.000000000              -0.000000479              -0.000006084              -0.000002620               0.000000581              -0.000002222              -0.000001641               0.000000000               0.000000000               0.000000000               0.000000000               0.000002219              -0.000006269              -0.000002278               0.000001616              -0.000002628              -0.000001013               0.000000000               0.000000000               0.000000000               0.000000000               0.000003817              -0.000005792              -0.000001954               0.000002155              -0.000002649              -0.000000494               0.000000000               0.000000000               0.000000000               0.000000000               0.000002973              -0.000003282              -0.000001089               0.000001525              -0.000001602              -0.000000077               0.000000000               0.000000000               0.000000000               0.000000000               0.000002753               0.000000390              -0.000001366               0.000000983              -0.000000198               0.000000786               0.000000000               0.000000000               0.000000000               0.000000000              -0.000004089              -0.000015692              -0.000004325               0.000000428              -0.000005373              -0.000004945               0.000000000               0.000000000               0.000000000               0.000000000              -0.000005062              -0.000013759              -0.000002470              -0.000000178              -0.000004527              -0.000004705               0.000000000               0.000000000               0.000000000               0.000000000              -0.000007100              -0.000020726               0.000000039              -0.000000072              -0.000006885              -0.000006957               0.000000000               0.000000000               0.000000000               0.000000000              -0.000006692              -0.000020436              -0.000000595               0.000000045              -0.000006827              -0.000006782               0.000000000               0.000000000               0.000000000               0.000000000              -0.000007528              -0.000018109              -0.000001225              -0.000000559              -0.000005850              -0.000006409               0.000000000               0.000000000               0.000000000               0.000000000              -0.000006909              -0.000012799              -0.000001039              -0.000000991              -0.000003936              -0.000004927               0.000000000               0.000000000               0.000000000               0.000000000              -0.000004466              -0.000003116              -0.000001040              -0.000001285              -0.000000610              -0.000001895               0.000000000               0.000000000               0.000000000               0.000000000              -0.000001062               0.000009156              -0.000000266              -0.000001543               0.000003566               0.000002023               0.000000000               0.000000000               0.000000000               0.000000000               0.000003057               0.000022373               0.000000822              -0.000001650               0.000008008               0.000006358               0.000000000               0.000000000               0.000000000               0.000000000               0.000008492               0.000033932               0.000001750              -0.000001057               0.000011663               0.000010606               0.000000000               0.000000000               0.000000000               0.000000000               0.000015718               0.000042875               0.000002179               0.000000535               0.000014113               0.000014648               0.000000000               0.000000000               0.000000000               0.000000000               0.000023494               0.000049779               0.000001823               0.000002588               0.000015730               0.000018318               0.000000000               0.000000000               0.000000000               0.000000000               0.000029496               0.000056894               0.000000895               0.000003949               0.000017648               0.000021597               0.000000000               0.000000000               0.000000000               0.000000000               0.000031033               0.000066984               0.000000020               0.000003264               0.000021240               0.000024504               0.000000000               0.000000000               0.000000000               0.000000000               0.000026273               0.000082044              -0.000000224              -0.000000403               0.000027482               0.000027079               0.000000000               0.000000000               0.000000000               0.000000000               0.000014904               0.000102781               0.000000211              -0.000007258               0.000036679               0.000029421               0.000000000               0.000000000               0.000000000               0.000000000               0.000011361               0.000121586              -0.000001697              -0.000010938               0.000044174               0.000033236               0.000000000               0.000000000               0.000000000               0.000000000              -0.000004960              -0.000025217               0.000003018               0.000001292              -0.000008836              -0.000007544               0.000000000               0.000000000               0.000000000               0.000000000              -0.000005223              -0.000019834              -0.000000123               0.000000521              -0.000006785              -0.000006264               0.000000000               0.000000000               0.000000000               0.000000000              -0.000007891              -0.000019595              -0.000000292              -0.000000510              -0.000006362              -0.000006872               0.000000000               0.000000000               0.000000000               0.000000000              -0.000004664              -0.000011058               0.000000029              -0.000000367              -0.000003564              -0.000003931               0.000000000               0.000000000               0.000000000               0.000000000               0.000000669               0.000002084              -0.000000288              -0.000000010               0.000000698               0.000000688               0.000000000               0.000000000               0.000000000               0.000000000               0.000005894               0.000019818               0.000001117              -0.000000267               0.000006695               0.000006428               0.000000000               0.000000000               0.000000000               0.000000000               0.000012365               0.000040975               0.000002593              -0.000000485               0.000013820               0.000013335               0.000000000               0.000000000               0.000000000               0.000000000               0.000019560               0.000063627               0.000004015              -0.000000618               0.000021415               0.000020797               0.000000000               0.000000000               0.000000000               0.000000000               0.000027138               0.000084513               0.000004715              -0.000000387               0.000028300               0.000027912               0.000000000               0.000000000               0.000000000               0.000000000               0.000036265               0.000102586               0.000003909               0.000000776               0.000033936               0.000034712               0.000000000               0.000000000               0.000000000               0.000000000               0.000045653               0.000118444               0.000001496               0.000002314               0.000038710               0.000041024               0.000000000               0.000000000               0.000000000               0.000000000               0.000052601               0.000134346              -0.000001932               0.000002932               0.000043804               0.000046736               0.000000000               0.000000000               0.000000000               0.000000000               0.000054632               0.000153623              -0.000005184               0.000001284               0.000050779               0.000052063               0.000000000               0.000000000               0.000000000               0.000000000               0.000050081               0.000178428              -0.000007137              -0.000003523               0.000060650               0.000057127               0.000000000               0.000000000               0.000000000               0.000000000               0.000038655               0.000209623              -0.000007075              -0.000011707               0.000073776               0.000062069               0.000000000               0.000000000               0.000000000               0.000000000               0.000020924               0.000247243              -0.000004472              -0.000023059               0.000090100               0.000067041               0.000000000               0.000000000               0.000000000               0.000000000               0.000016849               0.000278736              -0.000006027              -0.000028524               0.000102419               0.000073895               0.000000000               0.000000000               0.000000000               0.000000000              -0.000009303              -0.000020839               0.000009096              -0.000000884              -0.000006652              -0.000007536               0.000000000               0.000000000               0.000000000               0.000000000              -0.000003486              -0.000009976               0.000000909              -0.000000060              -0.000003305              -0.000003366               0.000000000               0.000000000               0.000000000               0.000000000              -0.000001425               0.000002288              -0.000000826              -0.000000820               0.000001036               0.000000216               0.000000000               0.000000000               0.000000000               0.000000000               0.000005526               0.000023905               0.000001091              -0.000000916               0.000008273               0.000007358               0.000000000               0.000000000               0.000000000               0.000000000               0.000017590               0.000052976               0.000000586              -0.000000026               0.000017667               0.000017642               0.000000000               0.000000000               0.000000000               0.000000000               0.000028529               0.000083858               0.000001833               0.000000216               0.000027880               0.000028096               0.000000000               0.000000000               0.000000000               0.000000000               0.000038949               0.000115440               0.000002789               0.000000176               0.000038421               0.000038597               0.000000000               0.000000000               0.000000000               0.000000000               0.000050219               0.000145908               0.000002629               0.000000594               0.000048438               0.000049031               0.000000000               0.000000000               0.000000000               0.000000000               0.000061739               0.000172751               0.000000571               0.000001558               0.000057064               0.000058622               0.000000000               0.000000000               0.000000000               0.000000000               0.000072271               0.000197077              -0.000003723               0.000002467               0.000064869               0.000067336               0.000000000               0.000000000               0.000000000               0.000000000               0.000079622               0.000221634              -0.000009547               0.000002154               0.000073159               0.000075313               0.000000000               0.000000000               0.000000000               0.000000000               0.000081196               0.000250124              -0.000015247              -0.000000817               0.000083646               0.000082829               0.000000000               0.000000000               0.000000000               0.000000000               0.000075546               0.000284194              -0.000019168              -0.000007194               0.000097128               0.000089934               0.000000000               0.000000000               0.000000000               0.000000000               0.000063050               0.000323699              -0.000020238              -0.000016819               0.000113505               0.000096686               0.000000000               0.000000000               0.000000000               0.000000000               0.000045002               0.000367309              -0.000017628              -0.000029038               0.000132114               0.000103077               0.000000000               0.000000000               0.000000000               0.000000000               0.000023218               0.000413137              -0.000010691              -0.000042935               0.000152023               0.000109087               0.000000000               0.000000000               0.000000000               0.000000000               0.000018356               0.000447185              -0.000009920              -0.000049014               0.000165398               0.000116384               0.000000000               0.000000000               0.000000000               0.000000000              -0.000006485              -0.000008164               0.000008667              -0.000001411              -0.000002251              -0.000003662               0.000000000               0.000000000               0.000000000               0.000000000               0.000005052               0.000006667               0.000001090               0.000001061               0.000001868               0.000002930               0.000000000               0.000000000               0.000000000               0.000000000               0.000012378               0.000032724              -0.000001067               0.000000551               0.000010724               0.000011275               0.000000000               0.000000000               0.000000000               0.000000000               0.000021509               0.000069180               0.000001254              -0.000000582               0.000023254               0.000022672               0.000000000               0.000000000               0.000000000               0.000000000               0.000038415               0.000112172               0.000001444               0.000000384               0.000037262               0.000037646               0.000000000               0.000000000               0.000000000               0.000000000               0.000053347               0.000154943               0.000002000               0.000000637               0.000051435               0.000052072               0.000000000               0.000000000               0.000000000               0.000000000               0.000066181               0.000196755               0.000001640               0.000000223               0.000065510               0.000065733               0.000000000               0.000000000               0.000000000               0.000000000               0.000079876               0.000234485              -0.000000994               0.000000643               0.000077947               0.000078589               0.000000000               0.000000000               0.000000000               0.000000000               0.000092496               0.000268993              -0.000006325               0.000001062               0.000089309               0.000090371               0.000000000               0.000000000               0.000000000               0.000000000               0.000101499               0.000302777              -0.000013825               0.000000215               0.000100853               0.000101068               0.000000000               0.000000000               0.000000000               0.000000000               0.000104327               0.000339891              -0.000021484              -0.000003364               0.000114417               0.000111053               0.000000000               0.000000000               0.000000000               0.000000000               0.000099323               0.000382340              -0.000027242              -0.000010546               0.000130961               0.000120415               0.000000000               0.000000000               0.000000000               0.000000000               0.000086683               0.000429447              -0.000029824              -0.000021175               0.000150206               0.000129031               0.000000000               0.000000000               0.000000000               0.000000000               0.000068253               0.000479393              -0.000028408              -0.000034329               0.000171239               0.000136910               0.000000000               0.000000000               0.000000000               0.000000000               0.000046393               0.000529375              -0.000022730              -0.000048774               0.000192715               0.000143940               0.000000000               0.000000000               0.000000000               0.000000000               0.000023181               0.000576475              -0.000012962              -0.000063366               0.000213278               0.000149912               0.000000000               0.000000000               0.000000000               0.000000000               0.000017708               0.000608608              -0.000010727              -0.000069435               0.000226013               0.000156577               0.000000000               0.000000000               0.000000000               0.000000000              -0.000002028               0.000012652               0.000007865              -0.000002342               0.000004998               0.000002656               0.000000000               0.000000000               0.000000000               0.000000000               0.000012636               0.000030047               0.000003070               0.000000983               0.000009688               0.000010671               0.000000000               0.000000000               0.000000000               0.000000000               0.000027997               0.000073476              -0.000000852               0.000001314               0.000024054               0.000025368               0.000000000               0.000000000               0.000000000               0.000000000               0.000040241               0.000122604               0.000001550              -0.000000235               0.000040946               0.000040711               0.000000000               0.000000000               0.000000000               0.000000000               0.000060755               0.000175668               0.000002233               0.000000824               0.000058281               0.000059105               0.000000000               0.000000000               0.000000000               0.000000000               0.000078761               0.000228119               0.000001793               0.000001020               0.000075699               0.000076719               0.000000000               0.000000000               0.000000000               0.000000000               0.000093220               0.000276868              -0.000000125               0.000000349               0.000092172               0.000092521               0.000000000               0.000000000               0.000000000               0.000000000               0.000107749               0.000322384              -0.000005520               0.000000108               0.000107424               0.000107532               0.000000000               0.000000000               0.000000000               0.000000000               0.000118991               0.000366248              -0.000013299              -0.000001159               0.000122468               0.000121308               0.000000000               0.000000000               0.000000000               0.000000000               0.000123597               0.000412354              -0.000022281              -0.000005195               0.000139182               0.000133987               0.000000000               0.000000000               0.000000000               0.000000000               0.000120275               0.000463511              -0.000029665              -0.000012836               0.000158781               0.000145945               0.000000000               0.000000000               0.000000000               0.000000000               0.000108625               0.000519291              -0.000033903              -0.000024177               0.000181154               0.000156977               0.000000000               0.000000000               0.000000000               0.000000000               0.000090586               0.000577523              -0.000033978              -0.000038220               0.000205246               0.000167025               0.000000000               0.000000000               0.000000000               0.000000000               0.000068965               0.000635360              -0.000029995              -0.000053558               0.000229637               0.000176079               0.000000000               0.000000000               0.000000000               0.000000000               0.000045834               0.000689537              -0.000022650              -0.000069004               0.000252845               0.000183840               0.000000000               0.000000000               0.000000000               0.000000000               0.000022652               0.000737840              -0.000012525              -0.000083735               0.000273856               0.000190121               0.000000000               0.000000000               0.000000000               0.000000000               0.000016716               0.000769128              -0.000010152              -0.000089872               0.000286331               0.000196459               0.000000000               0.000000000               0.000000000               0.000000000               0.000002542               0.000034923               0.000004656              -0.000003412               0.000012778               0.000009366               0.000000000               0.000000000               0.000000000               0.000000000               0.000021174               0.000060558               0.000004065               0.000000370               0.000020062               0.000020433               0.000000000               0.000000000               0.000000000               0.000000000               0.000044838               0.000120247               0.000000394               0.000001783               0.000039488               0.000041271               0.000000000               0.000000000               0.000000000               0.000000000               0.000058955               0.000179066               0.000001208              -0.000000275               0.000059780               0.000059505               0.000000000               0.000000000               0.000000000               0.000000000               0.000082566               0.000242952               0.000001567               0.000000593               0.000080785               0.000081379               0.000000000               0.000000000               0.000000000               0.000000000               0.000102758               0.000303993              -0.000000026               0.000000535               0.000101152               0.000101687               0.000000000               0.000000000               0.000000000               0.000000000               0.000118930               0.000360253              -0.000003826              -0.000000433               0.000120227               0.000119795               0.000000000               0.000000000               0.000000000               0.000000000               0.000133403               0.000414264              -0.000010699              -0.000001757               0.000138672               0.000136915               0.000000000               0.000000000               0.000000000               0.000000000               0.000142283               0.000469492              -0.000019631              -0.000005330               0.000158272               0.000152942               0.000000000               0.000000000               0.000000000               0.000000000               0.000142061               0.000529045              -0.000028060              -0.000012858               0.000180633               0.000167775               0.000000000               0.000000000               0.000000000               0.000000000               0.000132979               0.000593943              -0.000033741              -0.000024376               0.000206104               0.000181729               0.000000000               0.000000000               0.000000000               0.000000000               0.000116277               0.000661701              -0.000035169              -0.000039109               0.000233601               0.000194492               0.000000000               0.000000000               0.000000000               0.000000000               0.000095255               0.000729701              -0.000032419              -0.000055492               0.000261728               0.000206237               0.000000000               0.000000000               0.000000000               0.000000000               0.000071581               0.000794514              -0.000026373              -0.000072471               0.000288992               0.000216521               0.000000000               0.000000000               0.000000000               0.000000000               0.000047115               0.000854198              -0.000018397              -0.000089106               0.000314432               0.000225325               0.000000000               0.000000000               0.000000000               0.000000000               0.000023389               0.000906817              -0.000009517              -0.000104581               0.000337130               0.000232549               0.000000000               0.000000000               0.000000000               0.000000000               0.000015458               0.000939464              -0.000007858              -0.000111636               0.000350363               0.000238727               0.000000000               0.000000000               0.000000000               0.000000000               0.000013279               0.000056992              -0.000000048              -0.000002144               0.000019712               0.000017568               0.000000000               0.000000000               0.000000000               0.000000000               0.000030154               0.000090464               0.000003859              -0.000000000               0.000030154               0.000030154               0.000000000               0.000000000               0.000000000               0.000000000               0.000059207               0.000159013               0.000002362               0.000002326               0.000052228               0.000054554               0.000000000               0.000000000               0.000000000               0.000000000               0.000075750               0.000225914               0.000001457               0.000000167               0.000075248               0.000075415               0.000000000               0.000000000               0.000000000               0.000000000               0.000100176               0.000295860               0.000002578               0.000000583               0.000098425               0.000099008               0.000000000               0.000000000               0.000000000               0.000000000               0.000121196               0.000362889               0.000000774               0.000000087               0.000120933               0.000121020               0.000000000               0.000000000               0.000000000               0.000000000               0.000137764               0.000425206              -0.000004161              -0.000001489               0.000142230               0.000140741               0.000000000               0.000000000               0.000000000               0.000000000               0.000151954               0.000485961              -0.000010634              -0.000003762               0.000163240               0.000159477               0.000000000               0.000000000               0.000000000               0.000000000               0.000159103               0.000550152              -0.000018775              -0.000009106               0.000186417               0.000177312               0.000000000               0.000000000               0.000000000               0.000000000               0.000157018               0.000619309              -0.000025814              -0.000018532               0.000212612               0.000194080               0.000000000               0.000000000               0.000000000               0.000000000               0.000147236               0.000694240              -0.000029940              -0.000031566               0.000241933               0.000210367               0.000000000               0.000000000               0.000000000               0.000000000               0.000131317               0.000771107              -0.000030075              -0.000047144               0.000272748               0.000225604               0.000000000               0.000000000               0.000000000               0.000000000               0.000112166               0.000847099              -0.000026230              -0.000063825               0.000303639               0.000239813               0.000000000               0.000000000               0.000000000               0.000000000               0.000091039               0.000919707              -0.000019592              -0.000080824               0.000333507               0.000252684               0.000000000               0.000000000               0.000000000               0.000000000               0.000069182               0.000987712              -0.000011738              -0.000097520               0.000361741               0.000264220               0.000000000               0.000000000               0.000000000               0.000000000               0.000049351               0.001049682              -0.000004335              -0.000112703               0.000387458               0.000274755               0.000000000               0.000000000               0.000000000               0.000000000               0.000038265               0.001082097              -0.000001334              -0.000120912               0.000400999               0.000280087               0.000000000               0.000000000               0.000000000               0.000000000               0.000023475               0.000076911              -0.000004102              -0.000000811               0.000025907               0.000025096               0.000000000               0.000000000               0.000000000               0.000000000               0.000035403               0.000113648               0.000002307              -0.000000930               0.000038192               0.000037262               0.000000000               0.000000000               0.000000000               0.000000000               0.000068538               0.000187717               0.000003426               0.000002237               0.000061826               0.000064063               0.000000000               0.000000000               0.000000000               0.000000000               0.000086702               0.000254306               0.000000659               0.000000725               0.000084526               0.000085251               0.000000000               0.000000000               0.000000000               0.000000000               0.000107851               0.000323650               0.000000761              -0.000000012               0.000107886               0.000107874               0.000000000               0.000000000               0.000000000               0.000000000               0.000132146               0.000395251               0.000000203               0.000000149               0.000131699               0.000131848               0.000000000               0.000000000               0.000000000               0.000000000               0.000149513               0.000460817              -0.000004097              -0.000001535               0.000154116               0.000152581               0.000000000               0.000000000               0.000000000               0.000000000               0.000165846               0.000525382              -0.000009472              -0.000003481               0.000176286               0.000172805               0.000000000               0.000000000               0.000000000               0.000000000               0.000177171               0.000590790              -0.000015561              -0.000007410               0.000199398               0.000191988               0.000000000               0.000000000               0.000000000               0.000000000               0.000180566               0.000658601              -0.000021878              -0.000014613               0.000224402               0.000209790               0.000000000               0.000000000               0.000000000               0.000000000               0.000176821               0.000731089              -0.000026255              -0.000025078               0.000252053               0.000226975               0.000000000               0.000000000               0.000000000               0.000000000               0.000167104               0.000806378              -0.000027770              -0.000038133               0.000281501               0.000243368               0.000000000               0.000000000               0.000000000               0.000000000               0.000153330               0.000882744              -0.000025714              -0.000052844               0.000311860               0.000259016               0.000000000               0.000000000               0.000000000               0.000000000               0.000137607               0.000959112              -0.000020465              -0.000068286               0.000342463               0.000274177               0.000000000               0.000000000               0.000000000               0.000000000               0.000120788               0.001034437              -0.000013145              -0.000084009               0.000372812               0.000288803               0.000000000               0.000000000               0.000000000               0.000000000               0.000104947               0.001109143              -0.000005766              -0.000099288               0.000402807               0.000303519               0.000000000               0.000000000               0.000000000               0.000000000               0.000090484               0.001141154               0.000000425              -0.000108712               0.000416618               0.000307906               0.000000000               0.000000000               0.000000000               0.000000000               0.000026231               0.000086719              -0.000007717              -0.000001003               0.000029240               0.000028237               0.000000000               0.000000000               0.000000000               0.000000000               0.000037890               0.000129076              -0.000000362              -0.000001926               0.000043667               0.000041741               0.000000000               0.000000000               0.000000000               0.000000000               0.000073103               0.000209754               0.000003861               0.000001195               0.000069519               0.000070714               0.000000000               0.000000000               0.000000000               0.000000000               0.000095969               0.000274227               0.000002109               0.000001710               0.000090838               0.000092548               0.000000000               0.000000000               0.000000000               0.000000000               0.000113444               0.000340891              -0.000000146              -0.000000070               0.000113653               0.000113583               0.000000000               0.000000000               0.000000000               0.000000000               0.000138610               0.000412792               0.000000601               0.000000380               0.000137469               0.000137849               0.000000000               0.000000000               0.000000000               0.000000000               0.000158509               0.000481134              -0.000001327              -0.000000701               0.000160610               0.000159909               0.000000000               0.000000000               0.000000000               0.000000000               0.000175235               0.000545274              -0.000005466              -0.000002446               0.000182571               0.000180126               0.000000000               0.000000000               0.000000000               0.000000000               0.000191164               0.000610642              -0.000009291              -0.000004644               0.000205093               0.000200450               0.000000000               0.000000000               0.000000000               0.000000000               0.000202016               0.000676623              -0.000014184              -0.000008822               0.000228479               0.000219657               0.000000000               0.000000000               0.000000000               0.000000000               0.000206820               0.000744980              -0.000018755              -0.000015565               0.000253513               0.000237948               0.000000000               0.000000000               0.000000000               0.000000000               0.000206365               0.000816488              -0.000021732              -0.000024674               0.000280384               0.000255710               0.000000000               0.000000000               0.000000000               0.000000000               0.000201668               0.000890249              -0.000022306              -0.000035656               0.000308632               0.000272976               0.000000000               0.000000000               0.000000000               0.000000000               0.000193771               0.000964081              -0.000019934              -0.000047846               0.000337306               0.000289460               0.000000000               0.000000000               0.000000000               0.000000000               0.000184416               0.001038524              -0.000014543              -0.000060659               0.000366391               0.000305732               0.000000000               0.000000000               0.000000000               0.000000000               0.000173269               0.001112098              -0.000007450              -0.000074036               0.000395374               0.000321338               0.000000000               0.000000000               0.000000000               0.000000000               0.000158598               0.001140317              -0.000000461              -0.000083065               0.000407790               0.000324725               0.000000000               0.000000000               0.000000000               0.000000000               0.000026199               0.000084296              -0.000010541              -0.000000712               0.000028336               0.000027624               0.000000000               0.000000000               0.000000000               0.000000000               0.000040647               0.000138539              -0.000003585              -0.000002075               0.000046871               0.000044796               0.000000000               0.000000000               0.000000000               0.000000000               0.000075660               0.000227148               0.000003107              -0.000000021               0.000075722               0.000075701               0.000000000               0.000000000               0.000000000               0.000000000               0.000102741               0.000292876               0.000003633               0.000001919               0.000096985               0.000098903               0.000000000               0.000000000               0.000000000               0.000000000               0.000119778               0.000355958              -0.000000202               0.000000422               0.000118511               0.000118933               0.000000000               0.000000000               0.000000000               0.000000000               0.000142213               0.000424088              -0.000000194               0.000000319               0.000141255               0.000141574               0.000000000               0.000000000               0.000000000               0.000000000               0.000165745               0.000495854               0.000000783               0.000000173               0.000165226               0.000165398               0.000000000               0.000000000               0.000000000               0.000000000               0.000183828               0.000561293              -0.000001748              -0.000001226               0.000187504               0.000186278               0.000000000               0.000000000               0.000000000               0.000000000               0.000201581               0.000626376              -0.000004325              -0.000002704               0.000209691               0.000206987               0.000000000               0.000000000               0.000000000               0.000000000               0.000218061               0.000692329              -0.000006806              -0.000004768               0.000232363               0.000227595               0.000000000               0.000000000               0.000000000               0.000000000               0.000230324               0.000758561              -0.000010168              -0.000008448               0.000255667               0.000247219               0.000000000               0.000000000               0.000000000               0.000000000               0.000238337               0.000826541              -0.000013112              -0.000013941               0.000280158               0.000266217               0.000000000               0.000000000               0.000000000               0.000000000               0.000242912               0.000897304              -0.000014906              -0.000021071               0.000306122               0.000285051               0.000000000               0.000000000               0.000000000               0.000000000               0.000244180               0.000968662              -0.000014922              -0.000029515               0.000332722               0.000303207               0.000000000               0.000000000               0.000000000               0.000000000               0.000243560               0.001041263              -0.000012658              -0.000038823               0.000360025               0.000321202               0.000000000               0.000000000               0.000000000               0.000000000               0.000241018               0.001113391              -0.000007617              -0.000048792               0.000387391               0.000338599               0.000000000               0.000000000               0.000000000               0.000000000               0.000232094               0.001143125              -0.000002170              -0.000055855               0.000399656               0.000343801               0.000000000               0.000000000               0.000000000               0.000000000               0.000027384               0.000079699              -0.000011833               0.000000307               0.000026464               0.000026770               0.000000000               0.000000000               0.000000000               0.000000000               0.000043062               0.000143705              -0.000006976              -0.000001815               0.000048506               0.000046691               0.000000000               0.000000000               0.000000000               0.000000000               0.000076923               0.000239668               0.000001318              -0.000001112               0.000080259               0.000079147               0.000000000               0.000000000               0.000000000               0.000000000               0.000106517               0.000309634               0.000004275               0.000001239               0.000102797               0.000104037               0.000000000               0.000000000               0.000000000               0.000000000               0.000125160               0.000370870               0.000001012               0.000000576               0.000123430               0.000124006               0.000000000               0.000000000               0.000000000               0.000000000               0.000144536               0.000433498              -0.000001002               0.000000014               0.000144493               0.000144507               0.000000000               0.000000000               0.000000000               0.000000000               0.000168942               0.000505276               0.000000807               0.000000194               0.000168359               0.000168553               0.000000000               0.000000000               0.000000000               0.000000000               0.000190572               0.000574880               0.000000733              -0.000000395               0.000191757               0.000191361               0.000000000               0.000000000               0.000000000               0.000000000               0.000209184               0.000638986              -0.000001172              -0.000001429               0.000213470               0.000212040               0.000000000               0.000000000               0.000000000               0.000000000               0.000228649               0.000704725              -0.000002137              -0.000002347               0.000235688               0.000233341               0.000000000               0.000000000               0.000000000               0.000000000               0.000246915               0.000771146              -0.000003573              -0.000003800               0.000258313               0.000254513               0.000000000               0.000000000               0.000000000               0.000000000               0.000261960               0.000836770              -0.000005329              -0.000006361               0.000281041               0.000274680               0.000000000               0.000000000               0.000000000               0.000000000               0.000274663               0.000905041              -0.000006854              -0.000010132               0.000305054               0.000294923               0.000000000               0.000000000               0.000000000               0.000000000               0.000284905               0.000974265              -0.000007535              -0.000014944               0.000329733               0.000314789               0.000000000               0.000000000               0.000000000               0.000000000               0.000293427               0.001044689              -0.000007127              -0.000020551               0.000355077               0.000334526               0.000000000               0.000000000               0.000000000               0.000000000               0.000300933               0.001115132              -0.000004688              -0.000026542               0.000380554               0.000354012               0.000000000               0.000000000               0.000000000               0.000000000               0.000300933               0.001147381              -0.000001808              -0.000030573               0.000392648               0.000362075               0.000000000               0.000000000               0.000000000               0.000000000               0.000028037               0.000077796              -0.000010422               0.000000789               0.000025669               0.000026458               0.000000000               0.000000000               0.000000000               0.000000000               0.000045267               0.000144453              -0.000008973              -0.000001081               0.000048511               0.000047430               0.000000000               0.000000000               0.000000000               0.000000000               0.000077762               0.000246471              -0.000000901              -0.000001648               0.000082705               0.000081057               0.000000000               0.000000000               0.000000000               0.000000000               0.000108251               0.000322295               0.000004044               0.000000307               0.000107328               0.000107635               0.000000000               0.000000000               0.000000000               0.000000000               0.000129803               0.000384323               0.000001648               0.000000636               0.000127895               0.000128530               0.000000000               0.000000000               0.000000000               0.000000000               0.000148545               0.000443332              -0.000001413               0.000000288               0.000147680               0.000147968               0.000000000               0.000000000               0.000000000               0.000000000               0.000171457               0.000510220              -0.000000588               0.000000519               0.000169899               0.000170418               0.000000000               0.000000000               0.000000000               0.000000000               0.000195924               0.000583236               0.000000899               0.000000567               0.000194221               0.000194788               0.000000000               0.000000000               0.000000000               0.000000000               0.000216462               0.000648944               0.000000195               0.000000055               0.000216294               0.000216349               0.000000000               0.000000000               0.000000000               0.000000000               0.000236342               0.000713255              -0.000000290              -0.000000529               0.000237925               0.000237397               0.000000000               0.000000000               0.000000000               0.000000000               0.000257534               0.000780758              -0.000000301              -0.000001019               0.000260590               0.000259570               0.000000000               0.000000000               0.000000000               0.000000000               0.000277316               0.000846100              -0.000000746              -0.000001769               0.000282620               0.000280851               0.000000000               0.000000000               0.000000000               0.000000000               0.000295833               0.000912012              -0.000001334              -0.000003064               0.000305022               0.000301958               0.000000000               0.000000000               0.000000000               0.000000000               0.000313102               0.000979399              -0.000001676              -0.000005012               0.000328134               0.000323122               0.000000000               0.000000000               0.000000000               0.000000000               0.000329150               0.001047474              -0.000001789              -0.000007503               0.000351656               0.000344153               0.000000000               0.000000000               0.000000000               0.000000000               0.000344595               0.001116121              -0.000001228              -0.000010292               0.000375467               0.000365175               0.000000000               0.000000000               0.000000000               0.000000000               0.000350992               0.001149900              -0.000000324              -0.000012115               0.000387335               0.000375219               0.000000000               0.000000000               0.000000000               0.000000000               0.000028521               0.000075766              -0.000006157               0.000001225               0.000024847               0.000026072               0.000000000               0.000000000               0.000000000               0.000000000               0.000048434               0.000140403              -0.000006950               0.000000613               0.000046596               0.000047209               0.000000000               0.000000000               0.000000000               0.000000000               0.000079812               0.000247268              -0.000001422              -0.000000979               0.000082748               0.000081769               0.000000000               0.000000000               0.000000000               0.000000000               0.000109138               0.000331156               0.000003700              -0.000000468               0.000110540               0.000110072               0.000000000               0.000000000               0.000000000               0.000000000               0.000132438               0.000395072               0.000002372               0.000000280               0.000131596               0.000131876               0.000000000               0.000000000               0.000000000               0.000000000               0.000150697               0.000451293              -0.000000372               0.000000100               0.000150396               0.000150496               0.000000000               0.000000000               0.000000000               0.000000000               0.000171609               0.000512611              -0.000000674               0.000000277               0.000170776               0.000171053               0.000000000               0.000000000               0.000000000               0.000000000               0.000196587               0.000585891               0.000000604               0.000000484               0.000195134               0.000195617               0.000000000               0.000000000               0.000000000               0.000000000               0.000219269               0.000654845               0.000000779               0.000000370               0.000218156               0.000218526               0.000000000               0.000000000               0.000000000               0.000000000               0.000239687               0.000718329               0.000000268               0.000000091               0.000239410               0.000239502               0.000000000               0.000000000               0.000000000               0.000000000               0.000261913               0.000785822               0.000000468              -0.000000010               0.000261942               0.000261931               0.000000000               0.000000000               0.000000000               0.000000000               0.000284233               0.000852463               0.000000601               0.000000030               0.000284141               0.000284171               0.000000000               0.000000000               0.000000000               0.000000000               0.000305795               0.000917072               0.000000528               0.000000039               0.000305675               0.000305714               0.000000000               0.000000000               0.000000000               0.000000000               0.000327171               0.000983065               0.000000540              -0.000000194               0.000327750               0.000327556               0.000000000               0.000000000               0.000000000               0.000000000               0.000347803               0.001049751               0.000000419              -0.000000793               0.000350178               0.000349385               0.000000000               0.000000000               0.000000000               0.000000000               0.000367730               0.001117002               0.000000219              -0.000001727               0.000372906               0.000371179               0.000000000               0.000000000               0.000000000               0.000000000               0.000377129               0.001151102               0.000000297              -0.000002464               0.000384518               0.000382054               0.000000000               0.000000000               0.000000000               0.000000000               0.000026686               0.000073605              -0.000003682               0.000000807               0.000024266               0.000025072               0.000000000               0.000000000               0.000000000               0.000000000               0.000049088               0.000137289              -0.000004667               0.000001247               0.000045347               0.000046594               0.000000000               0.000000000               0.000000000               0.000000000               0.000080566               0.000247735              -0.000002055              -0.000000755               0.000082829               0.000082074               0.000000000               0.000000000               0.000000000               0.000000000               0.000109559               0.000336283               0.000001241              -0.000000951               0.000112410               0.000111459               0.000000000               0.000000000               0.000000000               0.000000000               0.000133479               0.000400876               0.000001300              -0.000000055               0.000133642               0.000133588               0.000000000               0.000000000               0.000000000               0.000000000               0.000152417               0.000457019              -0.000000119               0.000000029               0.000152329               0.000152357               0.000000000               0.000000000               0.000000000               0.000000000               0.000171560               0.000515693              -0.000000702              -0.000000126               0.000171938               0.000171812               0.000000000               0.000000000               0.000000000               0.000000000               0.000195655               0.000587308              -0.000000027              -0.000000043               0.000195782               0.000195739               0.000000000               0.000000000               0.000000000               0.000000000               0.000219716               0.000658015               0.000000334               0.000000141               0.000219289               0.000219430               0.000000000               0.000000000               0.000000000               0.000000000               0.000240783               0.000720641               0.000000093               0.000000214               0.000240140               0.000240354               0.000000000               0.000000000               0.000000000               0.000000000               0.000262823               0.000786661               0.000000281               0.000000226               0.000262142               0.000262368               0.000000000               0.000000000               0.000000000               0.000000000               0.000285712               0.000854816               0.000000564               0.000000290               0.000284839               0.000285129               0.000000000               0.000000000               0.000000000               0.000000000               0.000307814               0.000920079               0.000000609               0.000000420               0.000306550               0.000306970               0.000000000               0.000000000               0.000000000               0.000000000               0.000330274               0.000985952               0.000000627               0.000000609               0.000328444               0.000329053               0.000000000               0.000000000               0.000000000               0.000000000               0.000352793               0.001052298               0.000000544               0.000000760               0.000350509               0.000351269               0.000000000               0.000000000               0.000000000               0.000000000               0.000374884               0.001118458               0.000000278               0.000000774               0.000372558               0.000373332               0.000000000               0.000000000               0.000000000               0.000000000               0.000385867               0.001152169               0.000000175               0.000000679               0.000383826               0.000384505               0.000000000               0.000000000               0.000000000               0.000000000               0.000024682               0.000073131              -0.000000000               0.000000114               0.000024339               0.000024453               0.000000000               0.000000000               0.000000000               0.000000000               0.000048143               0.000136636               0.000000000               0.000000974               0.000045220               0.000046194               0.000000000               0.000000000               0.000000000               0.000000000               0.000079988               0.000247631               0.000000000              -0.000000959               0.000082862               0.000081904               0.000000000               0.000000000               0.000000000               0.000000000               0.000109923               0.000337313               0.000000000              -0.000000943               0.000112751               0.000111808               0.000000000               0.000000000               0.000000000               0.000000000               0.000134206               0.000402641              -0.000000000              -0.000000003               0.000134213               0.000134210               0.000000000               0.000000000               0.000000000               0.000000000               0.000153914               0.000459773              -0.000000000               0.000000246               0.000153174               0.000153420               0.000000000               0.000000000               0.000000000               0.000000000               0.000172067               0.000517677              -0.000000000              -0.000000184               0.000172619               0.000172434               0.000000000               0.000000000               0.000000000               0.000000000               0.000195407               0.000587784               0.000000000              -0.000000195               0.000195991               0.000195796               0.000000000               0.000000000               0.000000000               0.000000000               0.000219761               0.000658256               0.000000000               0.000000128               0.000219374               0.000219502               0.000000000               0.000000000               0.000000000               0.000000000               0.000240996               0.000720375               0.000000000               0.000000327               0.000240014               0.000240341               0.000000000               0.000000000               0.000000000               0.000000000               0.000262776               0.000785965              -0.000000000               0.000000296               0.000261887               0.000262183               0.000000000               0.000000000               0.000000000               0.000000000               0.000285678               0.000855235               0.000000000               0.000000225               0.000285001               0.000285225               0.000000000               0.000000000               0.000000000               0.000000000               0.000307784               0.000921529               0.000000000               0.000000228               0.000307097               0.000307325               0.000000000               0.000000000               0.000000000               0.000000000               0.000330291               0.000987796               0.000000000               0.000000384               0.000329134               0.000329518               0.000000000               0.000000000               0.000000000               0.000000000               0.000353303               0.001054088               0.000000000               0.000000728               0.000351117               0.000351844               0.000000000               0.000000000               0.000000000               0.000000000               0.000376188               0.001119523               0.000000000               0.000001130               0.000372794               0.000373924               0.000000000               0.000000000               0.000000000               0.000000000               0.000387893               0.001152817               0.000000000               0.000001358               0.000383816               0.000385174               0.000000000               0.000000000               0.000000000               0.000000000               0.000000000               0.000000000               0.000000000               0.000000000               0.000000000               0.000000000               0.000000000               0.000000000               0.000000000               0.000000000               0.000000000               0.000000000               0.000000000               0.000000000               0.000000000               0.000000000               0.000000000               0.000000000               0.000000000               0.000000000               0.000000000               0.000000000               0.000000000               0.000000000               0.000000000               0.000000000               0.000000000               0.000000000               0.000000000               0.000000000               0.000000000               0.000000000               0.000000000               0.000000000               0.000000000               0.000000000               0.000000000               0.000000000               0.000000000               0.000000000               0.000000000               0.000000000               0.000000000               0.000000000               0.000000000               0.000000000               0.000000000               0.000000000               0.000000000               0.000000000               0.000000000               0.000000000               0.000000000               0.000000000               0.000000000               0.000000000               0.000000000               0.000000000               0.000000000               0.000000000               0.000000000               0.000000000               0.000000000               0.000000000               0.000000000               0.000000000               0.000000000               0.000000000               0.000000000               0.000000000               0.000000000               0.000000000               0.000000000               0.000000000               0.000000000               0.000000000               0.000000000               0.000000000               0.000000000               0.000000000               0.000000000               0.000000000               0.000000000               0.000000000               0.000000000               0.000000000               0.000000000               0.000000000               0.000000000               0.000000000               0.000000000               0.000000000               0.000000000               0.000000000               0.000000000               0.000000000               0.000000000               0.000000000               0.000000000               0.000000000               0.000000000               0.000000000               0.000000000               0.000000000               0.000000000               0.000000000               0.000000000               0.000000000               0.000000000               0.000000000               0.000000000               0.000000000               0.000000000               0.000000000               0.000000000               0.000000000               0.000000000               0.000000000               0.000000000               0.000000000               0.000000000               0.000000000               0.000000000               0.000000000               0.000000000               0.000000000               0.000000000               0.000000000               0.000000000               0.000000000               0.000000000               0.000000000               0.000000000               0.000000000               0.000000000               0.000000000               0.000000000               0.000000000               0.000000000               0.000000000               0.000000000               0.000000000               0.000000000               0.000000000               0.000000000               0.000000000               0.000000000               0.000000000               0.000000000               0.000000000               0.000000000               0.000000000               0.000000000               0.000000000               0.000000000               0.000000000               0.000000000               0.000000000               0.000000000               0.000000000               0.000000000               0.000000000               0.000000000               0.000000000               0.000000000               0.000000000               0.000000000               0.000000000               0.000000000               0.000000000               0.000001131               0.000010919               0.000000989              -0.000000941               0.000003953               0.000003012               0.000000000               0.000000000               0.000000000               0.000000000               0.000000656               0.000006175              -0.000000073              -0.000000526               0.000002234               0.000001708               0.000000000               0.000000000               0.000000000               0.000000000               0.000000476               0.000001612               0.000000401              -0.000000023               0.000000545               0.000000522               0.000000000               0.000000000               0.000000000               0.000000000              -0.000000695              -0.000001816               0.000002052              -0.000000033              -0.000000594              -0.000000628               0.000000000               0.000000000               0.000000000               0.000000000              -0.000002555              -0.000005700               0.000003211              -0.000000246              -0.000001818              -0.000002064               0.000000000               0.000000000               0.000000000               0.000000000              -0.000003704              -0.000009024               0.000004798              -0.000000261              -0.000002921              -0.000003182               0.000000000               0.000000000               0.000000000               0.000000000              -0.000003907              -0.000011470               0.000006473              -0.000000031              -0.000003813              -0.000003844               0.000000000               0.000000000               0.000000000               0.000000000              -0.000004230              -0.000012584               0.000007175              -0.000000013              -0.000004190              -0.000004203               0.000000000               0.000000000               0.000000000               0.000000000              -0.000004711              -0.000011936               0.000006964              -0.000000274              -0.000003887              -0.000004162               0.000000000               0.000000000               0.000000000               0.000000000              -0.000004962              -0.000010045               0.000005911              -0.000000605              -0.000003147              -0.000003752               0.000000000               0.000000000               0.000000000               0.000000000              -0.000004546              -0.000007932               0.000004576              -0.000000713              -0.000002406              -0.000003120               0.000000000               0.000000000               0.000000000               0.000000000              -0.000003004              -0.000006469               0.000003375              -0.000000318              -0.000002050              -0.000002368               0.000000000               0.000000000               0.000000000               0.000000000              -0.000000479              -0.000006084               0.000002620               0.000000581              -0.000002222              -0.000001641               0.000000000               0.000000000               0.000000000               0.000000000               0.000002219              -0.000006269               0.000002278               0.000001616              -0.000002628              -0.000001013               0.000000000               0.000000000               0.000000000               0.000000000               0.000003817              -0.000005792               0.000001954               0.000002155              -0.000002649              -0.000000494               0.000000000               0.000000000               0.000000000               0.000000000               0.000002973              -0.000003282               0.000001089               0.000001525              -0.000001602              -0.000000077               0.000000000               0.000000000               0.000000000               0.000000000               0.000002753               0.000000390               0.000001366               0.000000983              -0.000000198               0.000000786               0.000000000               0.000000000               0.000000000               0.000000000              -0.000004089              -0.000015692               0.000004325               0.000000428              -0.000005373              -0.000004945               0.000000000               0.000000000               0.000000000               0.000000000              -0.000005062              -0.000013759               0.000002470              -0.000000178              -0.000004527              -0.000004705               0.000000000               0.000000000               0.000000000               0.000000000              -0.000007100              -0.000020726              -0.000000039              -0.000000072              -0.000006885              -0.000006957               0.000000000               0.000000000               0.000000000               0.000000000              -0.000006692              -0.000020436               0.000000595               0.000000045              -0.000006827              -0.000006782               0.000000000               0.000000000               0.000000000               0.000000000              -0.000007528              -0.000018109               0.000001225              -0.000000559              -0.000005850              -0.000006409               0.000000000               0.000000000               0.000000000               0.000000000              -0.000006909              -0.000012799               0.000001039              -0.000000991              -0.000003936              -0.000004927               0.000000000               0.000000000               0.000000000               0.000000000              -0.000004466              -0.000003116               0.000001040              -0.000001285              -0.000000610              -0.000001895               0.000000000               0.000000000               0.000000000               0.000000000              -0.000001062               0.000009156               0.000000266              -0.000001543               0.000003566               0.000002023               0.000000000               0.000000000               0.000000000               0.000000000               0.000003057               0.000022373              -0.000000822              -0.000001650               0.000008008               0.000006358               0.000000000               0.000000000               0.000000000               0.000000000               0.000008492               0.000033932              -0.000001750              -0.000001057               0.000011663               0.000010606               0.000000000               0.000000000               0.000000000               0.000000000               0.000015718               0.000042875              -0.000002179               0.000000535               0.000014113               0.000014648               0.000000000               0.000000000               0.000000000               0.000000000               0.000023494               0.000049779              -0.000001823               0.000002588               0.000015730               0.000018318               0.000000000               0.000000000               0.000000000               0.000000000               0.000029496               0.000056894              -0.000000895               0.000003949               0.000017648               0.000021597               0.000000000               0.000000000               0.000000000               0.000000000               0.000031033               0.000066984              -0.000000020               0.000003264               0.000021240               0.000024504               0.000000000               0.000000000               0.000000000               0.000000000               0.000026273               0.000082044               0.000000224              -0.000000403               0.000027482               0.000027079               0.000000000               0.000000000               0.000000000               0.000000000               0.000014904               0.000102781              -0.000000211              -0.000007258               0.000036679               0.000029421               0.000000000               0.000000000               0.000000000               0.000000000               0.000011361               0.000121586               0.000001697              -0.000010938               0.000044174               0.000033236               0.000000000               0.000000000               0.000000000               0.000000000              -0.000004960              -0.000025217              -0.000003018               0.000001292              -0.000008836              -0.000007544               0.000000000               0.000000000               0.000000000               0.000000000              -0.000005223              -0.000019834               0.000000123               0.000000521              -0.000006785              -0.000006264               0.000000000               0.000000000               0.000000000               0.000000000              -0.000007891              -0.000019595               0.000000292              -0.000000510              -0.000006362              -0.000006872               0.000000000               0.000000000               0.000000000               0.000000000              -0.000004664              -0.000011058              -0.000000029              -0.000000367              -0.000003564              -0.000003931               0.000000000               0.000000000               0.000000000               0.000000000               0.000000669               0.000002084               0.000000288              -0.000000010               0.000000698               0.000000688               0.000000000               0.000000000               0.000000000               0.000000000               0.000005894               0.000019818              -0.000001117              -0.000000267               0.000006695               0.000006428               0.000000000               0.000000000               0.000000000               0.000000000               0.000012365               0.000040975              -0.000002593              -0.000000485               0.000013820               0.000013335               0.000000000               0.000000000               0.000000000               0.000000000               0.000019560               0.000063627              -0.000004015              -0.000000618               0.000021415               0.000020797               0.000000000               0.000000000               0.000000000               0.000000000               0.000027138               0.000084513              -0.000004715              -0.000000387               0.000028300               0.000027912               0.000000000               0.000000000               0.000000000               0.000000000               0.000036265               0.000102586              -0.000003909               0.000000776               0.000033936               0.000034712               0.000000000               0.000000000               0.000000000               0.000000000               0.000045653               0.000118444              -0.000001496               0.000002314               0.000038710               0.000041024               0.000000000               0.000000000               0.000000000               0.000000000               0.000052601               0.000134346               0.000001932               0.000002932               0.000043804               0.000046736               0.000000000               0.000000000               0.000000000               0.000000000               0.000054632               0.000153623               0.000005184               0.000001284               0.000050779               0.000052063               0.000000000               0.000000000               0.000000000               0.000000000               0.000050081               0.000178428               0.000007137              -0.000003523               0.000060650               0.000057127               0.000000000               0.000000000               0.000000000               0.000000000               0.000038655               0.000209623               0.000007075              -0.000011707               0.000073776               0.000062069               0.000000000               0.000000000               0.000000000               0.000000000               0.000020924               0.000247243               0.000004472              -0.000023059               0.000090100               0.000067041               0.000000000               0.000000000               0.000000000               0.000000000               0.000016849               0.000278736               0.000006027              -0.000028524               0.000102419               0.000073895               0.000000000               0.000000000               0.000000000               0.000000000              -0.000009303              -0.000020839              -0.000009096              -0.000000884              -0.000006652              -0.000007536               0.000000000               0.000000000               0.000000000               0.000000000              -0.000003486              -0.000009976              -0.000000909              -0.000000060              -0.000003305              -0.000003366               0.000000000               0.000000000               0.000000000               0.000000000              -0.000001425               0.000002288               0.000000826              -0.000000820               0.000001036               0.000000216               0.000000000               0.000000000               0.000000000               0.000000000               0.000005526               0.000023905              -0.000001091              -0.000000916               0.000008273               0.000007358               0.000000000               0.000000000               0.000000000               0.000000000               0.000017590               0.000052976              -0.000000586              -0.000000026               0.000017667               0.000017642               0.000000000               0.000000000               0.000000000               0.000000000               0.000028529               0.000083858              -0.000001833               0.000000216               0.000027880               0.000028096               0.000000000               0.000000000               0.000000000               0.000000000               0.000038949               0.000115440              -0.000002789               0.000000176               0.000038421               0.000038597               0.000000000               0.000000000               0.000000000               0.000000000               0.000050219               0.000145908              -0.000002629               0.000000594               0.000048438               0.000049031               0.000000000               0.000000000               0.000000000               0.000000000               0.000061739               0.000172751              -0.000000571               0.000001558               0.000057064               0.000058622               0.000000000               0.000000000               0.000000000               0.000000000               0.000072271               0.000197077               0.000003723               0.000002467               0.000064869               0.000067336               0.000000000               0.000000000               0.000000000               0.000000000               0.000079622               0.000221634               0.000009547               0.000002154               0.000073159               0.000075313               0.000000000               0.000000000               0.000000000               0.000000000               0.000081196               0.000250124               0.000015247              -0.000000817               0.000083646               0.000082829               0.000000000               0.000000000               0.000000000               0.000000000               0.000075546               0.000284194               0.000019168              -0.000007194               0.000097128               0.000089934               0.000000000               0.000000000               0.000000000               0.000000000               0.000063050               0.000323699               0.000020238              -0.000016819               0.000113505               0.000096686               0.000000000               0.000000000               0.000000000               0.000000000               0.000045002               0.000367309               0.000017628              -0.000029038               0.000132114               0.000103077               0.000000000               0.000000000               0.000000000               0.000000000               0.000023218               0.000413137               0.000010691              -0.000042935               0.000152023               0.000109087               0.000000000               0.000000000               0.000000000               0.000000000               0.000018356               0.000447185               0.000009920              -0.000049014               0.000165398               0.000116384               0.000000000               0.000000000               0.000000000               0.000000000              -0.000006485              -0.000008164              -0.000008667              -0.000001411              -0.000002251              -0.000003662               0.000000000               0.000000000               0.000000000               0.000000000               0.000005052               0.000006667              -0.000001090               0.000001061               0.000001868               0.000002930               0.000000000               0.000000000               0.000000000               0.000000000               0.000012378               0.000032724               0.000001067               0.000000551               0.000010724               0.000011275               0.000000000               0.000000000               0.000000000               0.000000000               0.000021509               0.000069180              -0.000001254              -0.000000582               0.000023254               0.000022672               0.000000000               0.000000000               0.000000000               0.000000000               0.000038415               0.000112172              -0.000001444               0.000000384               0.000037262               0.000037646               0.000000000               0.000000000               0.000000000               0.000000000               0.000053347               0.000154943              -0.000002000               0.000000637               0.000051435               0.000052072               0.000000000               0.000000000               0.000000000               0.000000000               0.000066181               0.000196755              -0.000001640               0.000000223               0.000065510               0.000065733               0.000000000               0.000000000               0.000000000               0.000000000               0.000079876               0.000234485               0.000000994               0.000000643               0.000077947               0.000078589               0.000000000               0.000000000               0.000000000               0.000000000               0.000092496               0.000268993               0.000006325               0.000001062               0.000089309               0.000090371               0.000000000               0.000000000               0.000000000               0.000000000               0.000101499               0.000302777               0.000013825               0.000000215               0.000100853               0.000101068               0.000000000               0.000000000               0.000000000               0.000000000               0.000104327               0.000339891               0.000021484              -0.000003364               0.000114417               0.000111053               0.000000000               0.000000000               0.000000000               0.000000000               0.000099323               0.000382340               0.000027242              -0.000010546               0.000130961               0.000120415               0.000000000               0.000000000               0.000000000               0.000000000               0.000086683               0.000429447               0.000029824              -0.000021175               0.000150206               0.000129031               0.000000000               0.000000000               0.000000000               0.000000000               0.000068253               0.000479393               0.000028408              -0.000034329               0.000171239               0.000136910               0.000000000               0.000000000               0.000000000               0.000000000               0.000046393               0.000529375               0.000022730              -0.000048774               0.000192715               0.000143940               0.000000000               0.000000000               0.000000000               0.000000000               0.000023181               0.000576475               0.000012962              -0.000063366               0.000213278               0.000149912               0.000000000               0.000000000               0.000000000               0.000000000               0.000017708               0.000608608               0.000010727              -0.000069435               0.000226013               0.000156577               0.000000000               0.000000000               0.000000000               0.000000000              -0.000002028               0.000012652              -0.000007865              -0.000002342               0.000004998               0.000002656               0.000000000               0.000000000               0.000000000               0.000000000               0.000012636               0.000030047              -0.000003070               0.000000983               0.000009688               0.000010671               0.000000000               0.000000000               0.000000000               0.000000000               0.000027997               0.000073476               0.000000852               0.000001314               0.000024054               0.000025368               0.000000000               0.000000000               0.000000000               0.000000000               0.000040241               0.000122604              -0.000001550              -0.000000235               0.000040946               0.000040711               0.000000000               0.000000000               0.000000000               0.000000000               0.000060755               0.000175668              -0.000002233               0.000000824               0.000058281               0.000059105               0.000000000               0.000000000               0.000000000               0.000000000               0.000078761               0.000228119              -0.000001793               0.000001020               0.000075699               0.000076719               0.000000000               0.000000000               0.000000000               0.000000000               0.000093220               0.000276868               0.000000125               0.000000349               0.000092172               0.000092521               0.000000000               0.000000000               0.000000000               0.000000000               0.000107749               0.000322384               0.000005520               0.000000108               0.000107424               0.000107532               0.000000000               0.000000000               0.000000000               0.000000000               0.000118991               0.000366248               0.000013299              -0.000001159               0.000122468               0.000121308               0.000000000               0.000000000               0.000000000               0.000000000               0.000123597               0.000412354               0.000022281              -0.000005195               0.000139182               0.000133987               0.000000000               0.000000000               0.000000000               0.000000000               0.000120275               0.000463511               0.000029665              -0.000012836               0.000158781               0.000145945               0.000000000               0.000000000               0.000000000               0.000000000               0.000108625               0.000519291               0.000033903              -0.000024177               0.000181154               0.000156977               0.000000000               0.000000000               0.000000000               0.000000000               0.000090586               0.000577523               0.000033978              -0.000038220               0.000205246               0.000167025               0.000000000               0.000000000               0.000000000               0.000000000               0.000068965               0.000635360               0.000029995              -0.000053558               0.000229637               0.000176079               0.000000000               0.000000000               0.000000000               0.000000000               0.000045834               0.000689537               0.000022650              -0.000069004               0.000252845               0.000183840               0.000000000               0.000000000               0.000000000               0.000000000               0.000022652               0.000737840               0.000012525              -0.000083735               0.000273856               0.000190121               0.000000000               0.000000000               0.000000000               0.000000000               0.000016716               0.000769128               0.000010152              -0.000089872               0.000286331               0.000196459               0.000000000               0.000000000               0.000000000               0.000000000               0.000002542               0.000034923              -0.000004656              -0.000003412               0.000012778               0.000009366               0.000000000               0.000000000               0.000000000               0.000000000               0.000021174               0.000060558              -0.000004065               0.000000370               0.000020062               0.000020433               0.000000000               0.000000000               0.000000000               0.000000000               0.000044838               0.000120247              -0.000000394               0.000001783               0.000039488               0.000041271               0.000000000               0.000000000               0.000000000               0.000000000               0.000058955               0.000179066              -0.000001208              -0.000000275               0.000059780               0.000059505               0.000000000               0.000000000               0.000000000               0.000000000               0.000082566               0.000242952              -0.000001567               0.000000593               0.000080785               0.000081379               0.000000000               0.000000000               0.000000000               0.000000000               0.000102758               0.000303993               0.000000026               0.000000535               0.000101152               0.000101687               0.000000000               0.000000000               0.000000000               0.000000000               0.000118930               0.000360253               0.000003826              -0.000000433               0.000120227               0.000119795               0.000000000               0.000000000               0.000000000               0.000000000               0.000133403               0.000414264               0.000010699              -0.000001757               0.000138672               0.000136915               0.000000000               0.000000000               0.000000000               0.000000000               0.000142283               0.000469492               0.000019631              -0.000005330               0.000158272               0.000152942               0.000000000               0.000000000               0.000000000               0.000000000               0.000142061               0.000529045               0.000028060              -0.000012858               0.000180633               0.000167775               0.000000000               0.000000000               0.000000000               0.000000000               0.000132979               0.000593943               0.000033741              -0.000024376               0.000206104               0.000181729               0.000000000               0.000000000               0.000000000               0.000000000               0.000116277               0.000661701               0.000035169              -0.000039109               0.000233601               0.000194492               0.000000000               0.000000000               0.000000000               0.000000000               0.000095255               0.000729701               0.000032419              -0.000055492               0.000261728               0.000206237               0.000000000               0.000000000               0.000000000               0.000000000               0.000071581               0.000794514               0.000026373              -0.000072471               0.000288992               0.000216521               0.000000000               0.000000000               0.000000000               0.000000000               0.000047115               0.000854198               0.000018397              -0.000089106               0.000314432               0.000225325               0.000000000               0.000000000               0.000000000               0.000000000               0.000023389               0.000906817               0.000009517              -0.000104581               0.000337130               0.000232549               0.000000000               0.000000000               0.000000000               0.000000000               0.000015458               0.000939464               0.000007858              -0.000111636               0.000350363               0.000238727               0.000000000               0.000000000               0.000000000               0.000000000               0.000013279               0.000056992               0.000000048              -0.000002144               0.000019712               0.000017568               0.000000000               0.000000000               0.000000000               0.000000000               0.000030154               0.000090464              -0.000003859              -0.000000000               0.000030154               0.000030154               0.000000000               0.000000000               0.000000000               0.000000000               0.000059207               0.000159013              -0.000002362               0.000002326               0.000052228               0.000054554               0.000000000               0.000000000               0.000000000               0.000000000               0.000075750               0.000225914              -0.000001457               0.000000167               0.000075248               0.000075415               0.000000000               0.000000000               0.000000000               0.000000000               0.000100176               0.000295860              -0.000002578               0.000000583               0.000098425               0.000099008               0.000000000               0.000000000               0.000000000               0.000000000               0.000121196               0.000362889              -0.000000774               0.000000087               0.000120933               0.000121020               0.000000000               0.000000000               0.000000000               0.000000000               0.000137764               0.000425206               0.000004161              -0.000001489               0.000142230               0.000140741               0.000000000               0.000000000               0.000000000               0.000000000               0.000151954               0.000485961               0.000010634              -0.000003762               0.000163240               0.000159477               0.000000000               0.000000000               0.000000000               0.000000000               0.000159103               0.000550152               0.000018775              -0.000009106               0.000186417               0.000177312               0.000000000               0.000000000               0.000000000               0.000000000               0.000157018               0.000619309               0.000025814              -0.000018532               0.000212612               0.000194080               0.000000000               0.000000000               0.000000000               0.000000000               0.000147236               0.000694240               0.000029940              -0.000031566               0.000241933               0.000210367               0.000000000               0.000000000               0.000000000               0.000000000               0.000131317               0.000771107               0.000030075              -0.000047144               0.000272748               0.000225604               0.000000000               0.000000000               0.000000000               0.000000000               0.000112166               0.000847099               0.000026230              -0.000063825               0.000303639               0.000239813               0.000000000               0.000000000               0.000000000               0.000000000               0.000091039               0.000919707               0.000019592              -0.000080824               0.000333507               0.000252684               0.000000000               0.000000000               0.000000000               0.000000000               0.000069182               0.000987712               0.000011738              -0.000097520               0.000361741               0.000264220               0.000000000               0.000000000               0.000000000               0.000000000               0.000049351               0.001049682               0.000004335              -0.000112703               0.000387458               0.000274755               0.000000000               0.000000000               0.000000000               0.000000000               0.000038265               0.001082097               0.000001334              -0.000120912               0.000400999               0.000280087               0.000000000               0.000000000               0.000000000               0.000000000               0.000023475               0.000076911               0.000004102              -0.000000811               0.000025907               0.000025096               0.000000000               0.000000000               0.000000000               0.000000000               0.000035403               0.000113648              -0.000002307              -0.000000930               0.000038192               0.000037262               0.000000000               0.000000000               0.000000000               0.000000000               0.000068538               0.000187717              -0.000003426               0.000002237               0.000061826               0.000064063               0.000000000               0.000000000               0.000000000               0.000000000               0.000086702               0.000254306              -0.000000659               0.000000725               0.000084526               0.000085251               0.000000000               0.000000000               0.000000000               0.000000000               0.000107851               0.000323650              -0.000000761              -0.000000012               0.000107886               0.000107874               0.000000000               0.000000000               0.000000000               0.000000000               0.000132146               0.000395251              -0.000000203               0.000000149               0.000131699               0.000131848               0.000000000               0.000000000               0.000000000               0.000000000               0.000149513               0.000460817               0.000004097              -0.000001535               0.000154116               0.000152581               0.000000000               0.000000000               0.000000000               0.000000000               0.000165846               0.000525382               0.000009472              -0.000003481               0.000176286               0.000172805               0.000000000               0.000000000               0.000000000               0.000000000               0.000177171               0.000590790               0.000015561              -0.000007410               0.000199398               0.000191988               0.000000000               0.000000000               0.000000000               0.000000000               0.000180566               0.000658601               0.000021878              -0.000014613               0.000224402               0.000209790               0.000000000               0.000000000               0.000000000               0.000000000               0.000176821               0.000731089               0.000026255              -0.000025078               0.000252053               0.000226975               0.000000000               0.000000000               0.000000000               0.000000000               0.000167104               0.000806378               0.000027770              -0.000038133               0.000281501               0.000243368               0.000000000               0.000000000               0.000000000               0.000000000               0.000153330               0.000882744               0.000025714              -0.000052844               0.000311860               0.000259016               0.000000000               0.000000000               0.000000000               0.000000000               0.000137607               0.000959112               0.000020465              -0.000068286               0.000342463               0.000274177               0.000000000               0.000000000               0.000000000               0.000000000               0.000120788               0.001034437               0.000013145              -0.000084009               0.000372812               0.000288803               0.000000000               0.000000000               0.000000000               0.000000000               0.000104947               0.001109143               0.000005766              -0.000099288               0.000402807               0.000303519               0.000000000               0.000000000               0.000000000               0.000000000               0.000090484               0.001141154              -0.000000425              -0.000108712               0.000416618               0.000307906               0.000000000               0.000000000               0.000000000               0.000000000               0.000026231               0.000086719               0.000007717              -0.000001003               0.000029240               0.000028237               0.000000000               0.000000000               0.000000000               0.000000000               0.000037890               0.000129076               0.000000362              -0.000001926               0.000043667               0.000041741               0.000000000               0.000000000               0.000000000               0.000000000               0.000073103               0.000209754              -0.000003861               0.000001195               0.000069519               0.000070714               0.000000000               0.000000000               0.000000000               0.000000000               0.000095969               0.000274227              -0.000002109               0.000001710               0.000090838               0.000092548               0.000000000               0.000000000               0.000000000               0.000000000               0.000113444               0.000340891               0.000000146              -0.000000070               0.000113653               0.000113583               0.000000000               0.000000000               0.000000000               0.000000000               0.000138610               0.000412792              -0.000000601               0.000000380               0.000137469               0.000137849               0.000000000               0.000000000               0.000000000               0.000000000               0.000158509               0.000481134               0.000001327              -0.000000701               0.000160610               0.000159909               0.000000000               0.000000000               0.000000000               0.000000000               0.000175235               0.000545274               0.000005466              -0.000002446               0.000182571               0.000180126               0.000000000               0.000000000               0.000000000               0.000000000               0.000191164               0.000610642               0.000009291              -0.000004644               0.000205093               0.000200450               0.000000000               0.000000000               0.000000000               0.000000000               0.000202016               0.000676623               0.000014184              -0.000008822               0.000228479               0.000219657               0.000000000               0.000000000               0.000000000               0.000000000               0.000206820               0.000744980               0.000018755              -0.000015565               0.000253513               0.000237948               0.000000000               0.000000000               0.000000000               0.000000000               0.000206365               0.000816488               0.000021732              -0.000024674               0.000280384               0.000255710               0.000000000               0.000000000               0.000000000               0.000000000               0.000201668               0.000890249               0.000022306              -0.000035656               0.000308632               0.000272976               0.000000000               0.000000000               0.000000000               0.000000000               0.000193771               0.000964081               0.000019934              -0.000047846               0.000337306               0.000289460               0.000000000               0.000000000               0.000000000               0.000000000               0.000184416               0.001038524               0.000014543              -0.000060659               0.000366391               0.000305732               0.000000000               0.000000000               0.000000000               0.000000000               0.000173269               0.001112098               0.000007450              -0.000074036               0.000395374               0.000321338               0.000000000               0.000000000               0.000000000               0.000000000               0.000158598               0.001140317               0.000000461              -0.000083065               0.000407790               0.000324725               0.000000000               0.000000000               0.000000000               0.000000000               0.000026199               0.000084296               0.000010541              -0.000000712               0.000028336               0.000027624               0.000000000               0.000000000               0.000000000               0.000000000               0.000040647               0.000138539               0.000003585              -0.000002075               0.000046871               0.000044796               0.000000000               0.000000000               0.000000000               0.000000000               0.000075660               0.000227148              -0.000003107              -0.000000021               0.000075722               0.000075701               0.000000000               0.000000000               0.000000000               0.000000000               0.000102741               0.000292876              -0.000003633               0.000001919               0.000096985               0.000098903               0.000000000               0.000000000               0.000000000               0.000000000               0.000119778               0.000355958               0.000000202               0.000000422               0.000118511               0.000118933               0.000000000               0.000000000               0.000000000               0.000000000               0.000142213               0.000424088               0.000000194               0.000000319               0.000141255               0.000141574               0.000000000               0.000000000               0.000000000               0.000000000               0.000165745               0.000495854              -0.000000783               0.000000173               0.000165226               0.000165398               0.000000000               0.000000000               0.000000000               0.000000000               0.000183828               0.000561293               0.000001748              -0.000001226               0.000187504               0.000186278               0.000000000               0.000000000               0.000000000               0.000000000               0.000201581               0.000626376               0.000004325              -0.000002704               0.000209691               0.000206987               0.000000000               0.000000000               0.000000000               0.000000000               0.000218061               0.000692329               0.000006806              -0.000004768               0.000232363               0.000227595               0.000000000               0.000000000               0.000000000               0.000000000               0.000230324               0.000758561               0.000010168              -0.000008448               0.000255667               0.000247219               0.000000000               0.000000000               0.000000000               0.000000000               0.000238337               0.000826541               0.000013112              -0.000013941               0.000280158               0.000266217               0.000000000               0.000000000               0.000000000               0.000000000               0.000242912               0.000897304               0.000014906              -0.000021071               0.000306122               0.000285051               0.000000000               0.000000000               0.000000000               0.000000000               0.000244180               0.000968662               0.000014922              -0.000029515               0.000332722               0.000303207               0.000000000               0.000000000               0.000000000               0.000000000               0.000243560               0.001041263               0.000012658              -0.000038823               0.000360025               0.000321202               0.000000000               0.000000000               0.000000000               0.000000000               0.000241018               0.001113391               0.000007617              -0.000048792               0.000387391               0.000338599               0.000000000               0.000000000               0.000000000               0.000000000               0.000232094               0.001143125               0.000002170              -0.000055855               0.000399656               0.000343801               0.000000000               0.000000000               0.000000000               0.000000000               0.000027384               0.000079699               0.000011833               0.000000307               0.000026464               0.000026770               0.000000000               0.000000000               0.000000000               0.000000000               0.000043062               0.000143705               0.000006976              -0.000001815               0.000048506               0.000046691               0.000000000               0.000000000               0.000000000               0.000000000               0.000076923               0.000239668              -0.000001318              -0.000001112               0.000080259               0.000079147               0.000000000               0.000000000               0.000000000               0.000000000               0.000106517               0.000309634              -0.000004275               0.000001239               0.000102797               0.000104037               0.000000000               0.000000000               0.000000000               0.000000000               0.000125160               0.000370870              -0.000001012               0.000000576               0.000123430               0.000124006               0.000000000               0.000000000               0.000000000               0.000000000               0.000144536               0.000433498               0.000001002               0.000000014               0.000144493               0.000144507               0.000000000               0.000000000               0.000000000               0.000000000               0.000168942               0.000505276              -0.000000807               0.000000194               0.000168359               0.000168553               0.000000000               0.000000000               0.000000000               0.000000000               0.000190572               0.000574880              -0.000000733              -0.000000395               0.000191757               0.000191361               0.000000000               0.000000000               0.000000000               0.000000000               0.000209184               0.000638986               0.000001172              -0.000001429               0.000213470               0.000212040               0.000000000               0.000000000               0.000000000               0.000000000               0.000228649               0.000704725               0.000002137              -0.000002347               0.000235688               0.000233341               0.000000000               0.000000000               0.000000000               0.000000000               0.000246915               0.000771146               0.000003573              -0.000003800               0.000258313               0.000254513               0.000000000               0.000000000               0.000000000               0.000000000               0.000261960               0.000836770               0.000005329              -0.000006361               0.000281041               0.000274680               0.000000000               0.000000000               0.000000000               0.000000000               0.000274663               0.000905041               0.000006854              -0.000010132               0.000305054               0.000294923               0.000000000               0.000000000               0.000000000               0.000000000               0.000284905               0.000974265               0.000007535              -0.000014944               0.000329733               0.000314789               0.000000000               0.000000000               0.000000000               0.000000000               0.000293427               0.001044689               0.000007127              -0.000020551               0.000355077               0.000334526               0.000000000               0.000000000               0.000000000               0.000000000               0.000300933               0.001115132               0.000004688              -0.000026542               0.000380554               0.000354012               0.000000000               0.000000000               0.000000000               0.000000000               0.000300933               0.001147381               0.000001808              -0.000030573               0.000392648               0.000362075               0.000000000               0.000000000               0.000000000               0.000000000               0.000028037               0.000077796               0.000010422               0.000000789               0.000025669               0.000026458               0.000000000               0.000000000               0.000000000               0.000000000               0.000045267               0.000144453               0.000008973              -0.000001081               0.000048511               0.000047430               0.000000000               0.000000000               0.000000000               0.000000000               0.000077762               0.000246471               0.000000901              -0.000001648               0.000082705               0.000081057               0.000000000               0.000000000               0.000000000               0.000000000               0.000108251               0.000322295              -0.000004044               0.000000307               0.000107328               0.000107635               0.000000000               0.000000000               0.000000000               0.000000000               0.000129803               0.000384323              -0.000001648               0.000000636               0.000127895               0.000128530               0.000000000               0.000000000               0.000000000               0.000000000               0.000148545               0.000443332               0.000001413               0.000000288               0.000147680               0.000147968               0.000000000               0.000000000               0.000000000               0.000000000               0.000171457               0.000510220               0.000000588               0.000000519               0.000169899               0.000170418               0.000000000               0.000000000               0.000000000               0.000000000               0.000195924               0.000583236              -0.000000899               0.000000567               0.000194221               0.000194788               0.000000000               0.000000000               0.000000000               0.000000000               0.000216462               0.000648944              -0.000000195               0.000000055               0.000216294               0.000216349               0.000000000               0.000000000               0.000000000               0.000000000               0.000236342               0.000713255               0.000000290              -0.000000529               0.000237925               0.000237397               0.000000000               0.000000000               0.000000000               0.000000000               0.000257534               0.000780758               0.000000301              -0.000001019               0.000260590               0.000259570               0.000000000               0.000000000               0.000000000               0.000000000               0.000277316               0.000846100               0.000000746              -0.000001769               0.000282620               0.000280851               0.000000000               0.000000000               0.000000000               0.000000000               0.000295833               0.000912012               0.000001334              -0.000003064               0.000305022               0.000301958               0.000000000               0.000000000               0.000000000               0.000000000               0.000313102               0.000979399               0.000001676              -0.000005012               0.000328134               0.000323122               0.000000000               0.000000000               0.000000000               0.000000000               0.000329150               0.001047474               0.000001789              -0.000007503               0.000351656               0.000344153               0.000000000               0.000000000               0.000000000               0.000000000               0.000344595               0.001116121               0.000001228              -0.000010292               0.000375467               0.000365175               0.000000000               0.000000000               0.000000000               0.000000000               0.000350992               0.001149900               0.000000324              -0.000012115               0.000387335               0.000375219               0.000000000               0.000000000               0.000000000               0.000000000               0.000028521               0.000075766               0.000006157               0.000001225               0.000024847               0.000026072               0.000000000               0.000000000               0.000000000               0.000000000               0.000048434               0.000140403               0.000006950               0.000000613               0.000046596               0.000047209               0.000000000               0.000000000               0.000000000               0.000000000               0.000079812               0.000247268               0.000001422              -0.000000979               0.000082748               0.000081769               0.000000000               0.000000000               0.000000000               0.000000000               0.000109138               0.000331156              -0.000003700              -0.000000468               0.000110540               0.000110072               0.000000000               0.000000000               0.000000000               0.000000000               0.000132438               0.000395072              -0.000002372               0.000000280               0.000131596               0.000131876               0.000000000               0.000000000               0.000000000               0.000000000               0.000150697               0.000451293               0.000000372               0.000000100               0.000150396               0.000150496               0.000000000               0.000000000               0.000000000               0.000000000               0.000171609               0.000512611               0.000000674               0.000000277               0.000170776               0.000171053               0.000000000               0.000000000               0.000000000               0.000000000               0.000196587               0.000585891              -0.000000604               0.000000484               0.000195134               0.000195617               0.000000000               0.000000000               0.000000000               0.000000000               0.000219269               0.000654845              -0.000000779               0.000000370               0.000218156               0.000218526               0.000000000               0.000000000               0.000000000               0.000000000               0.000239687               0.000718329              -0.000000268               0.000000091               0.000239410               0.000239502               0.000000000               0.000000000               0.000000000               0.000000000               0.000261913               0.000785822              -0.000000468              -0.000000010               0.000261942               0.000261931               0.000000000               0.000000000               0.000000000               0.000000000               0.000284233               0.000852463              -0.000000601               0.000000030               0.000284141               0.000284171               0.000000000               0.000000000               0.000000000               0.000000000               0.000305795               0.000917072              -0.000000528               0.000000039               0.000305675               0.000305714               0.000000000               0.000000000               0.000000000               0.000000000               0.000327171               0.000983065              -0.000000540              -0.000000194               0.000327750               0.000327556               0.000000000               0.000000000               0.000000000               0.000000000               0.000347803               0.001049751              -0.000000419              -0.000000793               0.000350178               0.000349385               0.000000000               0.000000000               0.000000000               0.000000000               0.000367730               0.001117002              -0.000000219              -0.000001727               0.000372906               0.000371179               0.000000000               0.000000000               0.000000000               0.000000000               0.000377129               0.001151102              -0.000000297              -0.000002464               0.000384518               0.000382054               0.000000000               0.000000000               0.000000000               0.000000000               0.000026686               0.000073605               0.000003682               0.000000807               0.000024266               0.000025072               0.000000000               0.000000000               0.000000000               0.000000000               0.000049088               0.000137289               0.000004667               0.000001247               0.000045347               0.000046594               0.000000000               0.000000000               0.000000000               0.000000000               0.000080566               0.000247735               0.000002055              -0.000000755               0.000082829               0.000082074               0.000000000               0.000000000               0.000000000               0.000000000               0.000109559               0.000336283              -0.000001241              -0.000000951               0.000112410               0.000111459               0.000000000               0.000000000               0.000000000               0.000000000               0.000133479               0.000400876              -0.000001300              -0.000000055               0.000133642               0.000133588               0.000000000               0.000000000               0.000000000               0.000000000               0.000152417               0.000457019               0.000000119               0.000000029               0.000152329               0.000152357               0.000000000               0.000000000               0.000000000               0.000000000               0.000171560               0.000515693               0.000000702              -0.000000126               0.000171938               0.000171812               0.000000000               0.000000000               0.000000000               0.000000000               0.000195655               0.000587308               0.000000027              -0.000000043               0.000195782               0.000195739               0.000000000               0.000000000               0.000000000               0.000000000               0.000219716               0.000658015              -0.000000334               0.000000141               0.000219289               0.000219430               0.000000000               0.000000000               0.000000000               0.000000000               0.000240783               0.000720641              -0.000000093               0.000000214               0.000240140               0.000240354               0.000000000               0.000000000               0.000000000               0.000000000               0.000262823               0.000786661              -0.000000281               0.000000226               0.000262142               0.000262368               0.000000000               0.000000000               0.000000000               0.000000000               0.000285712               0.000854816              -0.000000564               0.000000290               0.000284839               0.000285129               0.000000000               0.000000000               0.000000000               0.000000000               0.000307814               0.000920079              -0.000000609               0.000000420               0.000306550               0.000306970               0.000000000               0.000000000               0.000000000               0.000000000               0.000330274               0.000985952              -0.000000627               0.000000609               0.000328444               0.000329053               0.000000000               0.000000000               0.000000000               0.000000000               0.000352793               0.001052298              -0.000000544               0.000000760               0.000350509               0.000351269               0.000000000               0.000000000               0.000000000               0.000000000               0.000374884               0.001118458              -0.000000278               0.000000774               0.000372558               0.000373332               0.000000000               0.000000000               0.000000000               0.000000000               0.000385867               0.001152169              -0.000000175               0.000000679               0.000383826               0.000384505               0.000000000               0.000000000               0.000000000               0.000000000               0.000024682               0.000073131               0.000000000               0.000000114               0.000024339               0.000024453               0.000000000               0.000000000               0.000000000               0.000000000               0.000048143               0.000136636               0.000000000               0.000000974               0.000045220               0.000046194               0.000000000               0.000000000               0.000000000               0.000000000               0.000079988               0.000247631               0.000000000              -0.000000959               0.000082862               0.000081904               0.000000000               0.000000000               0.000000000               0.000000000               0.000109923               0.000337313               0.000000000              -0.000000943               0.000112751               0.000111808               0.000000000               0.000000000               0.000000000               0.000000000               0.000134206               0.000402641               0.000000000              -0.000000003               0.000134213               0.000134210               0.000000000               0.000000000               0.000000000               0.000000000               0.000153914               0.000459773               0.000000000               0.000000246               0.000153174               0.000153420               0.000000000               0.000000000               0.000000000               0.000000000               0.000172067               0.000517677               0.000000000              -0.000000184               0.000172619               0.000172434               0.000000000               0.000000000               0.000000000               0.000000000               0.000195407               0.000587784               0.000000000              -0.000000195               0.000195991               0.000195796               0.000000000               0.000000000               0.000000000               0.000000000               0.000219761               0.000658256               0.000000000               0.000000128               0.000219374               0.000219502               0.000000000               0.000000000               0.000000000               0.000000000               0.000240996               0.000720375               0.000000000               0.000000327               0.000240014               0.000240341               0.000000000               0.000000000               0.000000000               0.000000000               0.000262776               0.000785965               0.000000000               0.000000296               0.000261887               0.000262183               0.000000000               0.000000000               0.000000000               0.000000000               0.000285678               0.000855235               0.000000000               0.000000225               0.000285001               0.000285225               0.000000000               0.000000000               0.000000000               0.000000000               0.000307784               0.000921529               0.000000000               0.000000228               0.000307097               0.000307325               0.000000000               0.000000000               0.000000000               0.000000000               0.000330291               0.000987796              -0.000000000               0.000000384               0.000329134               0.000329518               0.000000000               0.000000000               0.000000000               0.000000000               0.000353303               0.001054088              -0.000000000               0.000000728               0.000351117               0.000351844               0.000000000               0.000000000               0.000000000               0.000000000               0.000376188               0.001119523               0.000000000               0.000001130               0.000372794               0.000373924               0.000000000               0.000000000               0.000000000               0.000000000               0.000387893               0.001152817               0.000000000               0.000001358               0.000383816               0.000385174               0.000000000               0.000000000               0.000000000               0.000000000               0.000008883               0.000027017               0.000000000              -0.000000046               0.000009021               0.000008975               0.000000000               0.000000000               0.000000000               0.000000000               0.000008523               0.000017352               0.000000000               0.000001027               0.000005442               0.000006469               0.000000000               0.000000000               0.000000000               0.000000000               0.000008170               0.000017448              -0.000000000               0.000000883               0.000005522               0.000006404               0.000000000               0.000000000               0.000000000               0.000000000               0.000005312               0.000013033              -0.000000000               0.000000363               0.000004223               0.000004586               0.000000000               0.000000000               0.000000000               0.000000000               0.000005035               0.000006008               0.000000000               0.000001137               0.000001624               0.000002761               0.000000000               0.000000000               0.000000000               0.000000000               0.000003583              -0.000000587               0.000000000               0.000001417              -0.000000668               0.000000749               0.000000000               0.000000000               0.000000000               0.000000000               0.000000534              -0.000009151              -0.000000000               0.000001344              -0.000003499              -0.000002154               0.000000000               0.000000000               0.000000000               0.000000000              -0.000002633              -0.000017436              -0.000000000               0.000001192              -0.000006210              -0.000005017               0.000000000               0.000000000               0.000000000               0.000000000              -0.000005951              -0.000024154              -0.000000000               0.000000788              -0.000008314              -0.000007526               0.000000000               0.000000000               0.000000000               0.000000000              -0.000009904              -0.000027908               0.000000000              -0.000000226              -0.000009228              -0.000009453               0.000000000               0.000000000               0.000000000               0.000000000              -0.000014468              -0.000029243              -0.000000000              -0.000001770              -0.000009158              -0.000010928               0.000000000               0.000000000               0.000000000               0.000000000              -0.000018039              -0.000029779              -0.000000000              -0.000003042              -0.000008912              -0.000011955               0.000000000               0.000000000               0.000000000               0.000000000              -0.000018755              -0.000031367               0.000000000              -0.000003112              -0.000009418              -0.000012531               0.000000000               0.000000000               0.000000000               0.000000000              -0.000015748              -0.000035179               0.000000000              -0.000001508              -0.000011223              -0.000012732               0.000000000               0.000000000               0.000000000               0.000000000              -0.000009931              -0.000040872               0.000000000               0.000001385              -0.000014086              -0.000012701               0.000000000               0.000000000               0.000000000               0.000000000              -0.000004049              -0.000046511               0.000000000               0.000004295              -0.000016935              -0.000012640               0.000000000               0.000000000               0.000000000               0.000000000              -0.000001563              -0.000049104               0.000000000               0.000005552              -0.000018219              -0.000012667               0.000000000               0.000000000               0.000000000               0.000000000               0.000001131               0.000010919              -0.000000989              -0.000000941               0.000003953               0.000003012               0.000000000               0.000000000               0.000000000               0.000000000               0.000000656               0.000006175               0.000000073              -0.000000526               0.000002234               0.000001708               0.000000000               0.000000000               0.000000000               0.000000000               0.000000476               0.000001612              -0.000000401              -0.000000023               0.000000545               0.000000522               0.000000000               0.000000000               0.000000000               0.000000000              -0.000000695              -0.000001816              -0.000002052              -0.000000033              -0.000000594              -0.000000628               0.000000000               0.000000000               0.000000000               0.000000000              -0.000002555              -0.000005700              -0.000003211              -0.000000246              -0.000001818              -0.000002064               0.000000000               0.000000000               0.000000000               0.000000000              -0.000003704              -0.000009024              -0.000004798              -0.000000261              -0.000002921              -0.000003182               0.000000000               0.000000000               0.000000000               0.000000000              -0.000003907              -0.000011470              -0.000006473              -0.000000031              -0.000003813              -0.000003844               0.000000000               0.000000000               0.000000000               0.000000000              -0.000004230              -0.000012584              -0.000007175              -0.000000013              -0.000004190              -0.000004203               0.000000000               0.000000000               0.000000000               0.000000000              -0.000004711              -0.000011936              -0.000006964              -0.000000274              -0.000003887              -0.000004162               0.000000000               0.000000000               0.000000000               0.000000000              -0.000004962              -0.000010045              -0.000005911              -0.000000605              -0.000003147              -0.000003752               0.000000000               0.000000000               0.000000000               0.000000000              -0.000004546              -0.000007932              -0.000004576              -0.000000713              -0.000002406              -0.000003120               0.000000000               0.000000000               0.000000000               0.000000000              -0.000003004              -0.000006469              -0.000003375              -0.000000318              -0.000002050              -0.000002368               0.000000000               0.000000000               0.000000000               0.000000000              -0.000000479              -0.000006084              -0.000002620               0.000000581              -0.000002222              -0.000001641               0.000000000               0.000000000               0.000000000               0.000000000               0.000002219              -0.000006269              -0.000002278               0.000001616              -0.000002628              -0.000001013               0.000000000               0.000000000               0.000000000               0.000000000               0.000003817              -0.000005792              -0.000001954               0.000002155              -0.000002649              -0.000000494               0.000000000               0.000000000               0.000000000               0.000000000               0.000002973              -0.000003282              -0.000001089               0.000001525              -0.000001602              -0.000000077               0.000000000               0.000000000               0.000000000               0.000000000               0.000002753               0.000000390              -0.000001366               0.000000983              -0.000000198               0.000000786               0.000000000               0.000000000               0.000000000               0.000000000              -0.000004089              -0.000015692              -0.000004325               0.000000428              -0.000005373              -0.000004945               0.000000000               0.000000000               0.000000000               0.000000000              -0.000005062              -0.000013759              -0.000002470              -0.000000178              -0.000004527              -0.000004705               0.000000000               0.000000000               0.000000000               0.000000000              -0.000007100              -0.000020726               0.000000039              -0.000000072              -0.000006885              -0.000006957               0.000000000               0.000000000               0.000000000               0.000000000              -0.000006692              -0.000020436              -0.000000595               0.000000045              -0.000006827              -0.000006782               0.000000000               0.000000000               0.000000000               0.000000000              -0.000007528              -0.000018109              -0.000001225              -0.000000559              -0.000005850              -0.000006409               0.000000000               0.000000000               0.000000000               0.000000000              -0.000006909              -0.000012799              -0.000001039              -0.000000991              -0.000003936              -0.000004927               0.000000000               0.000000000               0.000000000               0.000000000              -0.000004466              -0.000003116              -0.000001040              -0.000001285              -0.000000610              -0.000001895               0.000000000               0.000000000               0.000000000               0.000000000              -0.000001062               0.000009156              -0.000000266              -0.000001543               0.000003566               0.000002023               0.000000000               0.000000000               0.000000000               0.000000000               0.000003057               0.000022373               0.000000822              -0.000001650               0.000008008               0.000006358               0.000000000               0.000000000               0.000000000               0.000000000               0.000008492               0.000033932               0.000001750              -0.000001057               0.000011663               0.000010606               0.000000000               0.000000000               0.000000000               0.000000000               0.000015718               0.000042875               0.000002179               0.000000535               0.000014113               0.000014648               0.000000000               0.000000000               0.000000000               0.000000000               0.000023494               0.000049779               0.000001823               0.000002588               0.000015730               0.000018318               0.000000000               0.000000000               0.000000000               0.000000000               0.000029496               0.000056894               0.000000895               0.000003949               0.000017648               0.000021597               0.000000000               0.000000000               0.000000000               0.000000000               0.000031033               0.000066984               0.000000020               0.000003264               0.000021240               0.000024504               0.000000000               0.000000000               0.000000000               0.000000000               0.000026273               0.000082044              -0.000000224              -0.000000403               0.000027482               0.000027079               0.000000000               0.000000000               0.000000000               0.000000000               0.000014904               0.000102781               0.000000211              -0.000007258               0.000036679               0.000029421               0.000000000               0.000000000               0.000000000               0.000000000               0.000011361               0.000121586              -0.000001697              -0.000010938               0.000044174               0.000033236               0.000000000               0.000000000               0.000000000               0.000000000              -0.000004960              -0.000025217               0.000003018               0.000001292              -0.000008836              -0.000007544               0.000000000               0.000000000               0.000000000               0.000000000              -0.000005223              -0.000019834              -0.000000123               0.000000521              -0.000006785              -0.000006264               0.000000000               0.000000000               0.000000000               0.000000000              -0.000007891              -0.000019595              -0.000000292              -0.000000510              -0.000006362              -0.000006872               0.000000000               0.000000000               0.000000000               0.000000000              -0.000004664              -0.000011058               0.000000029              -0.000000367              -0.000003564              -0.000003931               0.000000000               0.000000000               0.000000000               0.000000000               0.000000669               0.000002084              -0.000000288              -0.000000010               0.000000698               0.000000688               0.000000000               0.000000000               0.000000000               0.000000000               0.000005894               0.000019818               0.000001117              -0.000000267               0.000006695               0.000006428               0.000000000               0.000000000               0.000000000               0.000000000               0.000012365               0.000040975               0.000002593              -0.000000485               0.000013820               0.000013335               0.000000000               0.000000000               0.000000000               0.000000000               0.000019560               0.000063627               0.000004015              -0.000000618               0.000021415               0.000020797               0.000000000               0.000000000               0.000000000               0.000000000               0.000027138               0.000084513               0.000004715              -0.000000387               0.000028300               0.000027912               0.000000000               0.000000000               0.000000000               0.000000000               0.000036265               0.000102586               0.000003909               0.000000776               0.000033936               0.000034712               0.000000000               0.000000000               0.000000000               0.000000000               0.000045653               0.000118444               0.000001496               0.000002314               0.000038710               0.000041024               0.000000000               0.000000000               0.000000000               0.000000000               0.000052601               0.000134346              -0.000001932               0.000002932               0.000043804               0.000046736               0.000000000               0.000000000               0.000000000               0.000000000               0.000054632               0.000153623              -0.000005184               0.000001284               0.000050779               0.000052063               0.000000000               0.000000000               0.000000000               0.000000000               0.000050081               0.000178428              -0.000007137              -0.000003523               0.000060650               0.000057127               0.000000000               0.000000000               0.000000000               0.000000000               0.000038655               0.000209623              -0.000007075              -0.000011707               0.000073776               0.000062069               0.000000000               0.000000000               0.000000000               0.000000000               0.000020924               0.000247243              -0.000004472              -0.000023059               0.000090100               0.000067041               0.000000000               0.000000000               0.000000000               0.000000000               0.000016849               0.000278736              -0.000006027              -0.000028524               0.000102419               0.000073895               0.000000000               0.000000000               0.000000000               0.000000000              -0.000009303              -0.000020839               0.000009096              -0.000000884              -0.000006652              -0.000007536               0.000000000               0.000000000               0.000000000               0.000000000              -0.000003486              -0.000009976               0.000000909              -0.000000060              -0.000003305              -0.000003366               0.000000000               0.000000000               0.000000000               0.000000000              -0.000001425               0.000002288              -0.000000826              -0.000000820               0.000001036               0.000000216               0.000000000               0.000000000               0.000000000               0.000000000               0.000005526               0.000023905               0.000001091              -0.000000916               0.000008273               0.000007358               0.000000000               0.000000000               0.000000000               0.000000000               0.000017590               0.000052976               0.000000586              -0.000000026               0.000017667               0.000017642               0.000000000               0.000000000               0.000000000               0.000000000               0.000028529               0.000083858               0.000001833               0.000000216               0.000027880               0.000028096               0.000000000               0.000000000               0.000000000               0.000000000               0.000038949               0.000115440               0.000002789               0.000000176               0.000038421               0.000038597               0.000000000               0.000000000               0.000000000               0.000000000               0.000050219               0.000145908               0.000002629               0.000000594               0.000048438               0.000049031               0.000000000               0.000000000               0.000000000               0.000000000               0.000061739               0.000172751               0.000000571               0.000001558               0.000057064               0.000058622               0.000000000               0.000000000               0.000000000               0.000000000               0.000072271               0.000197077              -0.000003723               0.000002467               0.000064869               0.000067336               0.000000000               0.000000000               0.000000000               0.000000000               0.000079622               0.000221634              -0.000009547               0.000002154               0.000073159               0.000075313               0.000000000               0.000000000               0.000000000               0.000000000               0.000081196               0.000250124              -0.000015247              -0.000000817               0.000083646               0.000082829               0.000000000               0.000000000               0.000000000               0.000000000               0.000075546               0.000284194              -0.000019168              -0.000007194               0.000097128               0.000089934               0.000000000               0.000000000               0.000000000               0.000000000               0.000063050               0.000323699              -0.000020238              -0.000016819               0.000113505               0.000096686               0.000000000               0.000000000               0.000000000               0.000000000               0.000045002               0.000367309              -0.000017628              -0.000029038               0.000132114               0.000103077               0.000000000               0.000000000               0.000000000               0.000000000               0.000023218               0.000413137              -0.000010691              -0.000042935               0.000152023               0.000109087               0.000000000               0.000000000               0.000000000               0.000000000               0.000018356               0.000447185              -0.000009920              -0.000049014               0.000165398               0.000116384               0.000000000               0.000000000               0.000000000               0.000000000              -0.000006485              -0.000008164               0.000008667              -0.000001411              -0.000002251              -0.000003662               0.000000000               0.000000000               0.000000000               0.000000000               0.000005052               0.000006667               0.000001090               0.000001061               0.000001868               0.000002930               0.000000000               0.000000000               0.000000000               0.000000000               0.000012378               0.000032724              -0.000001067               0.000000551               0.000010724               0.000011275               0.000000000               0.000000000               0.000000000               0.000000000               0.000021509               0.000069180               0.000001254              -0.000000582               0.000023254               0.000022672               0.000000000               0.000000000               0.000000000               0.000000000               0.000038415               0.000112172               0.000001444               0.000000384               0.000037262               0.000037646               0.000000000               0.000000000               0.000000000               0.000000000               0.000053347               0.000154943               0.000002000               0.000000637               0.000051435               0.000052072               0.000000000               0.000000000               0.000000000               0.000000000               0.000066181               0.000196755               0.000001640               0.000000223               0.000065510               0.000065733               0.000000000               0.000000000               0.000000000               0.000000000               0.000079876               0.000234485              -0.000000994               0.000000643               0.000077947               0.000078589               0.000000000               0.000000000               0.000000000               0.000000000               0.000092496               0.000268993              -0.000006325               0.000001062               0.000089309               0.000090371               0.000000000               0.000000000               0.000000000               0.000000000               0.000101499               0.000302777              -0.000013825               0.000000215               0.000100853               0.000101068               0.000000000               0.000000000               0.000000000               0.000000000               0.000104327               0.000339891              -0.000021484              -0.000003364               0.000114417               0.000111053               0.000000000               0.000000000               0.000000000               0.000000000               0.000099323               0.000382340              -0.000027242              -0.000010546               0.000130961               0.000120415               0.000000000               0.000000000               0.000000000               0.000000000               0.000086683               0.000429447              -0.000029824              -0.000021175               0.000150206               0.000129031               0.000000000               0.000000000               0.000000000               0.000000000               0.000068253               0.000479393              -0.000028408              -0.000034329               0.000171239               0.000136910               0.000000000               0.000000000               0.000000000               0.000000000               0.000046393               0.000529375              -0.000022730              -0.000048774               0.000192715               0.000143940               0.000000000               0.000000000               0.000000000               0.000000000               0.000023181               0.000576475              -0.000012962              -0.000063366               0.000213278               0.000149912               0.000000000               0.000000000               0.000000000               0.000000000               0.000017708               0.000608608              -0.000010727              -0.000069435               0.000226013               0.000156577               0.000000000               0.000000000               0.000000000               0.000000000              -0.000002028               0.000012652               0.000007865              -0.000002342               0.000004998               0.000002656               0.000000000               0.000000000               0.000000000               0.000000000               0.000012636               0.000030047               0.000003070               0.000000983               0.000009688               0.000010671               0.000000000               0.000000000               0.000000000               0.000000000               0.000027997               0.000073476              -0.000000852               0.000001314               0.000024054               0.000025368               0.000000000               0.000000000               0.000000000               0.000000000               0.000040241               0.000122604               0.000001550              -0.000000235               0.000040946               0.000040711               0.000000000               0.000000000               0.000000000               0.000000000               0.000060755               0.000175668               0.000002233               0.000000824               0.000058281               0.000059105               0.000000000               0.000000000               0.000000000               0.000000000               0.000078761               0.000228119               0.000001793               0.000001020               0.000075699               0.000076719               0.000000000               0.000000000               0.000000000               0.000000000               0.000093220               0.000276868              -0.000000125               0.000000349               0.000092172               0.000092521               0.000000000               0.000000000               0.000000000               0.000000000               0.000107749               0.000322384              -0.000005520               0.000000108               0.000107424               0.000107532               0.000000000               0.000000000               0.000000000               0.000000000               0.000118991               0.000366248              -0.000013299              -0.000001159               0.000122468               0.000121308               0.000000000               0.000000000               0.000000000               0.000000000               0.000123597               0.000412354              -0.000022281              -0.000005195               0.000139182               0.000133987               0.000000000               0.000000000               0.000000000               0.000000000               0.000120275               0.000463511              -0.000029665              -0.000012836               0.000158781               0.000145945               0.000000000               0.000000000               0.000000000               0.000000000               0.000108625               0.000519291              -0.000033903              -0.000024177               0.000181154               0.000156977               0.000000000               0.000000000               0.000000000               0.000000000               0.000090586               0.000577523              -0.000033978              -0.000038220               0.000205246               0.000167025               0.000000000               0.000000000               0.000000000               0.000000000               0.000068965               0.000635360              -0.000029995              -0.000053558               0.000229637               0.000176079               0.000000000               0.000000000               0.000000000               0.000000000               0.000045834               0.000689537              -0.000022650              -0.000069004               0.000252845               0.000183840               0.000000000               0.000000000               0.000000000               0.000000000               0.000022652               0.000737840              -0.000012525              -0.000083735               0.000273856               0.000190121               0.000000000               0.000000000               0.000000000               0.000000000               0.000016716               0.000769128              -0.000010152              -0.000089872               0.000286331               0.000196459               0.000000000               0.000000000               0.000000000               0.000000000               0.000002542               0.000034923               0.000004656              -0.000003412               0.000012778               0.000009366               0.000000000               0.000000000               0.000000000               0.000000000               0.000021174               0.000060558               0.000004065               0.000000370               0.000020062               0.000020433               0.000000000               0.000000000               0.000000000               0.000000000               0.000044838               0.000120247               0.000000394               0.000001783               0.000039488               0.000041271               0.000000000               0.000000000               0.000000000               0.000000000               0.000058955               0.000179066               0.000001208              -0.000000275               0.000059780               0.000059505               0.000000000               0.000000000               0.000000000               0.000000000               0.000082566               0.000242952               0.000001567               0.000000593               0.000080785               0.000081379               0.000000000               0.000000000               0.000000000               0.000000000               0.000102758               0.000303993              -0.000000026               0.000000535               0.000101152               0.000101687               0.000000000               0.000000000               0.000000000               0.000000000               0.000118930               0.000360253              -0.000003826              -0.000000433               0.000120227               0.000119795               0.000000000               0.000000000               0.000000000               0.000000000               0.000133403               0.000414264              -0.000010699              -0.000001757               0.000138672               0.000136915               0.000000000               0.000000000               0.000000000               0.000000000               0.000142283               0.000469492              -0.000019631              -0.000005330               0.000158272               0.000152942               0.000000000               0.000000000               0.000000000               0.000000000               0.000142061               0.000529045              -0.000028060              -0.000012858               0.000180633               0.000167775               0.000000000               0.000000000               0.000000000               0.000000000               0.000132979               0.000593943              -0.000033741              -0.000024376               0.000206104               0.000181729               0.000000000               0.000000000               0.000000000               0.000000000               0.000116277               0.000661701              -0.000035169              -0.000039109               0.000233601               0.000194492               0.000000000               0.000000000               0.000000000               0.000000000               0.000095255               0.000729701              -0.000032419              -0.000055492               0.000261728               0.000206237               0.000000000               0.000000000               0.000000000               0.000000000               0.000071581               0.000794514              -0.000026373              -0.000072471               0.000288992               0.000216521               0.000000000               0.000000000               0.000000000               0.000000000               0.000047115               0.000854198              -0.000018397              -0.000089106               0.000314432               0.000225325               0.000000000               0.000000000               0.000000000               0.000000000               0.000023389               0.000906817              -0.000009517              -0.000104581               0.000337130               0.000232549               0.000000000               0.000000000               0.000000000               0.000000000               0.000015458               0.000939464              -0.000007858              -0.000111636               0.000350363               0.000238727               0.000000000               0.000000000               0.000000000               0.000000000               0.000013279               0.000056992              -0.000000048              -0.000002144               0.000019712               0.000017568               0.000000000               0.000000000               0.000000000               0.000000000               0.000030154               0.000090464               0.000003859              -0.000000000               0.000030154               0.000030154               0.000000000               0.000000000               0.000000000               0.000000000               0.000059207               0.000159013               0.000002362               0.000002326               0.000052228               0.000054554               0.000000000               0.000000000               0.000000000               0.000000000               0.000075750               0.000225914               0.000001457               0.000000167               0.000075248               0.000075415               0.000000000               0.000000000               0.000000000               0.000000000               0.000100176               0.000295860               0.000002578               0.000000583               0.000098425               0.000099008               0.000000000               0.000000000               0.000000000               0.000000000               0.000121196               0.000362889               0.000000774               0.000000087               0.000120933               0.000121020               0.000000000               0.000000000               0.000000000               0.000000000               0.000137764               0.000425206              -0.000004161              -0.000001489               0.000142230               0.000140741               0.000000000               0.000000000               0.000000000               0.000000000               0.000151954               0.000485961              -0.000010634              -0.000003762               0.000163240               0.000159477               0.000000000               0.000000000               0.000000000               0.000000000               0.000159103               0.000550152              -0.000018775              -0.000009106               0.000186417               0.000177312               0.000000000               0.000000000               0.000000000               0.000000000               0.000157018               0.000619309              -0.000025814              -0.000018532               0.000212612               0.000194080               0.000000000               0.000000000               0.000000000               0.000000000               0.000147236               0.000694240              -0.000029940              -0.000031566               0.000241933               0.000210367               0.000000000               0.000000000               0.000000000               0.000000000               0.000131317               0.000771107              -0.000030075              -0.000047144               0.000272748               0.000225604               0.000000000               0.000000000               0.000000000               0.000000000               0.000112166               0.000847099              -0.000026230              -0.000063825               0.000303639               0.000239813               0.000000000               0.000000000               0.000000000               0.000000000               0.000091039               0.000919707              -0.000019592              -0.000080824               0.000333507               0.000252684               0.000000000               0.000000000               0.000000000               0.000000000               0.000069182               0.000987712              -0.000011738              -0.000097520               0.000361741               0.000264220               0.000000000               0.000000000               0.000000000               0.000000000               0.000049351               0.001049682              -0.000004335              -0.000112703               0.000387458               0.000274755               0.000000000               0.000000000               0.000000000               0.000000000               0.000038265               0.001082097              -0.000001334              -0.000120912               0.000400999               0.000280087               0.000000000               0.000000000               0.000000000               0.000000000               0.000023475               0.000076911              -0.000004102              -0.000000811               0.000025907               0.000025096               0.000000000               0.000000000               0.000000000               0.000000000               0.000035403               0.000113648               0.000002307              -0.000000930               0.000038192               0.000037262               0.000000000               0.000000000               0.000000000               0.000000000               0.000068538               0.000187717               0.000003426               0.000002237               0.000061826               0.000064063               0.000000000               0.000000000               0.000000000               0.000000000               0.000086702               0.000254306               0.000000659               0.000000725               0.000084526               0.000085251               0.000000000               0.000000000               0.000000000               0.000000000               0.000107851               0.000323650               0.000000761              -0.000000012               0.000107886               0.000107874               0.000000000               0.000000000               0.000000000               0.000000000               0.000132146               0.000395251               0.000000203               0.000000149               0.000131699               0.000131848               0.000000000               0.000000000               0.000000000               0.000000000               0.000149513               0.000460817              -0.000004097              -0.000001535               0.000154116               0.000152581               0.000000000               0.000000000               0.000000000               0.000000000               0.000165846               0.000525382              -0.000009472              -0.000003481               0.000176286               0.000172805               0.000000000               0.000000000               0.000000000               0.000000000               0.000177171               0.000590790              -0.000015561              -0.000007410               0.000199398               0.000191988               0.000000000               0.000000000               0.000000000               0.000000000               0.000180566               0.000658601              -0.000021878              -0.000014613               0.000224402               0.000209790               0.000000000               0.000000000               0.000000000               0.000000000               0.000176821               0.000731089              -0.000026255              -0.000025078               0.000252053               0.000226975               0.000000000               0.000000000               0.000000000               0.000000000               0.000167104               0.000806378              -0.000027770              -0.000038133               0.000281501               0.000243368               0.000000000               0.000000000               0.000000000               0.000000000               0.000153330               0.000882744              -0.000025714              -0.000052844               0.000311860               0.000259016               0.000000000               0.000000000               0.000000000               0.000000000               0.000137607               0.000959112              -0.000020465              -0.000068286               0.000342463               0.000274177               0.000000000               0.000000000               0.000000000               0.000000000               0.000120788               0.001034437              -0.000013145              -0.000084009               0.000372812               0.000288803               0.000000000               0.000000000               0.000000000               0.000000000               0.000104947               0.001109143              -0.000005766              -0.000099288               0.000402807               0.000303519               0.000000000               0.000000000               0.000000000               0.000000000               0.000090484               0.001141154               0.000000425              -0.000108712               0.000416618               0.000307906               0.000000000               0.000000000               0.000000000               0.000000000               0.000026231               0.000086719              -0.000007717              -0.000001003               0.000029240               0.000028237               0.000000000               0.000000000               0.000000000               0.000000000               0.000037890               0.000129076              -0.000000362              -0.000001926               0.000043667               0.000041741               0.000000000               0.000000000               0.000000000               0.000000000               0.000073103               0.000209754               0.000003861               0.000001195               0.000069519               0.000070714               0.000000000               0.000000000               0.000000000               0.000000000               0.000095969               0.000274227               0.000002109               0.000001710               0.000090838               0.000092548               0.000000000               0.000000000               0.000000000               0.000000000               0.000113444               0.000340891              -0.000000146              -0.000000070               0.000113653               0.000113583               0.000000000               0.000000000               0.000000000               0.000000000               0.000138610               0.000412792               0.000000601               0.000000380               0.000137469               0.000137849               0.000000000               0.000000000               0.000000000               0.000000000               0.000158509               0.000481134              -0.000001327              -0.000000701               0.000160610               0.000159909               0.000000000               0.000000000               0.000000000               0.000000000               0.000175235               0.000545274              -0.000005466              -0.000002446               0.000182571               0.000180126               0.000000000               0.000000000               0.000000000               0.000000000               0.000191164               0.000610642              -0.000009291              -0.000004644               0.000205093               0.000200450               0.000000000               0.000000000               0.000000000               0.000000000               0.000202016               0.000676623              -0.000014184              -0.000008822               0.000228479               0.000219657               0.000000000               0.000000000               0.000000000               0.000000000               0.000206820               0.000744980              -0.000018755              -0.000015565               0.000253513               0.000237948               0.000000000               0.000000000               0.000000000               0.000000000               0.000206365               0.000816488              -0.000021732              -0.000024674               0.000280384               0.000255710               0.000000000               0.000000000               0.000000000               0.000000000               0.000201668               0.000890249              -0.000022306              -0.000035656               0.000308632               0.000272976               0.000000000               0.000000000               0.000000000               0.000000000               0.000193771               0.000964081              -0.000019934              -0.000047846               0.000337306               0.000289460               0.000000000               0.000000000               0.000000000               0.000000000               0.000184416               0.001038524              -0.000014543              -0.000060659               0.000366391               0.000305732               0.000000000               0.000000000               0.000000000               0.000000000               0.000173269               0.001112098              -0.000007450              -0.000074036               0.000395374               0.000321338               0.000000000               0.000000000               0.000000000               0.000000000               0.000158598               0.001140317              -0.000000461              -0.000083065               0.000407790               0.000324725               0.000000000               0.000000000               0.000000000               0.000000000               0.000026199               0.000084296              -0.000010541              -0.000000712               0.000028336               0.000027624               0.000000000               0.000000000               0.000000000               0.000000000               0.000040647               0.000138539              -0.000003585              -0.000002075               0.000046871               0.000044796               0.000000000               0.000000000               0.000000000               0.000000000               0.000075660               0.000227148               0.000003107              -0.000000021               0.000075722               0.000075701               0.000000000               0.000000000               0.000000000               0.000000000               0.000102741               0.000292876               0.000003633               0.000001919               0.000096985               0.000098903               0.000000000               0.000000000               0.000000000               0.000000000               0.000119778               0.000355958              -0.000000202               0.000000422               0.000118511               0.000118933               0.000000000               0.000000000               0.000000000               0.000000000               0.000142213               0.000424088              -0.000000194               0.000000319               0.000141255               0.000141574               0.000000000               0.000000000               0.000000000               0.000000000               0.000165745               0.000495854               0.000000783               0.000000173               0.000165226               0.000165398               0.000000000               0.000000000               0.000000000               0.000000000               0.000183828               0.000561293              -0.000001748              -0.000001226               0.000187504               0.000186278               0.000000000               0.000000000               0.000000000               0.000000000               0.000201581               0.000626376              -0.000004325              -0.000002704               0.000209691               0.000206987               0.000000000               0.000000000               0.000000000               0.000000000               0.000218061               0.000692329              -0.000006806              -0.000004768               0.000232363               0.000227595               0.000000000               0.000000000               0.000000000               0.000000000               0.000230324               0.000758561              -0.000010168              -0.000008448               0.000255667               0.000247219               0.000000000               0.000000000               0.000000000               0.000000000               0.000238337               0.000826541              -0.000013112              -0.000013941               0.000280158               0.000266217               0.000000000               0.000000000               0.000000000               0.000000000               0.000242912               0.000897304              -0.000014906              -0.000021071               0.000306122               0.000285051               0.000000000               0.000000000               0.000000000               0.000000000               0.000244180               0.000968662              -0.000014922              -0.000029515               0.000332722               0.000303207               0.000000000               0.000000000               0.000000000               0.000000000               0.000243560               0.001041263              -0.000012658              -0.000038823               0.000360025               0.000321202               0.000000000               0.000000000               0.000000000               0.000000000               0.000241018               0.001113391              -0.000007617              -0.000048792               0.000387391               0.000338599               0.000000000               0.000000000               0.000000000               0.000000000               0.000232094               0.001143125              -0.000002170              -0.000055855               0.000399656               0.000343801               0.000000000               0.000000000               0.000000000               0.000000000               0.000027384               0.000079699              -0.000011833               0.000000307               0.000026464               0.000026770               0.000000000               0.000000000               0.000000000               0.000000000               0.000043062               0.000143705              -0.000006976              -0.000001815               0.000048506               0.000046691               0.000000000               0.000000000               0.000000000               0.000000000               0.000076923               0.000239668               0.000001318              -0.000001112               0.000080259               0.000079147               0.000000000               0.000000000               0.000000000               0.000000000               0.000106517               0.000309634               0.000004275               0.000001239               0.000102797               0.000104037               0.000000000               0.000000000               0.000000000               0.000000000               0.000125160               0.000370870               0.000001012               0.000000576               0.000123430               0.000124006               0.000000000               0.000000000               0.000000000               0.000000000               0.000144536               0.000433498              -0.000001002               0.000000014               0.000144493               0.000144507               0.000000000               0.000000000               0.000000000               0.000000000               0.000168942               0.000505276               0.000000807               0.000000194               0.000168359               0.000168553               0.000000000               0.000000000               0.000000000               0.000000000               0.000190572               0.000574880               0.000000733              -0.000000395               0.000191757               0.000191361               0.000000000               0.000000000               0.000000000               0.000000000               0.000209184               0.000638986              -0.000001172              -0.000001429               0.000213470               0.000212040               0.000000000               0.000000000               0.000000000               0.000000000               0.000228649               0.000704725              -0.000002137              -0.000002347               0.000235688               0.000233341               0.000000000               0.000000000               0.000000000               0.000000000               0.000246915               0.000771146              -0.000003573              -0.000003800               0.000258313               0.000254513               0.000000000               0.000000000               0.000000000               0.000000000               0.000261960               0.000836770              -0.000005329              -0.000006361               0.000281041               0.000274680               0.000000000               0.000000000               0.000000000               0.000000000               0.000274663               0.000905041              -0.000006854              -0.000010132               0.000305054               0.000294923               0.000000000               0.000000000               0.000000000               0.000000000               0.000284905               0.000974265              -0.000007535              -0.000014944               0.000329733               0.000314789               0.000000000               0.000000000               0.000000000               0.000000000               0.000293427               0.001044689              -0.000007127              -0.000020551               0.000355077               0.000334526               0.000000000               0.000000000               0.000000000               0.000000000               0.000300933               0.001115132              -0.000004688              -0.000026542               0.000380554               0.000354012               0.000000000               0.000000000               0.000000000               0.000000000               0.000300933               0.001147381              -0.000001808              -0.000030573               0.000392648               0.000362075               0.000000000               0.000000000               0.000000000               0.000000000               0.000028037               0.000077796              -0.000010422               0.000000789               0.000025669               0.000026458               0.000000000               0.000000000               0.000000000               0.000000000               0.000045267               0.000144453              -0.000008973              -0.000001081               0.000048511               0.000047430               0.000000000               0.000000000               0.000000000               0.000000000               0.000077762               0.000246471              -0.000000901              -0.000001648               0.000082705               0.000081057               0.000000000               0.000000000               0.000000000               0.000000000               0.000108251               0.000322295               0.000004044               0.000000307               0.000107328               0.000107635               0.000000000               0.000000000               0.000000000               0.000000000               0.000129803               0.000384323               0.000001648               0.000000636               0.000127895               0.000128530               0.000000000               0.000000000               0.000000000               0.000000000               0.000148545               0.000443332              -0.000001413               0.000000288               0.000147680               0.000147968               0.000000000               0.000000000               0.000000000               0.000000000               0.000171457               0.000510220              -0.000000588               0.000000519               0.000169899               0.000170418               0.000000000               0.000000000               0.000000000               0.000000000               0.000195924               0.000583236               0.000000899               0.000000567               0.000194221               0.000194788               0.000000000               0.000000000               0.000000000               0.000000000               0.000216462               0.000648944               0.000000195               0.000000055               0.000216294               0.000216349               0.000000000               0.000000000               0.000000000               0.000000000               0.000236342               0.000713255              -0.000000290              -0.000000529               0.000237925               0.000237397               0.000000000               0.000000000               0.000000000               0.000000000               0.000257534               0.000780758              -0.000000301              -0.000001019               0.000260590               0.000259570               0.000000000               0.000000000               0.000000000               0.000000000               0.000277316               0.000846100              -0.000000746              -0.000001769               0.000282620               0.000280851               0.000000000               0.000000000               0.000000000               0.000000000               0.000295833               0.000912012              -0.000001334              -0.000003064               0.000305022               0.000301958               0.000000000               0.000000000               0.000000000               0.000000000               0.000313102               0.000979399              -0.000001676              -0.000005012               0.000328134               0.000323122               0.000000000               0.000000000               0.000000000               0.000000000               0.000329150               0.001047474              -0.000001789              -0.000007503               0.000351656               0.000344153               0.000000000               0.000000000               0.000000000               0.000000000               0.000344595               0.001116121              -0.000001228              -0.000010292               0.000375467               0.000365175               0.000000000               0.000000000               0.000000000               0.000000000               0.000350992               0.001149900              -0.000000324              -0.000012115               0.000387335               0.000375219               0.000000000               0.000000000               0.000000000               0.000000000               0.000028521               0.000075766              -0.000006157               0.000001225               0.000024847               0.000026072               0.000000000               0.000000000               0.000000000               0.000000000               0.000048434               0.000140403              -0.000006950               0.000000613               0.000046596               0.000047209               0.000000000               0.000000000               0.000000000               0.000000000               0.000079812               0.000247268              -0.000001422              -0.000000979               0.000082748               0.000081769               0.000000000               0.000000000               0.000000000               0.000000000               0.000109138               0.000331156               0.000003700              -0.000000468               0.000110540               0.000110072               0.000000000               0.000000000               0.000000000               0.000000000               0.000132438               0.000395072               0.000002372               0.000000280               0.000131596               0.000131876               0.000000000               0.000000000               0.000000000               0.000000000               0.000150697               0.000451293              -0.000000372               0.000000100               0.000150396               0.000150496               0.000000000               0.000000000               0.000000000               0.000000000               0.000171609               0.000512611              -0.000000674               0.000000277               0.000170776               0.000171053               0.000000000               0.000000000               0.000000000               0.000000000               0.000196587               0.000585891               0.000000604               0.000000484               0.000195134               0.000195617               0.000000000               0.000000000               0.000000000               0.000000000               0.000219269               0.000654845               0.000000779               0.000000370               0.000218156               0.000218526               0.000000000               0.000000000               0.000000000               0.000000000               0.000239687               0.000718329               0.000000268               0.000000091               0.000239410               0.000239502               0.000000000               0.000000000               0.000000000               0.000000000               0.000261913               0.000785822               0.000000468              -0.000000010               0.000261942               0.000261931               0.000000000               0.000000000               0.000000000               0.000000000               0.000284233               0.000852463               0.000000601               0.000000030               0.000284141               0.000284171               0.000000000               0.000000000               0.000000000               0.000000000               0.000305795               0.000917072               0.000000528               0.000000039               0.000305675               0.000305714               0.000000000               0.000000000               0.000000000               0.000000000               0.000327171               0.000983065               0.000000540              -0.000000194               0.000327750               0.000327556               0.000000000               0.000000000               0.000000000               0.000000000               0.000347803               0.001049751               0.000000419              -0.000000793               0.000350178               0.000349385               0.000000000               0.000000000               0.000000000               0.000000000               0.000367730               0.001117002               0.000000219              -0.000001727               0.000372906               0.000371179               0.000000000               0.000000000               0.000000000               0.000000000               0.000377129               0.001151102               0.000000297              -0.000002464               0.000384518               0.000382054               0.000000000               0.000000000               0.000000000               0.000000000               0.000026686               0.000073605              -0.000003682               0.000000807               0.000024266               0.000025072               0.000000000               0.000000000               0.000000000               0.000000000               0.000049088               0.000137289              -0.000004667               0.000001247               0.000045347               0.000046594               0.000000000               0.000000000               0.000000000               0.000000000               0.000080566               0.000247735              -0.000002055              -0.000000755               0.000082829               0.000082074               0.000000000               0.000000000               0.000000000               0.000000000               0.000109559               0.000336283               0.000001241              -0.000000951               0.000112410               0.000111459               0.000000000               0.000000000               0.000000000               0.000000000               0.000133479               0.000400876               0.000001300              -0.000000055               0.000133642               0.000133588               0.000000000               0.000000000               0.000000000               0.000000000               0.000152417               0.000457019              -0.000000119               0.000000029               0.000152329               0.000152357               0.000000000               0.000000000               0.000000000               0.000000000               0.000171560               0.000515693              -0.000000702              -0.000000126               0.000171938               0.000171812               0.000000000               0.000000000               0.000000000               0.000000000               0.000195655               0.000587308              -0.000000027              -0.000000043               0.000195782               0.000195739               0.000000000               0.000000000               0.000000000               0.000000000               0.000219716               0.000658015               0.000000334               0.000000141               0.000219289               0.000219430               0.000000000               0.000000000               0.000000000               0.000000000               0.000240783               0.000720641               0.000000093               0.000000214               0.000240140               0.000240354               0.000000000               0.000000000               0.000000000               0.000000000               0.000262823               0.000786661               0.000000281               0.000000226               0.000262142               0.000262368               0.000000000               0.000000000               0.000000000               0.000000000               0.000285712               0.000854816               0.000000564               0.000000290               0.000284839               0.000285129               0.000000000               0.000000000               0.000000000               0.000000000               0.000307814               0.000920079               0.000000609               0.000000420               0.000306550               0.000306970               0.000000000               0.000000000               0.000000000               0.000000000               0.000330274               0.000985952               0.000000627               0.000000609               0.000328444               0.000329053               0.000000000               0.000000000               0.000000000               0.000000000               0.000352793               0.001052298               0.000000544               0.000000760               0.000350509               0.000351269               0.000000000               0.000000000               0.000000000               0.000000000               0.000374884               0.001118458               0.000000278               0.000000774               0.000372558               0.000373332               0.000000000               0.000000000               0.000000000               0.000000000               0.000385867               0.001152169               0.000000175               0.000000679               0.000383826               0.000384505               0.000000000               0.000000000               0.000000000               0.000000000               0.000000000               0.000000000               0.000000000               0.000000000               0.000000000               0.000000000               0.000000000               0.000000000               0.000000000               0.000000000               0.000000000               0.000000000               0.000000000               0.000000000               0.000000000               0.000000000               0.000000000               0.000000000               0.000000000               0.000000000               0.000000000               0.000000000               0.000000000               0.000000000               0.000000000               0.000000000               0.000000000               0.000000000               0.000000000               0.000000000               0.000000000               0.000000000               0.000000000               0.000000000               0.000000000               0.000000000               0.000000000               0.000000000               0.000000000               0.000000000               0.000000000               0.000000000               0.000000000               0.000000000               0.000000000               0.000000000               0.000000000               0.000000000               0.000000000               0.000000000               0.000000000               0.000000000               0.000000000               0.000000000               0.000000000               0.000000000               0.000000000               0.000000000               0.000000000               0.000000000               0.000000000               0.000000000               0.000000000               0.000000000               0.000000000               0.000000000               0.000000000               0.000000000               0.000000000               0.000000000               0.000000000               0.000000000               0.000000000               0.000000000               0.000000000               0.000000000               0.000000000               0.000000000               0.000000000               0.000000000               0.000000000               0.000000000               0.000000000               0.000000000               0.000000000               0.000000000               0.000000000               0.000000000               0.000000000               0.000000000               0.000000000               0.000000000               0.000000000               0.000000000               0.000000000               0.000000000               0.000000000               0.000000000               0.000000000               0.000000000               0.000000000               0.000000000               0.000000000               0.000000000               0.000000000               0.000000000               0.000000000               0.000000000               0.000000000               0.000000000               0.000000000               0.000000000               0.000000000               0.000000000               0.000000000               0.000000000               0.000000000               0.000000000               0.000000000               0.000000000               0.000000000               0.000000000               0.000000000               0.000000000               0.000000000               0.000000000               0.000000000               0.000000000               0.000000000               0.000000000               0.000000000               0.000000000               0.000000000               0.000000000               0.000000000               0.000000000               0.000000000               0.000000000               0.000000000               0.000000000               0.000000000               0.000000000               0.000000000               0.000000000               0.000000000               0.000000000               0.000000000               0.000000000               0.000000000               0.000000000               0.000000000               0.000000000               0.000000000               0.000000000               0.000000000               0.000000000               0.000000000               0.000000000               0.000000000               0.000000000               0.000000000               0.000000000               0.000000000               0.000000000               0.000000000               0.000000000               0.000000000               0.000000000               0.000000000               0.000000000               0.000000000               0.000000000               0.000000000               0.000000000               0.000000000               0.000000000               0.000000000               0.000000000               0.000000000               0.000000000               0.000000000               0.000000000               0.000000000               0.000000000               0.000000000               0.000000000               0.000000000               0.000000000               0.000000000               0.000000000               0.000000000               0.000000000               0.000000000               0.000000000               0.000000000               0.000000000               0.000000000               0.000000000               0.000000000               0.000000000               0.000000000               0.000000000               0.000000000               0.000000000               0.000000000               0.000000000               0.000000000               0.000000000               0.000000000               0.000000000               0.000000000               0.000000000               0.000000000               0.000000000               0.000000000               0.000000000               0.000000000               0.000000000               0.000000000               0.000000000               0.000000000               0.000000000               0.000000000               0.000000000               0.000000000               0.000000000               0.000000000               0.000000000               0.000000000               0.000000000               0.000000000               0.000000000               0.000000000               0.000000000               0.000000000               0.000000000               0.000000000               0.000000000               0.000000000               0.000000000               0.000000000               0.000000000               0.000000000               0.000000000               0.000000000               0.000000000               0.000000000               0.000000000               0.000000000               0.000000000               0.000000000               0.000000000               0.000000000               0.000000000               0.000000000               0.000000000               0.000000000               0.000000000               0.000000000               0.000000000               0.000000000               0.000000000               0.000000000               0.000000000               0.000000000               0.000000000               0.000000000               0.000000000               0.000000000               0.000000000               0.000000000               0.000000000               0.000000000               0.000000000               0.000000000               0.000000000               0.000000000               0.000000000               0.000000000               0.000000000               0.000000000               0.000000000               0.000000000               0.000000000               0.000000000               0.000000000               0.000000000               0.000000000               0.000000000               0.000000000               0.000000000               0.000000000               0.000000000               0.000000000               0.000000000               0.000000000               0.000000000               0.000000000               0.000000000               0.000000000               0.000000000               0.000000000               0.000000000               0.000000000               0.000000000               0.000000000               0.000000000               0.000000000               0.000000000               0.000000000               0.000000000               0.000000000               0.000000000               0.000000000               0.000000000               0.000000000               0.000000000               0.000000000               0.000000000               0.000000000               0.000000000               0.000000000               0.000000000               0.000000000               0.000000000               0.000000000               0.000000000               0.000000000               0.000000000               0.000000000               0.000000000               0.000000000               0.000000000               0.000000000               0.000000000               0.000000000               0.000000000               0.000000000               0.000000000               0.000000000               0.000001131               0.000010919               0.000000989              -0.000000941               0.000003953               0.000003012               0.000000000               0.000000000               0.000000000               0.000000000               0.000000656               0.000006175              -0.000000073              -0.000000526               0.000002234               0.000001708               0.000000000               0.000000000               0.000000000               0.000000000               0.000000476               0.000001612               0.000000401              -0.000000023               0.000000545               0.000000522               0.000000000               0.000000000               0.000000000               0.000000000              -0.000000695              -0.000001816               0.000002052              -0.000000033              -0.000000594              -0.000000628               0.000000000               0.000000000               0.000000000               0.000000000              -0.000002555              -0.000005700               0.000003211              -0.000000246              -0.000001818              -0.000002064               0.000000000               0.000000000               0.000000000               0.000000000              -0.000003704              -0.000009024               0.000004798              -0.000000261              -0.000002921              -0.000003182               0.000000000               0.000000000               0.000000000               0.000000000              -0.000003907              -0.000011470               0.000006473              -0.000000031              -0.000003813              -0.000003844               0.000000000               0.000000000               0.000000000               0.000000000              -0.000004230              -0.000012584               0.000007175              -0.000000013              -0.000004190              -0.000004203               0.000000000               0.000000000               0.000000000               0.000000000              -0.000004711              -0.000011936               0.000006964              -0.000000274              -0.000003887              -0.000004162               0.000000000               0.000000000               0.000000000               0.000000000              -0.000004962              -0.000010045               0.000005911              -0.000000605              -0.000003147              -0.000003752               0.000000000               0.000000000               0.000000000               0.000000000              -0.000004546              -0.000007932               0.000004576              -0.000000713              -0.000002406              -0.000003120               0.000000000               0.000000000               0.000000000               0.000000000              -0.000003004              -0.000006469               0.000003375              -0.000000318              -0.000002050              -0.000002368               0.000000000               0.000000000               0.000000000               0.000000000              -0.000000479              -0.000006084               0.000002620               0.000000581              -0.000002222              -0.000001641               0.000000000               0.000000000               0.000000000               0.000000000               0.000002219              -0.000006269               0.000002278               0.000001616              -0.000002628              -0.000001013               0.000000000               0.000000000               0.000000000               0.000000000               0.000003817              -0.000005792               0.000001954               0.000002155              -0.000002649              -0.000000494               0.000000000               0.000000000               0.000000000               0.000000000               0.000002973              -0.000003282               0.000001089               0.000001525              -0.000001602              -0.000000077               0.000000000               0.000000000               0.000000000               0.000000000               0.000002753               0.000000390               0.000001366               0.000000983              -0.000000198               0.000000786               0.000000000               0.000000000               0.000000000               0.000000000              -0.000004089              -0.000015692               0.000004325               0.000000428              -0.000005373              -0.000004945               0.000000000               0.000000000               0.000000000               0.000000000              -0.000005062              -0.000013759               0.000002470              -0.000000178              -0.000004527              -0.000004705               0.000000000               0.000000000               0.000000000               0.000000000              -0.000007100              -0.000020726              -0.000000039              -0.000000072              -0.000006885              -0.000006957               0.000000000               0.000000000               0.000000000               0.000000000              -0.000006692              -0.000020436               0.000000595               0.000000045              -0.000006827              -0.000006782               0.000000000               0.000000000               0.000000000               0.000000000              -0.000007528              -0.000018109               0.000001225              -0.000000559              -0.000005850              -0.000006409               0.000000000               0.000000000               0.000000000               0.000000000              -0.000006909              -0.000012799               0.000001039              -0.000000991              -0.000003936              -0.000004927               0.000000000               0.000000000               0.000000000               0.000000000              -0.000004466              -0.000003116               0.000001040              -0.000001285              -0.000000610              -0.000001895               0.000000000               0.000000000               0.000000000               0.000000000              -0.000001062               0.000009156               0.000000266              -0.000001543               0.000003566               0.000002023               0.000000000               0.000000000               0.000000000               0.000000000               0.000003057               0.000022373              -0.000000822              -0.000001650               0.000008008               0.000006358               0.000000000               0.000000000               0.000000000               0.000000000               0.000008492               0.000033932              -0.000001750              -0.000001057               0.000011663               0.000010606               0.000000000               0.000000000               0.000000000               0.000000000               0.000015718               0.000042875              -0.000002179               0.000000535               0.000014113               0.000014648               0.000000000               0.000000000               0.000000000               0.000000000               0.000023494               0.000049779              -0.000001823               0.000002588               0.000015730               0.000018318               0.000000000               0.000000000               0.000000000               0.000000000               0.000029496               0.000056894              -0.000000895               0.000003949               0.000017648               0.000021597               0.000000000               0.000000000               0.000000000               0.000000000               0.000031033               0.000066984              -0.000000020               0.000003264               0.000021240               0.000024504               0.000000000               0.000000000               0.000000000               0.000000000               0.000026273               0.000082044               0.000000224              -0.000000403               0.000027482               0.000027079               0.000000000               0.000000000               0.000000000               0.000000000               0.000014904               0.000102781              -0.000000211              -0.000007258               0.000036679               0.000029421               0.000000000               0.000000000               0.000000000               0.000000000               0.000011361               0.000121586               0.000001697              -0.000010938               0.000044174               0.000033236               0.000000000               0.000000000               0.000000000               0.000000000              -0.000004960              -0.000025217              -0.000003018               0.000001292              -0.000008836              -0.000007544               0.000000000               0.000000000               0.000000000               0.000000000              -0.000005223              -0.000019834               0.000000123               0.000000521              -0.000006785              -0.000006264               0.000000000               0.000000000               0.000000000               0.000000000              -0.000007891              -0.000019595               0.000000292              -0.000000510              -0.000006362              -0.000006872               0.000000000               0.000000000               0.000000000               0.000000000              -0.000004664              -0.000011058              -0.000000029              -0.000000367              -0.000003564              -0.000003931               0.000000000               0.000000000               0.000000000               0.000000000               0.000000669               0.000002084               0.000000288              -0.000000010               0.000000698               0.000000688               0.000000000               0.000000000               0.000000000               0.000000000               0.000005894               0.000019818              -0.000001117              -0.000000267               0.000006695               0.000006428               0.000000000               0.000000000               0.000000000               0.000000000               0.000012365               0.000040975              -0.000002593              -0.000000485               0.000013820               0.000013335               0.000000000               0.000000000               0.000000000               0.000000000               0.000019560               0.000063627              -0.000004015              -0.000000618               0.000021415               0.000020797               0.000000000               0.000000000               0.000000000               0.000000000               0.000027138               0.000084513              -0.000004715              -0.000000387               0.000028300               0.000027912               0.000000000               0.000000000               0.000000000               0.000000000               0.000036265               0.000102586              -0.000003909               0.000000776               0.000033936               0.000034712               0.000000000               0.000000000               0.000000000               0.000000000               0.000045653               0.000118444              -0.000001496               0.000002314               0.000038710               0.000041024               0.000000000               0.000000000               0.000000000               0.000000000               0.000052601               0.000134346               0.000001932               0.000002932               0.000043804               0.000046736               0.000000000               0.000000000               0.000000000               0.000000000               0.000054632               0.000153623               0.000005184               0.000001284               0.000050779               0.000052063               0.000000000               0.000000000               0.000000000               0.000000000               0.000050081               0.000178428               0.000007137              -0.000003523               0.000060650               0.000057127               0.000000000               0.000000000               0.000000000               0.000000000               0.000038655               0.000209623               0.000007075              -0.000011707               0.000073776               0.000062069               0.000000000               0.000000000               0.000000000               0.000000000               0.000020924               0.000247243               0.000004472              -0.000023059               0.000090100               0.000067041               0.000000000               0.000000000               0.000000000               0.000000000               0.000016849               0.000278736               0.000006027              -0.000028524               0.000102419               0.000073895               0.000000000               0.000000000               0.000000000               0.000000000              -0.000009303              -0.000020839              -0.000009096              -0.000000884              -0.000006652              -0.000007536               0.000000000               0.000000000               0.000000000               0.000000000              -0.000003486              -0.000009976              -0.000000909              -0.000000060              -0.000003305              -0.000003366               0.000000000               0.000000000               0.000000000               0.000000000              -0.000001425               0.000002288               0.000000826              -0.000000820               0.000001036               0.000000216               0.000000000               0.000000000               0.000000000               0.000000000               0.000005526               0.000023905              -0.000001091              -0.000000916               0.000008273               0.000007358               0.000000000               0.000000000               0.000000000               0.000000000               0.000017590               0.000052976              -0.000000586              -0.000000026               0.000017667               0.000017642               0.000000000               0.000000000               0.000000000               0.000000000               0.000028529               0.000083858              -0.000001833               0.000000216               0.000027880               0.000028096               0.000000000               0.000000000               0.000000000               0.000000000               0.000038949               0.000115440              -0.000002789               0.000000176               0.000038421               0.000038597               0.000000000               0.000000000               0.000000000               0.000000000               0.000050219               0.000145908              -0.000002629               0.000000594               0.000048438               0.000049031               0.000000000               0.000000000               0.000000000               0.000000000               0.000061739               0.000172751              -0.000000571               0.000001558               0.000057064               0.000058622               0.000000000               0.000000000               0.000000000               0.000000000               0.000072271               0.000197077               0.000003723               0.000002467               0.000064869               0.000067336               0.000000000               0.000000000               0.000000000               0.000000000               0.000079622               0.000221634               0.000009547               0.000002154               0.000073159               0.000075313               0.000000000               0.000000000               0.000000000               0.000000000               0.000081196               0.000250124               0.000015247              -0.000000817               0.000083646               0.000082829               0.000000000               0.000000000               0.000000000               0.000000000               0.000075546               0.000284194               0.000019168              -0.000007194               0.000097128               0.000089934               0.000000000               0.000000000               0.000000000               0.000000000               0.000063050               0.000323699               0.000020238              -0.000016819               0.000113505               0.000096686               0.000000000               0.000000000               0.000000000               0.000000000               0.000045002               0.000367309               0.000017628              -0.000029038               0.000132114               0.000103077               0.000000000               0.000000000               0.000000000               0.000000000               0.000023218               0.000413137               0.000010691              -0.000042935               0.000152023               0.000109087               0.000000000               0.000000000               0.000000000               0.000000000               0.000018356               0.000447185               0.000009920              -0.000049014               0.000165398               0.000116384               0.000000000               0.000000000               0.000000000               0.000000000              -0.000006485              -0.000008164              -0.000008667              -0.000001411              -0.000002251              -0.000003662               0.000000000               0.000000000               0.000000000               0.000000000               0.000005052               0.000006667              -0.000001090               0.000001061               0.000001868               0.000002930               0.000000000               0.000000000               0.000000000               0.000000000               0.000012378               0.000032724               0.000001067               0.000000551               0.000010724               0.000011275               0.000000000               0.000000000               0.000000000               0.000000000               0.000021509               0.000069180              -0.000001254              -0.000000582               0.000023254               0.000022672               0.000000000               0.000000000               0.000000000               0.000000000               0.000038415               0.000112172              -0.000001444               0.000000384               0.000037262               0.000037646               0.000000000               0.000000000               0.000000000               0.000000000               0.000053347               0.000154943              -0.000002000               0.000000637               0.000051435               0.000052072               0.000000000               0.000000000               0.000000000               0.000000000               0.000066181               0.000196755              -0.000001640               0.000000223               0.000065510               0.000065733               0.000000000               0.000000000               0.000000000               0.000000000               0.000079876               0.000234485               0.000000994               0.000000643               0.000077947               0.000078589               0.000000000               0.000000000               0.000000000               0.000000000               0.000092496               0.000268993               0.000006325               0.000001062               0.000089309               0.000090371               0.000000000               0.000000000               0.000000000               0.000000000               0.000101499               0.000302777               0.000013825               0.000000215               0.000100853               0.000101068               0.000000000               0.000000000               0.000000000               0.000000000               0.000104327               0.000339891               0.000021484              -0.000003364               0.000114417               0.000111053               0.000000000               0.000000000               0.000000000               0.000000000               0.000099323               0.000382340               0.000027242              -0.000010546               0.000130961               0.000120415               0.000000000               0.000000000               0.000000000               0.000000000               0.000086683               0.000429447               0.000029824              -0.000021175               0.000150206               0.000129031               0.000000000               0.000000000               0.000000000               0.000000000               0.000068253               0.000479393               0.000028408              -0.000034329               0.000171239               0.000136910               0.000000000               0.000000000               0.000000000               0.000000000               0.000046393               0.000529375               0.000022730              -0.000048774               0.000192715               0.000143940               0.000000000               0.000000000               0.000000000               0.000000000               0.000023181               0.000576475               0.000012962              -0.000063366               0.000213278               0.000149912               0.000000000               0.000000000               0.000000000               0.000000000               0.000017708               0.000608608               0.000010727              -0.000069435               0.000226013               0.000156577               0.000000000               0.000000000               0.000000000               0.000000000              -0.000002028               0.000012652              -0.000007865              -0.000002342               0.000004998               0.000002656               0.000000000               0.000000000               0.000000000               0.000000000               0.000012636               0.000030047              -0.000003070               0.000000983               0.000009688               0.000010671               0.000000000               0.000000000               0.000000000               0.000000000               0.000027997               0.000073476               0.000000852               0.000001314               0.000024054               0.000025368               0.000000000               0.000000000               0.000000000               0.000000000               0.000040241               0.000122604              -0.000001550              -0.000000235               0.000040946               0.000040711               0.000000000               0.000000000               0.000000000               0.000000000               0.000060755               0.000175668              -0.000002233               0.000000824               0.000058281               0.000059105               0.000000000               0.000000000               0.000000000               0.000000000               0.000078761               0.000228119              -0.000001793               0.000001020               0.000075699               0.000076719               0.000000000               0.000000000               0.000000000               0.000000000               0.000093220               0.000276868               0.000000125               0.000000349               0.000092172               0.000092521               0.000000000               0.000000000               0.000000000               0.000000000               0.000107749               0.000322384               0.000005520               0.000000108               0.000107424               0.000107532               0.000000000               0.000000000               0.000000000               0.000000000               0.000118991               0.000366248               0.000013299              -0.000001159               0.000122468               0.000121308               0.000000000               0.000000000               0.000000000               0.000000000               0.000123597               0.000412354               0.000022281              -0.000005195               0.000139182               0.000133987               0.000000000               0.000000000               0.000000000               0.000000000               0.000120275               0.000463511               0.000029665              -0.000012836               0.000158781               0.000145945               0.000000000               0.000000000               0.000000000               0.000000000               0.000108625               0.000519291               0.000033903              -0.000024177               0.000181154               0.000156977               0.000000000               0.000000000               0.000000000               0.000000000               0.000090586               0.000577523               0.000033978              -0.000038220               0.000205246               0.000167025               0.000000000               0.000000000               0.000000000               0.000000000               0.000068965               0.000635360               0.000029995              -0.000053558               0.000229637               0.000176079               0.000000000               0.000000000               0.000000000               0.000000000               0.000045834               0.000689537               0.000022650              -0.000069004               0.000252845               0.000183840               0.000000000               0.000000000               0.000000000               0.000000000               0.000022652               0.000737840               0.000012525              -0.000083735               0.000273856               0.000190121               0.000000000               0.000000000               0.000000000               0.000000000               0.000016716               0.000769128               0.000010152              -0.000089872               0.000286331               0.000196459               0.000000000               0.000000000               0.000000000               0.000000000               0.000002542               0.000034923              -0.000004656              -0.000003412               0.000012778               0.000009366               0.000000000               0.000000000               0.000000000               0.000000000               0.000021174               0.000060558              -0.000004065               0.000000370               0.000020062               0.000020433               0.000000000               0.000000000               0.000000000               0.000000000               0.000044838               0.000120247              -0.000000394               0.000001783               0.000039488               0.000041271               0.000000000               0.000000000               0.000000000               0.000000000               0.000058955               0.000179066              -0.000001208              -0.000000275               0.000059780               0.000059505               0.000000000               0.000000000               0.000000000               0.000000000               0.000082566               0.000242952              -0.000001567               0.000000593               0.000080785               0.000081379               0.000000000               0.000000000               0.000000000               0.000000000               0.000102758               0.000303993               0.000000026               0.000000535               0.000101152               0.000101687               0.000000000               0.000000000               0.000000000               0.000000000               0.000118930               0.000360253               0.000003826              -0.000000433               0.000120227               0.000119795               0.000000000               0.000000000               0.000000000               0.000000000               0.000133403               0.000414264               0.000010699              -0.000001757               0.000138672               0.000136915               0.000000000               0.000000000               0.000000000               0.000000000               0.000142283               0.000469492               0.000019631              -0.000005330               0.000158272               0.000152942               0.000000000               0.000000000               0.000000000               0.000000000               0.000142061               0.000529045               0.000028060              -0.000012858               0.000180633               0.000167775               0.000000000               0.000000000               0.000000000               0.000000000               0.000132979               0.000593943               0.000033741              -0.000024376               0.000206104               0.000181729               0.000000000               0.000000000               0.000000000               0.000000000               0.000116277               0.000661701               0.000035169              -0.000039109               0.000233601               0.000194492               0.000000000               0.000000000               0.000000000               0.000000000               0.000095255               0.000729701               0.000032419              -0.000055492               0.000261728               0.000206237               0.000000000               0.000000000               0.000000000               0.000000000               0.000071581               0.000794514               0.000026373              -0.000072471               0.000288992               0.000216521               0.000000000               0.000000000               0.000000000               0.000000000               0.000047115               0.000854198               0.000018397              -0.000089106               0.000314432               0.000225325               0.000000000               0.000000000               0.000000000               0.000000000               0.000023389               0.000906817               0.000009517              -0.000104581               0.000337130               0.000232549               0.000000000               0.000000000               0.000000000               0.000000000               0.000015458               0.000939464               0.000007858              -0.000111636               0.000350363               0.000238727               0.000000000               0.000000000               0.000000000               0.000000000               0.000013279               0.000056992               0.000000048              -0.000002144               0.000019712               0.000017568               0.000000000               0.000000000               0.000000000               0.000000000               0.000030154               0.000090464              -0.000003859              -0.000000000               0.000030154               0.000030154               0.000000000               0.000000000               0.000000000               0.000000000               0.000059207               0.000159013              -0.000002362               0.000002326               0.000052228               0.000054554               0.000000000               0.000000000               0.000000000               0.000000000               0.000075750               0.000225914              -0.000001457               0.000000167               0.000075248               0.000075415               0.000000000               0.000000000               0.000000000               0.000000000               0.000100176               0.000295860              -0.000002578               0.000000583               0.000098425               0.000099008               0.000000000               0.000000000               0.000000000               0.000000000               0.000121196               0.000362889              -0.000000774               0.000000087               0.000120933               0.000121020               0.000000000               0.000000000               0.000000000               0.000000000               0.000137764               0.000425206               0.000004161              -0.000001489               0.000142230               0.000140741               0.000000000               0.000000000               0.000000000               0.000000000               0.000151954               0.000485961               0.000010634              -0.000003762               0.000163240               0.000159477               0.000000000               0.000000000               0.000000000               0.000000000               0.000159103               0.000550152               0.000018775              -0.000009106               0.000186417               0.000177312               0.000000000               0.000000000               0.000000000               0.000000000               0.000157018               0.000619309               0.000025814              -0.000018532               0.000212612               0.000194080               0.000000000               0.000000000               0.000000000               0.000000000               0.000147236               0.000694240               0.000029940              -0.000031566               0.000241933               0.000210367               0.000000000               0.000000000               0.000000000               0.000000000               0.000131317               0.000771107               0.000030075              -0.000047144               0.000272748               0.000225604               0.000000000               0.000000000               0.000000000               0.000000000               0.000112166               0.000847099               0.000026230              -0.000063825               0.000303639               0.000239813               0.000000000               0.000000000               0.000000000               0.000000000               0.000091039               0.000919707               0.000019592              -0.000080824               0.000333507               0.000252684               0.000000000               0.000000000               0.000000000               0.000000000               0.000069182               0.000987712               0.000011738              -0.000097520               0.000361741               0.000264220               0.000000000               0.000000000               0.000000000               0.000000000               0.000049351               0.001049682               0.000004335              -0.000112703               0.000387458               0.000274755               0.000000000               0.000000000               0.000000000               0.000000000               0.000038265               0.001082097               0.000001334              -0.000120912               0.000400999               0.000280087               0.000000000               0.000000000               0.000000000               0.000000000               0.000023475               0.000076911               0.000004102              -0.000000811               0.000025907               0.000025096               0.000000000               0.000000000               0.000000000               0.000000000               0.000035403               0.000113648              -0.000002307              -0.000000930               0.000038192               0.000037262               0.000000000               0.000000000               0.000000000               0.000000000               0.000068538               0.000187717              -0.000003426               0.000002237               0.000061826               0.000064063               0.000000000               0.000000000               0.000000000               0.000000000               0.000086702               0.000254306              -0.000000659               0.000000725               0.000084526               0.000085251               0.000000000               0.000000000               0.000000000               0.000000000               0.000107851               0.000323650              -0.000000761              -0.000000012               0.000107886               0.000107874               0.000000000               0.000000000               0.000000000               0.000000000               0.000132146               0.000395251              -0.000000203               0.000000149               0.000131699               0.000131848               0.000000000               0.000000000               0.000000000               0.000000000               0.000149513               0.000460817               0.000004097              -0.000001535               0.000154116               0.000152581               0.000000000               0.000000000               0.000000000               0.000000000               0.000165846               0.000525382               0.000009472              -0.000003481               0.000176286               0.000172805               0.000000000               0.000000000               0.000000000               0.000000000               0.000177171               0.000590790               0.000015561              -0.000007410               0.000199398               0.000191988               0.000000000               0.000000000               0.000000000               0.000000000               0.000180566               0.000658601               0.000021878              -0.000014613               0.000224402               0.000209790               0.000000000               0.000000000               0.000000000               0.000000000               0.000176821               0.000731089               0.000026255              -0.000025078               0.000252053               0.000226975               0.000000000               0.000000000               0.000000000               0.000000000               0.000167104               0.000806378               0.000027770              -0.000038133               0.000281501               0.000243368               0.000000000               0.000000000               0.000000000               0.000000000               0.000153330               0.000882744               0.000025714              -0.000052844               0.000311860               0.000259016               0.000000000               0.000000000               0.000000000               0.000000000               0.000137607               0.000959112               0.000020465              -0.000068286               0.000342463               0.000274177               0.000000000               0.000000000               0.000000000               0.000000000               0.000120788               0.001034437               0.000013145              -0.000084009               0.000372812               0.000288803               0.000000000               0.000000000               0.000000000               0.000000000               0.000104947               0.001109143               0.000005766              -0.000099288               0.000402807               0.000303519               0.000000000               0.000000000               0.000000000               0.000000000               0.000090484               0.001141154              -0.000000425              -0.000108712               0.000416618               0.000307906               0.000000000               0.000000000               0.000000000               0.000000000               0.000026231               0.000086719               0.000007717              -0.000001003               0.000029240               0.000028237               0.000000000               0.000000000               0.000000000               0.000000000               0.000037890               0.000129076               0.000000362              -0.000001926               0.000043667               0.000041741               0.000000000               0.000000000               0.000000000               0.000000000               0.000073103               0.000209754              -0.000003861               0.000001195               0.000069519               0.000070714               0.000000000               0.000000000               0.000000000               0.000000000               0.000095969               0.000274227              -0.000002109               0.000001710               0.000090838               0.000092548               0.000000000               0.000000000               0.000000000               0.000000000               0.000113444               0.000340891               0.000000146              -0.000000070               0.000113653               0.000113583               0.000000000               0.000000000               0.000000000               0.000000000               0.000138610               0.000412792              -0.000000601               0.000000380               0.000137469               0.000137849               0.000000000               0.000000000               0.000000000               0.000000000               0.000158509               0.000481134               0.000001327              -0.000000701               0.000160610               0.000159909               0.000000000               0.000000000               0.000000000               0.000000000               0.000175235               0.000545274               0.000005466              -0.000002446               0.000182571               0.000180126               0.000000000               0.000000000               0.000000000               0.000000000               0.000191164               0.000610642               0.000009291              -0.000004644               0.000205093               0.000200450               0.000000000               0.000000000               0.000000000               0.000000000               0.000202016               0.000676623               0.000014184              -0.000008822               0.000228479               0.000219657               0.000000000               0.000000000               0.000000000               0.000000000               0.000206820               0.000744980               0.000018755              -0.000015565               0.000253513               0.000237948               0.000000000               0.000000000               0.000000000               0.000000000               0.000206365               0.000816488               0.000021732              -0.000024674               0.000280384               0.000255710               0.000000000               0.000000000               0.000000000               0.000000000               0.000201668               0.000890249               0.000022306              -0.000035656               0.000308632               0.000272976               0.000000000               0.000000000               0.000000000               0.000000000               0.000193771               0.000964081               0.000019934              -0.000047846               0.000337306               0.000289460               0.000000000               0.000000000               0.000000000               0.000000000               0.000184416               0.001038524               0.000014543              -0.000060659               0.000366391               0.000305732               0.000000000               0.000000000               0.000000000               0.000000000               0.000173269               0.001112098               0.000007450              -0.000074036               0.000395374               0.000321338               0.000000000               0.000000000               0.000000000               0.000000000               0.000158598               0.001140317               0.000000461              -0.000083065               0.000407790               0.000324725               0.000000000               0.000000000               0.000000000               0.000000000               0.000026199               0.000084296               0.000010541              -0.000000712               0.000028336               0.000027624               0.000000000               0.000000000               0.000000000               0.000000000               0.000040647               0.000138539               0.000003585              -0.000002075               0.000046871               0.000044796               0.000000000               0.000000000               0.000000000               0.000000000               0.000075660               0.000227148              -0.000003107              -0.000000021               0.000075722               0.000075701               0.000000000               0.000000000               0.000000000               0.000000000               0.000102741               0.000292876              -0.000003633               0.000001919               0.000096985               0.000098903               0.000000000               0.000000000               0.000000000               0.000000000               0.000119778               0.000355958               0.000000202               0.000000422               0.000118511               0.000118933               0.000000000               0.000000000               0.000000000               0.000000000               0.000142213               0.000424088               0.000000194               0.000000319               0.000141255               0.000141574               0.000000000               0.000000000               0.000000000               0.000000000               0.000165745               0.000495854              -0.000000783               0.000000173               0.000165226               0.000165398               0.000000000               0.000000000               0.000000000               0.000000000               0.000183828               0.000561293               0.000001748              -0.000001226               0.000187504               0.000186278               0.000000000               0.000000000               0.000000000               0.000000000               0.000201581               0.000626376               0.000004325              -0.000002704               0.000209691               0.000206987               0.000000000               0.000000000               0.000000000               0.000000000               0.000218061               0.000692329               0.000006806              -0.000004768               0.000232363               0.000227595               0.000000000               0.000000000               0.000000000               0.000000000               0.000230324               0.000758561               0.000010168              -0.000008448               0.000255667               0.000247219               0.000000000               0.000000000               0.000000000               0.000000000               0.000238337               0.000826541               0.000013112              -0.000013941               0.000280158               0.000266217               0.000000000               0.000000000               0.000000000               0.000000000               0.000242912               0.000897304               0.000014906              -0.000021071               0.000306122               0.000285051               0.000000000               0.000000000               0.000000000               0.000000000               0.000244180               0.000968662               0.000014922              -0.000029515               0.000332722               0.000303207               0.000000000               0.000000000               0.000000000               0.000000000               0.000243560               0.001041263               0.000012658              -0.000038823               0.000360025               0.000321202               0.000000000               0.000000000               0.000000000               0.000000000               0.000241018               0.001113391               0.000007617              -0.000048792               0.000387391               0.000338599               0.000000000               0.000000000               0.000000000               0.000000000               0.000232094               0.001143125               0.000002170              -0.000055855               0.000399656               0.000343801               0.000000000               0.000000000               0.000000000               0.000000000               0.000027384               0.000079699               0.000011833               0.000000307               0.000026464               0.000026770               0.000000000               0.000000000               0.000000000               0.000000000               0.000043062               0.000143705               0.000006976              -0.000001815               0.000048506               0.000046691               0.000000000               0.000000000               0.000000000               0.000000000               0.000076923               0.000239668              -0.000001318              -0.000001112               0.000080259               0.000079147               0.000000000               0.000000000               0.000000000               0.000000000               0.000106517               0.000309634              -0.000004275               0.000001239               0.000102797               0.000104037               0.000000000               0.000000000               0.000000000               0.000000000               0.000125160               0.000370870              -0.000001012               0.000000576               0.000123430               0.000124006               0.000000000               0.000000000               0.000000000               0.000000000               0.000144536               0.000433498               0.000001002               0.000000014               0.000144493               0.000144507               0.000000000               0.000000000               0.000000000               0.000000000               0.000168942               0.000505276              -0.000000807               0.000000194               0.000168359               0.000168553               0.000000000               0.000000000               0.000000000               0.000000000               0.000190572               0.000574880              -0.000000733              -0.000000395               0.000191757               0.000191361               0.000000000               0.000000000               0.000000000               0.000000000               0.000209184               0.000638986               0.000001172              -0.000001429               0.000213470               0.000212040               0.000000000               0.000000000               0.000000000               0.000000000               0.000228649               0.000704725               0.000002137              -0.000002347               0.000235688               0.000233341               0.000000000               0.000000000               0.000000000               0.000000000               0.000246915               0.000771146               0.000003573              -0.000003800               0.000258313               0.000254513               0.000000000               0.000000000               0.000000000               0.000000000               0.000261960               0.000836770               0.000005329              -0.000006361               0.000281041               0.000274680               0.000000000               0.000000000               0.000000000               0.000000000               0.000274663               0.000905041               0.000006854              -0.000010132               0.000305054               0.000294923               0.000000000               0.000000000               0.000000000               0.000000000               0.000284905               0.000974265               0.000007535              -0.000014944               0.000329733               0.000314789               0.000000000               0.000000000               0.000000000               0.000000000               0.000293427               0.001044689               0.000007127              -0.000020551               0.000355077               0.000334526               0.000000000               0.000000000               0.000000000               0.000000000               0.000300933               0.001115132               0.000004688              -0.000026542               0.000380554               0.000354012               0.000000000               0.000000000               0.000000000               0.000000000               0.000300933               0.001147381               0.000001808              -0.000030573               0.000392648               0.000362075               0.000000000               0.000000000               0.000000000               0.000000000               0.000028037               0.000077796               0.000010422               0.000000789               0.000025669               0.000026458               0.000000000               0.000000000               0.000000000               0.000000000               0.000045267               0.000144453               0.000008973              -0.000001081               0.000048511               0.000047430               0.000000000               0.000000000               0.000000000               0.000000000               0.000077762               0.000246471               0.000000901              -0.000001648               0.000082705               0.000081057               0.000000000               0.000000000               0.000000000               0.000000000               0.000108251               0.000322295              -0.000004044               0.000000307               0.000107328               0.000107635               0.000000000               0.000000000               0.000000000               0.000000000               0.000129803               0.000384323              -0.000001648               0.000000636               0.000127895               0.000128530               0.000000000               0.000000000               0.000000000               0.000000000               0.000148545               0.000443332               0.000001413               0.000000288               0.000147680               0.000147968               0.000000000               0.000000000               0.000000000               0.000000000               0.000171457               0.000510220               0.000000588               0.000000519               0.000169899               0.000170418               0.000000000               0.000000000               0.000000000               0.000000000               0.000195924               0.000583236              -0.000000899               0.000000567               0.000194221               0.000194788               0.000000000               0.000000000               0.000000000               0.000000000               0.000216462               0.000648944              -0.000000195               0.000000055               0.000216294               0.000216349               0.000000000               0.000000000               0.000000000               0.000000000               0.000236342               0.000713255               0.000000290              -0.000000529               0.000237925               0.000237397               0.000000000               0.000000000               0.000000000               0.000000000               0.000257534               0.000780758               0.000000301              -0.000001019               0.000260590               0.000259570               0.000000000               0.000000000               0.000000000               0.000000000               0.000277316               0.000846100               0.000000746              -0.000001769               0.000282620               0.000280851               0.000000000               0.000000000               0.000000000               0.000000000               0.000295833               0.000912012               0.000001334              -0.000003064               0.000305022               0.000301958               0.000000000               0.000000000               0.000000000               0.000000000               0.000313102               0.000979399               0.000001676              -0.000005012               0.000328134               0.000323122               0.000000000               0.000000000               0.000000000               0.000000000               0.000329150               0.001047474               0.000001789              -0.000007503               0.000351656               0.000344153               0.000000000               0.000000000               0.000000000               0.000000000               0.000344595               0.001116121               0.000001228              -0.000010292               0.000375467               0.000365175               0.000000000               0.000000000               0.000000000               0.000000000               0.000350992               0.001149900               0.000000324              -0.000012115               0.000387335               0.000375219               0.000000000               0.000000000               0.000000000               0.000000000               0.000028521               0.000075766               0.000006157               0.000001225               0.000024847               0.000026072               0.000000000               0.000000000               0.000000000               0.000000000               0.000048434               0.000140403               0.000006950               0.000000613               0.000046596               0.000047209               0.000000000               0.000000000               0.000000000               0.000000000               0.000079812               0.000247268               0.000001422              -0.000000979               0.000082748               0.000081769               0.000000000               0.000000000               0.000000000               0.000000000               0.000109138               0.000331156              -0.000003700              -0.000000468               0.000110540               0.000110072               0.000000000               0.000000000               0.000000000               0.000000000               0.000132438               0.000395072              -0.000002372               0.000000280               0.000131596               0.000131876               0.000000000               0.000000000               0.000000000               0.000000000               0.000150697               0.000451293               0.000000372               0.000000100               0.000150396               0.000150496               0.000000000               0.000000000               0.000000000               0.000000000               0.000171609               0.000512611               0.000000674               0.000000277               0.000170776               0.000171053               0.000000000               0.000000000               0.000000000               0.000000000               0.000196587               0.000585891              -0.000000604               0.000000484               0.000195134               0.000195617               0.000000000               0.000000000               0.000000000               0.000000000               0.000219269               0.000654845              -0.000000779               0.000000370               0.000218156               0.000218526               0.000000000               0.000000000               0.000000000               0.000000000               0.000239687               0.000718329              -0.000000268               0.000000091               0.000239410               0.000239502               0.000000000               0.000000000               0.000000000               0.000000000               0.000261913               0.000785822              -0.000000468              -0.000000010               0.000261942               0.000261931               0.000000000               0.000000000               0.000000000               0.000000000               0.000284233               0.000852463              -0.000000601               0.000000030               0.000284141               0.000284171               0.000000000               0.000000000               0.000000000               0.000000000               0.000305795               0.000917072              -0.000000528               0.000000039               0.000305675               0.000305714               0.000000000               0.000000000               0.000000000               0.000000000               0.000327171               0.000983065              -0.000000540              -0.000000194               0.000327750               0.000327556               0.000000000               0.000000000               0.000000000               0.000000000               0.000347803               0.001049751              -0.000000419              -0.000000793               0.000350178               0.000349385               0.000000000               0.000000000               0.000000000               0.000000000               0.000367730               0.001117002              -0.000000219              -0.000001727               0.000372906               0.000371179               0.000000000               0.000000000               0.000000000               0.000000000               0.000377129               0.001151102              -0.000000297              -0.000002464               0.000384518               0.000382054               0.000000000               0.000000000               0.000000000               0.000000000               0.000026686               0.000073605               0.000003682               0.000000807               0.000024266               0.000025072               0.000000000               0.000000000               0.000000000               0.000000000               0.000049088               0.000137289               0.000004667               0.000001247               0.000045347               0.000046594               0.000000000               0.000000000               0.000000000               0.000000000               0.000080566               0.000247735               0.000002055              -0.000000755               0.000082829               0.000082074               0.000000000               0.000000000               0.000000000               0.000000000               0.000109559               0.000336283              -0.000001241              -0.000000951               0.000112410               0.000111459               0.000000000               0.000000000               0.000000000               0.000000000               0.000133479               0.000400876              -0.000001300              -0.000000055               0.000133642               0.000133588               0.000000000               0.000000000               0.000000000               0.000000000               0.000152417               0.000457019               0.000000119               0.000000029               0.000152329               0.000152357               0.000000000               0.000000000               0.000000000               0.000000000               0.000171560               0.000515693               0.000000702              -0.000000126               0.000171938               0.000171812               0.000000000               0.000000000               0.000000000               0.000000000               0.000195655               0.000587308               0.000000027              -0.000000043               0.000195782               0.000195739               0.000000000               0.000000000               0.000000000               0.000000000               0.000219716               0.000658015              -0.000000334               0.000000141               0.000219289               0.000219430               0.000000000               0.000000000               0.000000000               0.000000000               0.000240783               0.000720641              -0.000000093               0.000000214               0.000240140               0.000240354               0.000000000               0.000000000               0.000000000               0.000000000               0.000262823               0.000786661              -0.000000281               0.000000226               0.000262142               0.000262368               0.000000000               0.000000000               0.000000000               0.000000000               0.000285712               0.000854816              -0.000000564               0.000000290               0.000284839               0.000285129               0.000000000               0.000000000               0.000000000               0.000000000               0.000307814               0.000920079              -0.000000609               0.000000420               0.000306550               0.000306970               0.000000000               0.000000000               0.000000000               0.000000000               0.000330274               0.000985952              -0.000000627               0.000000609               0.000328444               0.000329053               0.000000000               0.000000000               0.000000000               0.000000000               0.000352793               0.001052298              -0.000000544               0.000000760               0.000350509               0.000351269               0.000000000               0.000000000               0.000000000               0.000000000               0.000374884               0.001118458              -0.000000278               0.000000774               0.000372558               0.000373332               0.000000000               0.000000000               0.000000000               0.000000000               0.000385867               0.001152169              -0.000000175               0.000000679               0.000383826               0.000384505               0.000000000               0.000000000               0.000000000               0.000000000               0.000000000               0.000000000               0.000000000               0.000000000               0.000000000               0.000000000               0.000000000               0.000000000               0.000000000               0.000000000               0.000000000               0.000000000               0.000000000               0.000000000               0.000000000               0.000000000               0.000000000               0.000000000               0.000000000               0.000000000               0.000000000               0.000000000               0.000000000               0.000000000               0.000000000               0.000000000               0.000000000               0.000000000               0.000000000               0.000000000               0.000000000               0.000000000               0.000000000               0.000000000               0.000000000               0.000000000               0.000000000               0.000000000               0.000000000               0.000000000               0.000000000               0.000000000               0.000000000               0.000000000               0.000000000               0.000000000               0.000000000               0.000000000               0.000000000               0.000000000               0.000000000               0.000000000               0.000000000               0.000000000               0.000000000               0.000000000               0.000000000               0.000000000               0.000000000               0.000000000               0.000000000               0.000000000               0.000000000               0.000000000               0.000000000               0.000000000               0.000000000               0.000000000               0.000000000               0.000000000               0.000000000               0.000000000               0.000000000               0.000000000               0.000000000               0.000000000               0.000000000               0.000000000               0.000000000               0.000000000               0.000000000               0.000000000               0.000000000               0.000000000               0.000000000               0.000000000               0.000000000               0.000000000               0.000000000               0.000000000               0.000000000               0.000000000               0.000000000               0.000000000               0.000000000               0.000000000               0.000000000               0.000000000               0.000000000               0.000000000               0.000000000               0.000000000               0.000000000               0.000000000               0.000000000               0.000000000               0.000000000               0.000000000               0.000000000               0.000000000               0.000000000               0.000000000               0.000000000               0.000000000               0.000000000               0.000000000               0.000000000               0.000000000               0.000000000               0.000000000               0.000000000               0.000000000               0.000000000               0.000000000               0.000000000               0.000000000               0.000000000               0.000000000               0.000000000               0.000000000               0.000000000               0.000000000               0.000000000               0.000000000               0.000000000               0.000000000               0.000000000               0.000000000               0.000000000               0.000000000               0.000000000               0.000000000               0.000000000               0.000000000               0.000000000               0.000000000               0.000000000               0.000000000               0.000000000               0.000000000               0.000000000               0.000000000               0.000000000               0.000000000               0.000000000               0.000000000               0.000000000               0.000000000               0.000000000               0.000000000               0.000000000               0.000000000               0.000000000               0.000000000               0.000000000               0.000000000               0.000000000               0.000000000               0.000000000               0.000000000 </DataArray>
</PointData>
</Piece>
</UnstructuredGrid> </VTKFile>
